!BIOSYM archive 3
PBC=ON
Materials Studio Generated CAR File
!DATE Fri Jun 01 08:34:42 2012
PBC   85.0592   22.2750   27.9870   90.0000   90.0000   90.0000 (P1)
Ca1      1.090866038    5.497885450    7.063577509 XXXX 1      ca+t    Ca  1.500
Ca2     -1.448223627    7.379004782    5.122482299 XXXX 1      ca+t    Ca  1.500
Si1      1.172360697    5.220892578    3.934932435 XXXX 1      sc2     Si  1.000
Si2      2.035347484    7.461425015    2.171229961 XXXX 1      sc3     Si  1.000
Si3      1.128426405    2.118200483    3.836307984 XXXX 1      sc2     Si  1.000
O1       1.319314305    6.073174246    2.561843330 XXXX 1      oc12    O  -0.500
O2       1.265371225    3.660480840    3.331789932 XXXX 1      oc12    O  -0.500
O3       2.382094801    5.474720200    4.972357642 XXXX 1      oc13    O  -1.000
O4      -0.218330607    5.530699948    4.681267150 XXXX 1      oc13    O  -1.000
O5       3.505945122    2.059113677   25.119919761 XXXX 1      oc22    O  -1.000
O6       3.595874310    7.467659315    2.673589379 XXXX 1      oc14    O  -0.660
O7      -3.506982268    5.577236693    5.583386341 XXXX 1      o*      O  -0.820
O8       1.104645478    8.652720553    2.726321921 XXXX 1      oc12    O  -0.500
O9      -0.245706538    1.914318895    4.610974055 XXXX 1      oc13    O  -1.000
O11      0.165358975    1.954988319   23.477822312 XXXX 1      o*      O  -0.820
O12     -3.313590478    9.201358601    5.741835371 XXXX 1      o*      O  -0.820
Ca3      3.817223472   -0.131126679   -1.566751477 XXXX 1      ca+t    Ca  1.500
O13     -2.130347788    7.634874617   -7.673622085 XXXX 1      o*      O  -0.820
Ca4     -0.248298736    5.808185220   20.252370679 XXXX 1      ca+t    Ca  1.500
Ca5      2.793596053    3.860423453   18.508519172 XXXX 1      ca+t    Ca  1.500
Si4     -0.040618337    5.385109272   17.397953268 XXXX 1      sc2     Si  1.000
Si5      0.681512321    7.550770570   15.408454650 XXXX 1      sc3     Si  1.000
Si6     -0.107829732    2.326501705   17.547965489 XXXX 1      sc2     Si  1.000
O14      0.020510696    6.212234701   15.986687322 XXXX 1      oc12    O  -0.500
O15     -0.120099156    3.822116320   16.875573702 XXXX 1      oc12    O  -0.500
O16      1.260247562    5.612390024   18.342185882 XXXX 1      oc13    O  -1.000
O17     -1.302057855    5.851521759   18.236463044 XXXX 1      oc13    O  -1.000
O18     -0.958863221    5.268177267   11.623433156 XXXX 1      oc22    O  -1.000
O19      2.297330620    7.695201603   15.700932304 XXXX 1      oc14    O  -0.660
O20      2.485120166    3.388061669   15.307275293 XXXX 1      o*      O  -0.820
O21     -0.264105001    1.306424926   16.284849445 XXXX 1      oc12    O  -0.500
O22     -1.354417351    2.228911022   18.518985540 XXXX 1      oc13    O  -1.000
O24     -3.480186327   13.140018483    5.647187707 XXXX 1      o*      O  -0.820
Ca6      2.645260832    7.482915288   18.219873991 XXXX 1      ca+t    Ca  1.500
Ca7      0.011634060    2.091422215   20.576686391 XXXX 1      ca+t    Ca  1.500
Si7      2.598380381    7.222010771   21.610489967 XXXX 1      sc2     Si  1.000
Si8      3.564441739    2.083610953   23.488778507 XXXX 1      sc3     Si  1.000
Si9      2.669740622    4.161420204   21.514171083 XXXX 1      sc2     Si  1.000
O25      2.859759470    0.672924877   23.053228335 XXXX 1      oc12    O  -0.500
O26      2.784533391    5.664516784   22.101711335 XXXX 1      oc12    O  -0.500
O28      1.147000199    7.442642981   21.010398593 XXXX 1      oc13    O  -1.000
O29      2.009624398    7.566025502    0.534027740 XXXX 1      oc22    O  -1.000
O30      5.100040065    2.138201469   22.945682379 XXXX 1      oc14    O  -0.660
O31     -2.055099359    4.012700498   21.206137068 XXXX 1      o*      O  -0.820
O32      2.647938318    3.319780590   22.889155006 XXXX 1      oc12    O  -0.500
O33      1.352634255    4.010110329   20.626698857 XXXX 1      oc13    O  -1.000
O34      3.957253302    3.763441556   20.608897503 XXXX 1      oc13    O  -1.000
O35     -2.704018155   10.487705612    2.641946523 XXXX 1      o*      O  -0.820
Ca8     -1.637192773    3.709250906    4.993781731 XXXX 1      ca+t    Ca  1.500
Ca9      1.210499352    9.182530375    7.061574181 XXXX 1      ca+t    Ca  1.500
Si10    -1.777261568    3.397930908    7.979753765 XXXX 1      sc2     Si  1.000
Si11    -0.818384534    5.388206039    9.990192639 XXXX 1      sc3     Si  1.000
Si12    -1.558239909    7.644966459    8.061472512 XXXX 1      sc2     Si  1.000
O37     -1.802551885    4.250827505    9.347070926 XXXX 1      oc12    O  -0.500
O38     -1.660508997    9.163868261    8.577347545 XXXX 1      oc12    O  -0.500
O40     -3.024874909    3.719845779    7.083870730 XXXX 1      oc13    O  -1.000
O41      0.541923032    7.596931624   13.732448871 XXXX 1      oc22    O  -1.000
O42      0.739129965    5.102657640    9.540657048 XXXX 1      oc14    O  -0.660
O43      1.180266117    9.110686950    9.987734110 XXXX 1      o*      O  -0.820
O44     -1.484351086    6.808883648    9.458476201 XXXX 1      oc12    O  -0.500
O45     -2.876332367    7.183938287    7.220378230 XXXX 1      oc13    O  -1.000
O46     -0.310480751    7.451571821    7.186500912 XXXX 1      oc13    O  -1.000
O47     -1.562254262    2.476059940   12.039681784 XXXX 1      o*      O  -0.820
O48      1.230894322    2.258542169   12.830785336 XXXX 1      o*      O  -0.820
O49     -3.723683911    6.835292016   11.344029952 XXXX 1      o*      O  -0.820
Ca10    -1.494245219    7.549148883   12.337522876 XXXX 1      ca+t    Ca  1.500
O50     -2.087288579    0.111636797   20.034088234 XXXX 1      o*      O  -0.820
H1       5.731200068    2.593215327   23.530943033 XXXX 1      hoy     H   0.410
H2       2.893844996    7.518905477   15.037247261 XXXX 1      hoy     H   0.410
H3       1.350023737    4.790026637   10.197337085 XXXX 1      hoy     H   0.410
H4       4.228220463    7.221877117    1.977209584 XXXX 1      hoy     H   0.410
H5      -3.387229496    9.821647705    2.796407699 XXXX 1      h*      H   0.410
H6      -3.077102092   10.851298586    1.814272455 XXXX 1      h*      H   0.410
H7      -3.418310549    6.393434288    6.151411884 XXXX 1      h*      H   0.410
H8      -3.779071729    4.960384215    6.307185570 XXXX 1      h*      H   0.410
H9      -3.604859317   10.086973132    6.242430248 XXXX 1      h*      H   0.410
H10     -3.384974353    8.653563130    6.585565949 XXXX 1      h*      H   0.410
H11     -3.117527477    7.641241182   -7.714254232 XXXX 1      h*      H   0.410
H12     -2.075429496    8.217326552   -8.515687921 XXXX 1      h*      H   0.410
H13      0.613666209    9.676789547   10.515318738 XXXX 1      h*      H   0.410
H14      1.933090177    9.033803281   10.665069432 XXXX 1      h*      H   0.410
H15     -3.453616313   12.459938160    6.379203786 XXXX 1      h*      H   0.410
H16     -3.388677874   13.831124447    6.373160003 XXXX 1      h*      H   0.410
H17     -3.788109874    5.878639414   11.253555001 XXXX 1      h*      H   0.410
H18     -4.295118371    7.102818885   10.607597777 XXXX 1      h*      H   0.410
H19      0.301305283    2.545900612   12.868169617 XXXX 1      h*      H   0.410
H20      1.076356915    1.352508419   13.143645557 XXXX 1      h*      H   0.410
H21     -2.390542765    2.393891073   11.490277692 XXXX 1      h*      H   0.410
H22     -1.469038025    3.501956147   12.010792742 XXXX 1      h*      H   0.410
H23     -2.214175783    0.965060451   19.575603012 XXXX 1      h*      H   0.410
H24     -1.894675853   -0.485878088   19.291819247 XXXX 1      h*      H   0.410
H25      2.340509466    2.408352227   15.535890586 XXXX 1      h*      H   0.410
H26      1.592714180    3.825160229   15.340964031 XXXX 1      h*      H   0.410
H27     -2.497818809    3.891603974   20.326853183 XXXX 1      h*      H   0.410
H28     -2.891212149    4.116454174   21.688222577 XXXX 1      h*      H   0.410
H31      1.071926465    1.680771327   23.398962374 XXXX 1      h*      H   0.410
H32      0.187548483    2.114960106   24.408815471 XXXX 1      h*      H   0.410
Ca1     12.016499191    5.494636231    6.826779170 XXXX 2      ca+t    Ca  1.500
Ca2      9.305937604    7.405405050    4.944723641 XXXX 2      ca+t    Ca  1.500
Si1     12.234289752    5.250962722    3.873445595 XXXX 2      sc2     Si  1.000
Si2     12.772149350    7.332669050    1.811889409 XXXX 2      sc3     Si  1.000
Si3     12.160215025    2.148207975    3.903541738 XXXX 2      sc2     Si  1.000
O1      12.250778914    5.944193340    2.439607814 XXXX 2      oc12    O  -0.500
O2      12.100808245    3.705127868    3.364958672 XXXX 2      oc12    O  -0.500
O3      13.518458918    5.602752482    4.717324919 XXXX 2      oc13    O  -1.000
O4      10.991411105    5.641124285    4.768613168 XXXX 2      oc13    O  -1.000
O5      13.691924750    2.035124605   25.261354743 XXXX 2      oc22    O  -1.000
O6      14.376105522    7.501656502    2.035808383 XXXX 2      oc14    O  -0.660
O7       2.945980412    5.042012588   -2.495096839 XXXX 2      o*      O  -0.820
O8      11.942861393    8.550185819    2.519855663 XXXX 2      oc12    O  -0.500
O9      10.972028734    1.805861236    4.932373785 XXXX 2      oc13    O  -1.000
O11     13.627049568    5.046639932   25.252681800 XXXX 2      o*      O  -0.820
O12      7.983089559    0.949669083   -2.363838104 XXXX 2      o*      O  -0.820
Ca3     14.380343270   -0.210514226   -1.561207238 XXXX 2      ca+t    Ca  1.500
O13     11.019896305    3.377255906   -2.568914458 XXXX 2      o*      O  -0.820
Ca4     10.727627571    5.685126005   20.499137501 XXXX 2      ca+t    Ca  1.500
Ca5     13.810268246    3.861858610   18.574788660 XXXX 2      ca+t    Ca  1.500
Si4     11.014160707    5.392773586   17.430001392 XXXX 2      sc2     Si  1.000
Si5     11.919756016    7.592974089   15.418530256 XXXX 2      sc3     Si  1.000
Si6     10.965183822    2.289416963   17.263545830 XXXX 2      sc2     Si  1.000
O14     11.107670370    6.236971508   15.994628366 XXXX 2      oc12    O  -0.500
O15     11.001690086    3.848773393   16.793794504 XXXX 2      oc12    O  -0.500
O16     12.288104579    5.630045779   18.368019329 XXXX 2      oc13    O  -1.000
O17      9.672526069    5.666433513   18.251068902 XXXX 2      oc13    O  -1.000
O18     10.100221813    5.378457776   11.688142762 XXXX 2      oc22    O  -1.000
O19     13.546704767    7.534007974   15.866150598 XXXX 2      oc14    O  -0.660
O20     12.981082567   10.067919289   13.026824259 XXXX 2      o*      O  -0.820
O21     11.031208126    1.494878732   15.835272790 XXXX 2      oc12    O  -0.500
O22      9.623547166    1.918104997   18.075774397 XXXX 2      oc13    O  -1.000
O24     19.880022718    7.066220746   16.417755415 XXXX 2      o*      O  -0.820
Ca6     13.622898309    7.551322380   18.562456281 XXXX 2      ca+t    Ca  1.500
Ca7     10.969699308    2.039028587   20.326067115 XXXX 2      ca+t    Ca  1.500
Si7     13.530583086    7.182106047   21.621686551 XXXX 2      sc2     Si  1.000
Si8     14.056337042    1.993560689   23.661332485 XXXX 2      sc3     Si  1.000
Si9     13.546483940    4.132075582   21.599301040 XXXX 2      sc2     Si  1.000
O25     13.437896096    0.621743251   23.091321830 XXXX 2      oc12    O  -0.500
O26     13.541006534    5.689871611   22.164167057 XXXX 2      oc12    O  -0.500
O28     12.285739934    7.412918626   20.696865666 XXXX 2      oc13    O  -1.000
O29     12.323640477    7.287434009    0.239209172 XXXX 2      oc22    O  -1.000
O30     15.707786883    1.983393153   23.536289534 XXXX 2      oc14    O  -0.660
O31     10.693985022    1.487422106   23.248547924 XXXX 2      o*      O  -0.820
O32     13.395180504    3.312722918   22.981170576 XXXX 2      oc12    O  -0.500
O33     12.360405539    3.901612565   20.573923353 XXXX 2      oc13    O  -1.000
O34     14.891360564    3.829884368   20.822583598 XXXX 2      oc13    O  -1.000
O35     10.412941495    2.303234833    0.199033830 XXXX 2      o*      O  -0.820
O36     10.433479723    5.287221452   28.131123691 XXXX 2      o*      O  -0.820
Ca8      9.355534599    3.671312813    5.045070393 XXXX 2      ca+t    Ca  1.500
Ca9     12.386407153    9.140862000    6.771858763 XXXX 2      ca+t    Ca  1.500
Si10     9.463616577    3.357383876    8.097047149 XXXX 2      sc2     Si  1.000
Si11    10.235736764    5.528963381   10.064710290 XXXX 2      sc3     Si  1.000
Si12     9.402713996    7.720882307    8.116549799 XXXX 2      sc2     Si  1.000
O37      9.457551811    4.273426662    9.461291889 XXXX 2      oc12    O  -0.500
O38      9.488435707    9.227317762    8.629300584 XXXX 2      oc12    O  -0.500
O40      8.197078692    3.671195086    7.166211052 XXXX 2      oc13    O  -1.000
O41     11.796377019    7.592529414   13.849159657 XXXX 2      oc22    O  -1.000
O42     11.850300089    5.611748589    9.660212697 XXXX 2      oc14    O  -0.660
O43     16.196312346   -1.501887984   10.934856261 XXXX 2      o*      O  -0.820
O44      9.446085807    6.873444638    9.530254889 XXXX 2      oc12    O  -0.500
O45      8.105636086    7.527742862    7.267572153 XXXX 2      oc13    O  -1.000
O46     10.741147223    7.362084344    7.280259296 XXXX 2      oc13    O  -1.000
O47      7.186726080    6.124573191   13.075964976 XXXX 2      o*      O  -0.820
O48     17.971365163    5.647421406    9.697129935 XXXX 2      o*      O  -0.820
O49     15.561420536    6.120229987   11.660177728 XXXX 2      o*      O  -0.820
Ca10     9.390720961    7.704503621   12.946381644 XXXX 2      ca+t    Ca  1.500
O50      9.321082381    4.817404597   14.159606898 XXXX 2      o*      O  -0.820
H1      16.229288343    2.503037966   24.124572628 XXXX 2      hoy     H   0.410
H2      14.279036710    7.631957382   15.254842891 XXXX 2      hoy     H   0.410
H3      12.555313468    5.472839360   10.255329497 XXXX 2      hoy     H   0.410
H4      14.970234024    6.936541337    1.485357675 XXXX 2      hoy     H   0.410
H5      10.957550977    1.620312488   -0.241622701 XXXX 2      h*      H   0.410
H6      11.053852985    2.759001738    0.762352936 XXXX 2      h*      H   0.410
H7       2.912324830    4.097835519   -2.165240789 XXXX 2      h*      H   0.410
H8       2.692699946    4.863082086   -3.437857514 XXXX 2      h*      H   0.410
H9       8.159734047    0.014294465   -2.266354839 XXXX 2      h*      H   0.410
H10      8.057284120    0.939724750   -3.322095467 XXXX 2      h*      H   0.410
H11     11.744116255    2.924484033   -2.022622191 XXXX 2      h*      H   0.410
H12     11.384557313    4.255246997   -2.274825796 XXXX 2      h*      H   0.410
H13     15.888345176   -0.579103810   10.745060696 XXXX 2      h*      H   0.410
H14     15.688480381   -1.971984502   10.265480309 XXXX 2      h*      H   0.410
H15     19.104369930    6.821687459   15.893012403 XXXX 2      h*      H   0.410
H16     20.638302924    6.609953272   15.967177337 XXXX 2      h*      H   0.410
H17     15.384205890    6.842395798   11.058000460 XXXX 2      h*      H   0.410
H18     15.676317927    6.668429527   12.509329776 XXXX 2      h*      H   0.410
H19     18.429051118    4.984747664   10.266071394 XXXX 2      h*      H   0.410
H20     17.419820733    6.020287990   10.376738367 XXXX 2      h*      H   0.410
H21      6.579505668    5.646880236   12.476833543 XXXX 2      h*      H   0.410
H22      7.343024383    5.363401057   13.653430164 XXXX 2      h*      H   0.410
H23      9.418086136    4.897924062   13.167559719 XXXX 2      h*      H   0.410
H24     10.236382598    5.018525836   14.425489426 XXXX 2      h*      H   0.410
H25     12.103858398   10.094766831   12.599874396 XXXX 2      h*      H   0.410
H26     12.941840937    9.139700025   13.413078237 XXXX 2      h*      H   0.410
H27     10.759062138    2.262189964   23.846962739 XXXX 2      h*      H   0.410
H28     11.473906249    0.952508663   23.543567412 XXXX 2      h*      H   0.410
H29     11.203874181    5.842526125   28.336230484 XXXX 2      h*      H   0.410
H30     10.230004589    5.060205695   29.088767108 XXXX 2      h*      H   0.410
H31     13.447890955    4.083224289   25.225712224 XXXX 2      h*      H   0.410
H32     13.362005103    5.189007177   24.318491790 XXXX 2      h*      H   0.410
O36     21.326594792    2.269052216   19.390770464 XXXX 3      o*      O  -0.820
H29     21.198180336    2.939047750   20.129152241 XXXX 3      h*      H   0.410
H30     21.572414135    1.448649387   20.003958959 XXXX 3      h*      H   0.410
Ca1      1.356277498   12.936879818    6.885174906 XXXX 5      ca+t    Ca  1.500
Ca2     -1.395484855   14.739277816    5.172086476 XXXX 5      ca+t    Ca  1.500
Si1      1.301639999   12.589639042    3.770238177 XXXX 5      sc2     Si  1.000
Si2      2.112684337   14.941841211    2.007906418 XXXX 5      sc3     Si  1.000
Si3      1.126813984    9.540765903    3.993687403 XXXX 5      sc2     Si  1.000
O1       1.366226299   13.538265586    2.468078331 XXXX 5      oc12    O  -0.500
O2       1.262239243   11.071646013    3.287985356 XXXX 5      oc12    O  -0.500
O3       2.557044865   12.932618131    4.693019667 XXXX 5      oc13    O  -1.000
O4      -0.042285069   12.775797888    4.655766175 XXXX 5      oc13    O  -1.000
O5       3.608501812    9.238482902   25.129044965 XXXX 5      oc22    O  -1.000
O6       3.622954260   15.192231980    2.635645593 XXXX 5      oc14    O  -0.660
O7      -4.234574864   16.422736372    8.700180512 XXXX 5      o*      O  -0.820
O8       1.161040914   16.112012244    2.580530967 XXXX 5      oc12    O  -0.500
O9      -0.222425527    9.341198049    4.855174468 XXXX 5      oc13    O  -1.000
O11     -2.104499318   10.777822032   20.028935547 XXXX 5      o*      O  -0.820
O12     -1.047122123   21.197024959   -4.950896432 XXXX 5      o*      O  -0.820
Ca3      3.652020368    7.332638427   -1.289062168 XXXX 5      ca+t    Ca  1.500
O13      1.535057518   10.811881855    0.341429185 XXXX 5      o*      O  -0.820
Ca4     -0.249050402   13.123234129   20.700314472 XXXX 5      ca+t    Ca  1.500
Ca5      2.772680051   11.289396473   18.563857320 XXXX 5      ca+t    Ca  1.500
Si4     -0.263205898   12.670040352   17.664517930 XXXX 5      sc2     Si  1.000
Si5      0.213445432   14.972767796   15.690962669 XXXX 5      sc3     Si  1.000
Si6     -0.063269563    9.592643596   17.452302046 XXXX 5      sc2     Si  1.000
O14     -0.515792260   13.627844387   16.322815395 XXXX 5      oc12    O  -0.500
O15     -0.242938007   11.186807807   17.001471662 XXXX 5      oc12    O  -0.500
O16      1.089432884   13.034875892   18.448724178 XXXX 5      oc13    O  -1.000
O17     -1.455769389   12.720339064   18.688971636 XXXX 5      oc13    O  -1.000
O18     -0.672661555   12.769029239   11.650501583 XXXX 5      oc22    O  -1.000
O19      1.850144776   14.937021983   16.085805877 XXXX 5      oc14    O  -0.660
O20      2.529397960   11.184720008   15.451250066 XXXX 5      o*      O  -0.820
O21     -0.070114023    8.866531072   16.001747517 XXXX 5      oc12    O  -0.500
O22     -1.267095375    9.082649813   18.427512025 XXXX 5      oc13    O  -1.000
O24     -4.302446611   12.893092658    8.595640322 XXXX 5      o*      O  -0.820
Ca6      2.480504348   14.911558746   18.495859549 XXXX 5      ca+t    Ca  1.500
Ca7     -0.025668097    9.338983345   20.440339847 XXXX 5      ca+t    Ca  1.500
Si7      2.674192961   14.575583058   21.738906342 XXXX 5      sc2     Si  1.000
Si8      3.542565579    9.307195291   23.547232569 XXXX 5      sc3     Si  1.000
Si9      2.622080950   11.491465226   21.673017610 XXXX 5      sc2     Si  1.000
O25      2.777028023    7.960437878   23.040592680 XXXX 5      oc12    O  -0.500
O26      2.919927021   13.003855790   22.222025359 XXXX 5      oc12    O  -0.500
O28      1.150208527   14.754741380   21.182342216 XXXX 5      oc13    O  -1.000
O29      2.138809440   15.043498159    0.411463813 XXXX 5      oc22    O  -1.000
O30      5.076664564    9.465744302   22.900862998 XXXX 5      oc14    O  -0.660
O31     -3.073139341    7.794364699   17.295594347 XXXX 5      o*      O  -0.820
O32      2.705801587   10.677630721   23.074876912 XXXX 5      oc12    O  -0.500
O33      1.195005729   11.335179516   21.065587351 XXXX 5      oc13    O  -1.000
O34      3.803489868   11.110443883   20.685903506 XXXX 5      oc13    O  -1.000
O35     -4.771549568    3.193731975   10.059674150 XXXX 5      o*      O  -0.820
Ca8     -1.567575903   11.102651183    5.139933874 XXXX 5      ca+t    Ca  1.500
Ca9      1.315913244   16.646099802    7.138828148 XXXX 5      ca+t    Ca  1.500
Si10    -1.614988043   10.727367868    7.984172264 XXXX 5      sc2     Si  1.000
Si11    -0.595500851   12.847780101   10.027993920 XXXX 5      sc3     Si  1.000
Si12    -1.350723140   15.052017156    8.253536964 XXXX 5      sc2     Si  1.000
O37     -1.589261330   11.692873290    9.343663185 XXXX 5      oc12    O  -0.500
O38     -1.399916387   16.619450863    8.699659900 XXXX 5      oc12    O  -0.500
O40     -2.897516558   11.152753517    7.110129154 XXXX 5      oc13    O  -1.000
O41      0.054050165   15.052151120   14.073586152 XXXX 5      oc22    O  -1.000
O42      0.945099615   12.696862984    9.493834331 XXXX 5      oc14    O  -0.660
O43      1.880845621   13.391374204   12.531596935 XXXX 5      o*      O  -0.820
O44     -1.254012724   14.259286636    9.636541855 XXXX 5      oc12    O  -0.500
O45     -2.639539379   14.689300809    7.357349241 XXXX 5      oc13    O  -1.000
O46     -0.073179738   14.782100281    7.298552089 XXXX 5      oc13    O  -1.000
O47     -4.295621094   14.997055523   11.115090650 XXXX 5      o*      O  -0.820
O48      1.597005815    9.848574668   12.680704690 XXXX 5      o*      O  -0.820
O49      4.718087156   13.345447199   11.536060973 XXXX 5      o*      O  -0.820
Ca10    -1.907951663   14.674820151   12.553446692 XXXX 5      ca+t    Ca  1.500
O50     -1.167876893   10.095333474   11.715452746 XXXX 5      o*      O  -0.820
H1       5.665741941    9.769849629   23.547381164 XXXX 5      hoy     H   0.410
H2       2.506540137   15.079805213   15.394928394 XXXX 5      hoy     H   0.410
H3       1.619147214   12.795586742   10.170671556 XXXX 5      hoy     H   0.410
H4       4.330978313   15.236552532    2.016959707 XXXX 5      hoy     H   0.410
H5      -4.992186570    4.139248115    9.969036021 XXXX 5      h*      H   0.410
H6      -4.154011735    3.038548857    9.361884980 XXXX 5      h*      H   0.410
H7      -3.907843834   17.145417960    8.137885432 XXXX 5      h*      H   0.410
H8      -3.950898008   15.696570676    8.066809042 XXXX 5      h*      H   0.410
H9      -1.931741835   21.322452531   -4.610953605 XXXX 5      h*      H   0.410
H10     -0.570124878   21.565618609   -4.154280353 XXXX 5      h*      H   0.410
H11      1.622077147    9.822350021    0.458629906 XXXX 5      h*      H   0.410
H12      1.776852589   11.144749962    1.232489584 XXXX 5      h*      H   0.410
H13      1.480625482   14.169920602   13.055558418 XXXX 5      h*      H   0.410
H14      1.134064847   12.904071679   12.302802077 XXXX 5      h*      H   0.410
H15     -3.962399624   12.195125291    8.041908523 XXXX 5      h*      H   0.410
H16     -3.621555112   13.609197252    8.334826029 XXXX 5      h*      H   0.410
H17      4.924971234   13.158257625   10.579490236 XXXX 5      h*      H   0.410
H18      4.087513315   14.145876327   11.456924162 XXXX 5      h*      H   0.410
H19      1.587729707    8.947733366   13.154830687 XXXX 5      h*      H   0.410
H20      0.578904118    9.913349680   12.766904223 XXXX 5      h*      H   0.410
H21     -4.246670471   15.723560919   10.406407459 XXXX 5      h*      H   0.410
H22     -5.054692319   14.517654149   10.571286427 XXXX 5      h*      H   0.410
H23     -1.203419848   10.395181960   10.790743011 XXXX 5      h*      H   0.410
H24     -1.221254482   11.071989996   11.973941694 XXXX 5      h*      H   0.410
H25      2.340523999   10.238140584   15.689960996 XXXX 5      h*      H   0.410
H26      1.624480233   11.448130052   15.362618464 XXXX 5      h*      H   0.410
H27     -2.465515714    8.429273657   17.747796613 XXXX 5      h*      H   0.410
H28     -2.427907026    7.040222171   17.513818229 XXXX 5      h*      H   0.410
H31     -2.222785761   11.632849295   19.594841106 XXXX 5      h*      H   0.410
H32     -2.407990654   10.306793963   19.255895906 XXXX 5      h*      H   0.410
Ca1     12.196833629   13.063742568    6.906606004 XXXX 6      ca+t    Ca  1.500
Ca2      9.456831937   14.877732473    5.019363341 XXXX 6      ca+t    Ca  1.500
Si1     12.046379395   12.479410401    3.861171379 XXXX 6      sc2     Si  1.000
Si2     12.672721826   14.727859290    1.925739850 XXXX 6      sc3     Si  1.000
Si3     12.079136139    9.486504300    3.861192836 XXXX 6      sc2     Si  1.000
O1      11.925285223   13.396671272    2.528398874 XXXX 6      oc12    O  -0.500
O2      12.004774422   10.968103444    3.255643165 XXXX 6      oc12    O  -0.500
O3      13.382026578   12.792149312    4.648143531 XXXX 6      oc13    O  -1.000
O4      10.919673037   12.824530627    4.906839382 XXXX 6      oc13    O  -1.000
O5      13.509487772    9.421843728   25.202068491 XXXX 6      oc22    O  -1.000
O6      14.337560990   14.726573999    2.260207576 XXXX 6      oc14    O  -0.660
O7       5.091349823   12.868896810    0.096762865 XXXX 6      o*      O  -0.820
O8      12.003207819   16.141488199    2.409073315 XXXX 6      oc12    O  -0.500
O9      10.870894337    9.247092165    4.822909056 XXXX 6      oc13    O  -1.000
O11     13.745585379   12.557484197   26.226327541 XXXX 6      o*      O  -0.820
O12     10.473582889   12.629193046    0.329505240 XXXX 6      o*      O  -0.820
Ca3     14.171177878    7.639621588   -1.438472586 XXXX 6      ca+t    Ca  1.500
O13     11.194696314   10.890974674   -2.411856426 XXXX 6      o*      O  -0.820
Ca4     10.676303735   13.072062779   20.499687279 XXXX 6      ca+t    Ca  1.500
Ca5     13.791083221   11.073427875   18.701291599 XXXX 6      ca+t    Ca  1.500
Si4     10.941736838   12.715683572   17.524343569 XXXX 6      sc2     Si  1.000
Si5     11.837527910   14.812204444   15.611536989 XXXX 6      sc3     Si  1.000
Si6     10.960761054    9.678685843   17.476221081 XXXX 6      sc2     Si  1.000
O14     11.027077988   13.523636832   16.164883427 XXXX 6      oc12    O  -0.500
O15     10.962553938   11.159925146   16.916191525 XXXX 6      oc12    O  -0.500
O16     12.235350003   12.947611034   18.447933853 XXXX 6      oc13    O  -1.000
O17      9.575956611   13.032262963   18.317515855 XXXX 6      oc13    O  -1.000
O18     10.400357414   12.919289468   11.589395466 XXXX 6      oc22    O  -1.000
O19     13.382891004   14.867474471   16.101553278 XXXX 6      oc14    O  -0.660
O20     16.082757390   13.723335948   12.061128029 XXXX 6      o*      O  -0.820
O21     11.061113825    8.819276482   16.027735458 XXXX 6      oc12    O  -0.500
O22      9.612859649    9.392354477   18.306478971 XXXX 6      oc13    O  -1.000
O24     18.126035357   10.470935763   11.723859857 XXXX 6      o*      O  -0.820
Ca6     13.528104211   14.806173784   18.648899468 XXXX 6      ca+t    Ca  1.500
Ca7     10.784240015    9.292299145   20.516050561 XXXX 6      ca+t    Ca  1.500
Si7     13.531462359   14.569691127   21.749425505 XXXX 6      sc2     Si  1.000
Si8     13.999699529    9.321248974   23.661403924 XXXX 6      sc3     Si  1.000
Si9     13.458439753   11.533433118   21.638417334 XXXX 6      sc2     Si  1.000
O25     13.270653495    8.004964531   23.031987959 XXXX 6      oc12    O  -0.500
O26     13.486397879   13.035111126   22.307080175 XXXX 6      oc12    O  -0.500
O28     12.272671424   14.841897632   20.756448472 XXXX 6      oc13    O  -1.000
O29     12.388792417   14.674393275    0.321438178 XXXX 6      oc22    O  -1.000
O30     15.660661013    9.419805689   23.597782339 XXXX 6      oc14    O  -0.660
O31     10.668734331    9.027999025   23.192451622 XXXX 6      o*      O  -0.820
O32     13.296234714   10.647131625   22.975609594 XXXX 6      oc12    O  -0.500
O33     12.222188510   11.327816964   20.676720061 XXXX 6      oc13    O  -1.000
O34     14.769071025   11.172468132   20.824017897 XXXX 6      oc13    O  -1.000
O35      9.982313371    8.974683275    0.328252590 XXXX 6      o*      O  -0.820
O36     11.300416352   14.113460486   25.997568579 XXXX 6      o*      O  -0.820
Ca8      9.439595253   11.078902592    5.129014956 XXXX 6      ca+t    Ca  1.500
Ca9     12.218138374   16.722622592    6.805077843 XXXX 6      ca+t    Ca  1.500
Si10     9.588083140   10.767343366    8.081618016 XXXX 6      sc2     Si  1.000
Si11    10.412373548   12.959486426    9.960646886 XXXX 6      sc3     Si  1.000
Si12     9.434536137   15.130058344    8.113644106 XXXX 6      sc2     Si  1.000
O37      9.643731434   11.575924872    9.478761973 XXXX 6      oc12    O  -0.500
O38      9.342324077   16.657457534    8.553503600 XXXX 6      oc12    O  -0.500
O40      8.275079280   11.097412471    7.242110895 XXXX 6      oc13    O  -1.000
O41     11.676520533   14.687016036   13.948152611 XXXX 6      oc22    O  -1.000
O42     11.955687140   13.062961801    9.390565250 XXXX 6      oc14    O  -0.660
O43     13.265478083   16.765521521   13.389762321 XXXX 6      o*      O  -0.820
O44      9.540139703   14.299039365    9.537156683 XXXX 6      oc12    O  -0.500
O45      8.167359548   14.760696117    7.254632021 XXXX 6      oc13    O  -1.000
O46     10.784028795   14.875766630    7.237642414 XXXX 6      oc13    O  -1.000
O47      9.793539746   11.960412128   14.109957771 XXXX 6      o*      O  -0.820
O48     17.311377443    0.816683857   13.355894207 XXXX 6      o*      O  -0.820
O49     19.847746659   10.809686770    7.018216546 XXXX 6      o*      O  -0.820
Ca10     9.503524025   14.832082174   12.887568903 XXXX 6      ca+t    Ca  1.500
O50      7.362990468    9.517958371   12.311758383 XXXX 6      o*      O  -0.820
H1      16.076440518   10.079767519   24.172616647 XXXX 6      hoy     H   0.410
H2      14.014287447   14.815152632   15.419465675 XXXX 6      hoy     H   0.410
H3      12.678433033   12.888641369    9.923634117 XXXX 6      hoy     H   0.410
H4      14.910392746   14.779166031    1.537025895 XXXX 6      hoy     H   0.410
H5      10.636249699    8.585178270    0.986690889 XXXX 6      h*      H   0.410
H6      10.290400881    8.563649652   -0.497804308 XXXX 6      h*      H   0.410
H7       5.591700290   11.991619158    0.003753043 XXXX 6      h*      H   0.410
H8       5.512420414   13.131559493    0.964447704 XXXX 6      h*      H   0.410
H9      11.315959429   13.110175869    0.327820319 XXXX 6      h*      H   0.410
H10     10.455335307   12.332039838    1.281435585 XXXX 6      h*      H   0.410
H11     12.053939256   10.354335511   -2.358871833 XXXX 6      h*      H   0.410
H12     11.300453718   11.202862161   -3.352431172 XXXX 6      h*      H   0.410
H13     13.667569286   16.182396567   12.659371573 XXXX 6      h*      H   0.410
H14     12.509224338   16.246209659   13.689596306 XXXX 6      h*      H   0.410
H15     18.031821147   10.835389414   12.622625391 XXXX 6      h*      H   0.410
H16     17.347557004    9.848036466   11.808888714 XXXX 6      h*      H   0.410
H17     20.805789259   10.689862867    7.148408496 XXXX 6      h*      H   0.410
H18     19.804553058   10.576358075    6.041903047 XXXX 6      h*      H   0.410
H19     16.711252541    0.931829453   12.595991867 XXXX 6      h*      H   0.410
H20     17.048081381    1.652312697   13.780655843 XXXX 6      h*      H   0.410
H21     10.628034673   11.760048538   14.628976191 XXXX 6      h*      H   0.410
H22     10.157078940   12.096964456   13.230413624 XXXX 6      h*      H   0.410
H23      6.427623368    9.249969908   12.090325103 XXXX 6      h*      H   0.410
H24      7.030226294   10.225572237   12.962113987 XXXX 6      h*      H   0.410
H25     15.545725526   14.362301252   11.584652182 XXXX 6      h*      H   0.410
H26     16.542160963   14.276841482   12.725128568 XXXX 6      h*      H   0.410
H27     10.492094404    8.881284275   24.136545460 XXXX 6      h*      H   0.410
H28     11.569303049    8.677933397   23.217146078 XXXX 6      h*      H   0.410
H29     10.446516116   13.633012705   26.215192539 XXXX 6      h*      H   0.410
H30     11.597456278   14.312124274   26.895020795 XXXX 6      h*      H   0.410
H31     12.815897224   12.203608290   26.185050280 XXXX 6      h*      H   0.410
H32     14.256949832   11.762198013   26.046996864 XXXX 6      h*      H   0.410
O36     20.699334427   10.922047299   32.038267294 XXXX 7      o*      O  -0.820
H29     20.171570905   11.746113971   32.336051194 XXXX 7      h*      H   0.410
H30     19.971474919   10.244676889   32.220128507 XXXX 7      h*      H   0.410
Ca1      1.101765925   20.379269399    7.073776334 XXXX 9      ca+t    Ca  1.500
Ca2     -1.474169879   22.283035650    5.044583523 XXXX 9      ca+t    Ca  1.500
Si1      1.173827629   20.115358855    3.944347821 XXXX 9      sc2     Si  1.000
Si2      2.125468633   22.243692591    1.931468127 XXXX 9      sc3     Si  1.000
Si3      1.104542066   16.989378149    3.952976331 XXXX 9      sc2     Si  1.000
O1       1.336911148   20.939465290    2.529419704 XXXX 9      oc12    O  -0.500
O2       1.230415198   18.564568438    3.437046455 XXXX 9      oc12    O  -0.500
O3       2.377824916   20.461388705    4.885131834 XXXX 9      oc13    O  -1.000
O4      -0.239115915   20.360866975    4.649129435 XXXX 9      oc13    O  -1.000
O5       3.521538176   16.806120936   25.338227361 XXXX 9      oc22    O  -1.000
O6       3.686784597   22.241870459    2.489284170 XXXX 9      oc14    O  -0.660
O7      -4.547590744   27.871645677    8.520540757 XXXX 9      o*      O  -0.820
O8       1.268670662   23.606376003    2.447847125 XXXX 9      oc12    O  -0.500
O9      -0.269851730   16.684922166    4.797541430 XXXX 9      oc13    O  -1.000
O11     -2.150209389   18.706105271   20.436329784 XXXX 9      o*      O  -0.820
O12     -2.923307396   26.278346644   -9.352733608 XXXX 9      o*      O  -0.820
Ca3      3.279821085   14.427857316   -1.637797034 XXXX 9      ca+t    Ca  1.500
O13     -3.721700938   24.081305572    5.449520675 XXXX 9      o*      O  -0.820
Ca4     -0.049076680   20.562753926   20.615797790 XXXX 9      ca+t    Ca  1.500
Ca5      2.645752636   18.513414959   18.594934807 XXXX 9      ca+t    Ca  1.500
Si4     -0.109080924   20.202901429   17.635368252 XXXX 9      sc2     Si  1.000
Si6     -0.262027626   17.195953157   17.782786677 XXXX 9      sc2     Si  1.000
O14      0.021186547   20.920888453   16.143209652 XXXX 9      oc12    O  -0.500
O15     -0.146545971   18.658522151   17.133321438 XXXX 9      oc12    O  -0.500
O16      1.219883041   20.463357410   18.516466974 XXXX 9      oc13    O  -1.000
O17     -1.449374826   20.580435652   18.471242450 XXXX 9      oc13    O  -1.000
O18     -1.361726071   20.359266746   11.530035291 XXXX 9      oc22    O  -1.000
O20      1.869639298   18.594030024   15.311412797 XXXX 9      o*      O  -0.820
O21     -0.456464586   16.279157368   16.438721517 XXXX 9      oc12    O  -0.500
O22     -1.393418965   17.020595585   18.835092404 XXXX 9      oc13    O  -1.000
Ca7     -0.018368143   16.707467907   20.689781316 XXXX 9      ca+t    Ca  1.500
Si7      2.641581566   22.003470827   21.721053990 XXXX 9      sc2     Si  1.000
Si8      3.618518650   16.792811540   23.712494445 XXXX 9      sc3     Si  1.000
Si9      2.624443254   18.958936327   21.733432695 XXXX 9      sc2     Si  1.000
O25      2.913296842   15.372290271   23.167416130 XXXX 9      oc12    O  -0.500
O26      2.635547113   20.498218110   22.285999518 XXXX 9      oc12    O  -0.500
O28      1.292667270   22.387572021   20.975267395 XXXX 9      oc13    O  -1.000
O29      2.088007801   22.061729717    0.319557415 XXXX 9      oc22    O  -1.000
O30      5.162209484   16.922158939   23.159079969 XXXX 9      oc14    O  -0.660
O31     -2.101133201   14.781402112   19.938278963 XXXX 9      o*      O  -0.820
O32      2.746149467   18.109291301   23.171934904 XXXX 9      oc12    O  -0.500
O33      1.227439178   18.647920022   21.050024915 XXXX 9      oc13    O  -1.000
O34      3.791703427   18.630749901   20.728298203 XXXX 9      oc13    O  -1.000
O35     -3.614171997   16.562278806    5.055422959 XXXX 9      o*      O  -0.820
Ca8     -1.557531277   18.547590144    4.989759403 XXXX 9      ca+t    Ca  1.500
Si10    -1.641411895   18.039194399    8.017005074 XXXX 9      sc2     Si  1.000
Si11    -1.141726340   20.326073255    9.929095490 XXXX 9      sc3     Si  1.000
Si12    -1.825607646   22.559650305    7.995866519 XXXX 9      sc2     Si  1.000
O37     -1.799087535   18.962815978    9.336138995 XXXX 9      oc12    O  -0.500
O40     -2.959714573   17.985841846    7.049143147 XXXX 9      oc13    O  -1.000
O42      0.463314682   20.370006124    9.668456283 XXXX 9      oc14    O  -0.660
O43      0.866818591   23.977970288    9.797183113 XXXX 9      o*      O  -0.820
O44     -1.975659677   21.603386443    9.325667734 XXXX 9      oc12    O  -0.500
O45     -2.836478705   22.270431609    6.803018127 XXXX 9      oc13    O  -1.000
O46     -0.366967607   22.343911190    7.328617921 XXXX 9      oc13    O  -1.000
O47     -3.636998146   20.537551371   17.325683455 XXXX 9      o*      O  -0.820
O48      1.376096516   16.945464385   12.577619924 XXXX 9      o*      O  -0.820
O49      0.898165129   19.990081766   13.026101213 XXXX 9      o*      O  -0.820
Ca10    -2.005374783   22.161244060   13.187313928 XXXX 9      ca+t    Ca  1.500
O50     -1.528028801   17.188057023   11.560562152 XXXX 9      o*      O  -0.820
H1       5.685615426   17.629766482   23.544554307 XXXX 9      hoy     H   0.410
H3       0.910466459   20.783913468   10.401048351 XXXX 9      hoy     H   0.410
H4       4.421950454   21.976167649    1.988318360 XXXX 9      hoy     H   0.410
H5      -3.441646044   16.895904760    5.956632329 XXXX 9      h*      H   0.410
H6      -4.581906068   16.813436377    4.935124658 XXXX 9      h*      H   0.410
H7      -4.028096891   27.266340577    8.027586221 XXXX 9      h*      H   0.410
H8      -4.032616569   28.725819940    8.381022067 XXXX 9      h*      H   0.410
H9      -2.204541178   25.569333400   -9.514367995 XXXX 9      h*      H   0.410
H10     -2.388009979   27.074454570   -9.568027443 XXXX 9      h*      H   0.410
H11     -3.704038521   24.829321628    6.121390740 XXXX 9      h*      H   0.410
H12     -3.823553442   23.319839500    6.099751990 XXXX 9      h*      H   0.410
H13      1.263117314   24.312281490   10.634883162 XXXX 9      h*      H   0.410
H14     -0.036399848   24.342011345   10.005563524 XXXX 9      h*      H   0.410
H17      0.033529643   19.911479273   12.514477466 XXXX 9      h*      H   0.410
H18      0.731987037   20.968948024   13.449758566 XXXX 9      h*      H   0.410
H19      1.194413523   16.089176793   13.091753493 XXXX 9      h*      H   0.410
H20      0.435893712   17.088430737   12.438707971 XXXX 9      h*      H   0.410
H21     -2.791503646   20.384742232   17.839342385 XXXX 9      h*      H   0.410
H22     -4.209374468   19.861230101   17.619728927 XXXX 9      h*      H   0.410
H23     -1.801371634   17.110817171   10.602377366 XXXX 9      h*      H   0.410
H24     -1.688323714   18.221085410   11.579303431 XXXX 9      h*      H   0.410
H25      1.328027778   19.250277051   14.848798442 XXXX 9      h*      H   0.410
H26      1.160951068   18.122780357   15.719160473 XXXX 9      h*      H   0.410
H27     -2.299197965   14.110302057   19.284278513 XXXX 9      h*      H   0.410
H28     -2.148426652   15.626413927   19.342358967 XXXX 9      h*      H   0.410
H31     -2.507341025   19.418725397   19.902955968 XXXX 9      h*      H   0.410
H32     -1.966167189   18.045363281   19.703935022 XXXX 9      h*      H   0.410
Ca1     12.122688580   20.356056900    6.915685275 XXXX 10     ca+t    Ca  1.500
Ca2      9.484798228   22.148682528    5.039161062 XXXX 10     ca+t    Ca  1.500
Si1     12.161204264   20.093318443    3.725382726 XXXX 10     sc2     Si  1.000
Si2     12.819436006   22.386211232    1.809499240 XXXX 10     sc3     Si  1.000
Si3     12.130630464   17.036908078    3.739616089 XXXX 10     sc2     Si  1.000
O1      12.068047674   21.002745938    2.356110331 XXXX 10     oc12    O  -0.500
O2      12.045669053   18.556002419    3.121356595 XXXX 10     oc12    O  -0.500
O3      13.423402938   20.298632756    4.635626644 XXXX 10     oc13    O  -1.000
O4      10.956600046   20.312205531    4.774451154 XXXX 10     oc13    O  -1.000
O5      13.949678175   17.037872586   25.124658756 XXXX 10     oc22    O  -1.000
O6      14.453865524   22.296071187    2.224033951 XXXX 10     oc14    O  -0.660
O7       0.585680742   16.168353415   -1.513386453 XXXX 10     o*      O  -0.820
O8      12.039191695   23.603491637    2.525400801 XXXX 10     oc12    O  -0.500
O9      10.879813296   16.723782356    4.630704002 XXXX 10     oc13    O  -1.000
O11     13.940475338   19.577893308   25.567304733 XXXX 10     o*      O  -0.820
O12     11.504055778   19.345964616    0.131244103 XXXX 10     o*      O  -0.820
Ca3     14.147666303   15.007841054   -1.366290106 XXXX 10     ca+t    Ca  1.500
O13     16.173271314   20.551140385    0.038140115 XXXX 10     o*      O  -0.820
Ca4     10.787914655   20.613253978   20.489341800 XXXX 10     ca+t    Ca  1.500
Ca5     13.704299483   18.640330325   18.621447333 XXXX 10     ca+t    Ca  1.500
Si4     10.915998613   20.199463718   17.376107019 XXXX 10     sc2     Si  1.000
Si6     11.000278808   17.127586013   17.402998918 XXXX 10     sc2     Si  1.000
O14     10.807179249   21.133999069   16.019473848 XXXX 10     oc12    O  -0.500
O15     11.027253982   18.609488897   16.831818620 XXXX 10     oc12    O  -0.500
O16     12.267439132   20.598427491   18.206077212 XXXX 10     oc13    O  -1.000
O17      9.614533155   20.450758753   18.258643601 XXXX 10     oc13    O  -1.000
O18     10.362224988   20.320980524   11.567204237 XXXX 10     oc22    O  -1.000
O20     15.293232968   21.077082273   14.239405071 XXXX 10     o*      O  -0.820
O21     11.095954216   16.219069115   16.081284432 XXXX 10     oc12    O  -0.500
O22      9.589044587   16.890464561   18.203499977 XXXX 10     oc13    O  -1.000
Ca7     10.902496735   16.791619988   20.481405284 XXXX 10     ca+t    Ca  1.500
Si7     13.553725177   22.012264664   21.722883978 XXXX 10     sc2     Si  1.000
Si8     14.195177049   16.849263228   23.584732051 XXXX 10     sc3     Si  1.000
Si9     13.516602537   18.999724267   21.643227023 XXXX 10     sc2     Si  1.000
O25     13.532603197   15.459668876   23.143134546 XXXX 10     oc12    O  -0.500
O26     13.424676104   20.446680061   22.274421998 XXXX 10     oc12    O  -0.500
O28     12.413647422   22.378314735   20.707320266 XXXX 10     oc13    O  -1.000
O29     12.637297543   22.502909869    0.196599134 XXXX 10     oc22    O  -1.000
O30     15.770604571   17.031942707   23.197270604 XXXX 10     oc14    O  -0.660
O31     11.158285021   17.070789663   24.903803835 XXXX 10     o*      O  -0.820
O32     13.311131580   17.983298389   22.895061558 XXXX 10     oc12    O  -0.500
O33     12.345004028   18.781150578   20.542746902 XXXX 10     oc13    O  -1.000
O34     14.871267899   18.712543460   20.849849306 XXXX 10     oc13    O  -1.000
O35      9.866696250   16.474538337    0.659896770 XXXX 10     o*      O  -0.820
Ca8      9.282240097   18.615334839    4.889876199 XXXX 10     ca+t    Ca  1.500
Si10     9.378959960   18.185348460    8.050406566 XXXX 10     sc2     Si  1.000
Si11    10.421504107   20.328016574    9.918467754 XXXX 10     sc3     Si  1.000
Si12     9.478222299   22.570970937    8.142435713 XXXX 10     sc2     Si  1.000
O37      9.627971210   19.001299571    9.409570161 XXXX 10     oc12    O  -0.500
O40      8.053436291   18.544298203    7.241667541 XXXX 10     oc13    O  -1.000
O42     11.996039148   20.367140471    9.436456795 XXXX 10     oc14    O  -0.660
O43     13.508618248   25.092641920   15.076795151 XXXX 10     o*      O  -0.820
O44      9.630179565   21.682084186    9.472769666 XXXX 10     oc12    O  -0.500
O45      8.209892048   22.235567056    7.197408214 XXXX 10     oc13    O  -1.000
O46     10.763541912   22.369068599    7.175791213 XXXX 10     oc13    O  -1.000
O47     12.932334541   23.980618900   12.095517429 XXXX 10     o*      O  -0.820
O48     18.407345392   20.141388941    9.302858015 XXXX 10     o*      O  -0.820
O49     19.490137829   22.362586617   16.014782716 XXXX 10     o*      O  -0.820
Ca10     9.407181130   22.370330589   12.558035920 XXXX 10     ca+t    Ca  1.500
O50     12.834349705   20.175343096   12.358508455 XXXX 10     o*      O  -0.820
H1      16.309608453   17.538955451   23.793057394 XXXX 10     hoy     H   0.410
H3      12.600081647   20.665069512   10.072668411 XXXX 10     hoy     H   0.410
H4      15.083684500   22.653117432    1.582168935 XXXX 10     hoy     H   0.410
H5      10.616520085   16.159274832    1.200515986 XXXX 10     h*      H   0.410
H6       9.872335034   15.815246305   -0.091268683 XXXX 10     h*      H   0.410
H7       1.398845320   16.709698406   -1.547216293 XXXX 10     h*      H   0.410
H8       0.662204161   15.776774228   -0.531614247 XXXX 10     h*      H   0.410
H9      11.962894597   18.841895981    0.815148043 XXXX 10     h*      H   0.410
H10     11.486824939   20.201113502    0.551790919 XXXX 10     h*      H   0.410
H11     16.345987093   20.700886419    0.989353658 XXXX 10     h*      H   0.410
H12     16.772958227   19.821915764   -0.049939484 XXXX 10     h*      H   0.410
H13     12.609185735   25.384577868   14.996055036 XXXX 10     h*      H   0.410
H14     13.421214493   24.186773496   15.380005406 XXXX 10     h*      H   0.410
H17     19.677980790   21.926180224   15.158167325 XXXX 10     h*      H   0.410
H18     19.026929172   23.135203287   15.632126988 XXXX 10     h*      H   0.410
H19     19.174357337   19.856286112    9.809215434 XXXX 10     h*      H   0.410
H20     17.727918308   20.272657111   10.063340612 XXXX 10     h*      H   0.410
H21     12.411654286   23.271490959   12.659246721 XXXX 10     h*      H   0.410
H22     13.495936444   23.411574971   11.494234979 XXXX 10     h*      H   0.410
H23     11.859739123   20.123731639   12.078624613 XXXX 10     h*      H   0.410
H24     12.578913475   20.941513218   12.974863510 XXXX 10     h*      H   0.410
H25     16.025849042   20.609071547   14.781016506 XXXX 10     h*      H   0.410
H26     15.962990742   21.720641764   13.811267875 XXXX 10     h*      H   0.410
H27     10.949170227   16.153929976   24.651935549 XXXX 10     h*      H   0.410
H28     12.172488295   17.127845907   24.754909271 XXXX 10     h*      H   0.410
H31     13.320747353   19.321169620   24.838569659 XXXX 10     h*      H   0.410
H32     14.254104189   18.645017593   25.686706945 XXXX 10     h*      H   0.410
Si5      0.584056086    0.089722242   15.588368169 XXXX 13     sc3     Si  1.000
O19      2.212868052    0.361781001   15.869814917 XXXX 13     oc14    O  -0.660
O24     -3.572278217    0.741771436   11.226199927 XXXX 13     o*      O  -0.820
Ca6      2.736169479    0.135954815   18.487226463 XXXX 13     ca+t    Ca  1.500
Ca9      1.223910770    1.715826707    7.135803227 XXXX 13     ca+t    Ca  1.500
O38     -1.942628825    1.812297267    8.533667931 XXXX 13     oc12    O  -0.500
O41      0.286321973    0.108370088   14.004587398 XXXX 13     oc22    O  -1.000
H2       2.758899421    0.269713417   15.076712938 XXXX 13     hoy     H   0.410
H15     -4.153268373    1.323231697   10.649928302 XXXX 13     h*      H   0.410
H16     -3.283931080    0.051055675   10.600605109 XXXX 13     h*      H   0.410
Si5     11.677678323    0.039531656   15.357698288 XXXX 14     sc3     Si  1.000
O19     13.255663245   -0.055044792   15.773184859 XXXX 14     oc14    O  -0.660
O24     10.325228159    2.728846177   12.090847366 XXXX 14     o*      O  -0.820
Ca6     13.623347303    0.075008583   18.571515002 XXXX 14     ca+t    Ca  1.500
O36     11.649886717   -0.369326737   25.831727901 XXXX 14     o*      O  -0.820
Ca9     12.228546348    1.785445122    6.947872877 XXXX 14     ca+t    Ca  1.500
O38      9.459690674    1.826673121    8.692357069 XXXX 14     oc12    O  -0.500
O41     11.565341150   -0.080999366   13.747202681 XXXX 14     oc22    O  -1.000
H2      13.811901484   -0.294478425   15.058187034 XXXX 14     hoy     H   0.410
H15      9.803221942    3.377927029   11.613259685 XXXX 14     h*      H   0.410
H16     11.233013095    3.030507875   11.885185335 XXXX 14     h*      H   0.410
H29     10.782637345   -0.831821437   25.515150924 XXXX 14     h*      H   0.410
H30     11.570550347   -0.557291432   26.791657441 XXXX 14     h*      H   0.410
O36     19.562746098   -6.305854666   26.040256284 XXXX 15     o*      O  -0.820
H29     19.263824522   -7.196000151   26.320999676 XXXX 15     h*      H   0.410
H30     19.906775212   -6.549182011   25.146972498 XXXX 15     h*      H   0.410
Ca1      6.661138812    1.777988062    7.006947103 XXXX 17     ca+t    Ca  1.500
Ca2      3.892295121    3.738243906    5.262065655 XXXX 17     ca+t    Ca  1.500
Si1      6.615372246    8.963808615    4.055507377 XXXX 17     sc2     Si  1.000
Si2      7.280867229    3.742384080    2.039618402 XXXX 17     sc3     Si  1.000
Si3      6.625765351    5.906117495    3.982529872 XXXX 17     sc2     Si  1.000
O1       6.639920923    2.396537731    2.666770556 XXXX 17     oc12    O  -0.500
O2       6.616636552    7.444786272    3.450976391 XXXX 17     oc12    O  -0.500
O3       7.889109255    9.356976909    4.891143622 XXXX 17     oc13    O  -1.000
O4       5.325627055    9.190485293    4.923356490 XXXX 17     oc13    O  -1.000
O5       8.708556902    5.651963718   25.164840916 XXXX 17     oc22    O  -1.000
O6       8.939136918    3.684657104    2.294125254 XXXX 17     oc14    O  -0.660
O7      -1.797795899   -3.106171918    2.177875598 XXXX 17     o*      O  -0.820
O8       6.525957069    5.073999333    2.588594467 XXXX 17     oc12    O  -0.500
O9       5.363882260    5.644111189    4.936462926 XXXX 17     oc13    O  -1.000
O11      5.862865537   -1.365614788   27.653053489 XXXX 17     o*      O  -0.820
O12      5.026701310    1.628786786    0.099775241 XXXX 17     o*      O  -0.820
Ca3      8.425075961    3.500265253   -1.590755344 XXXX 17     ca+t    Ca  1.500
O13      3.300695126   -3.043644269   -1.381655279 XXXX 17     o*      O  -0.820
Ca4      5.273102674    1.880043842   20.387302293 XXXX 17     ca+t    Ca  1.500
Ca5      8.326786014    0.088445987   18.452997366 XXXX 17     ca+t    Ca  1.500
Si4      5.286097934    1.640575267   17.352397847 XXXX 17     sc2     Si  1.000
Si5      6.284070659    3.726482858   15.502290155 XXXX 17     sc3     Si  1.000
Si6      5.435765021    6.060226408   17.256154251 XXXX 17     sc2     Si  1.000
O14      5.346658333    2.563796077   16.016792249 XXXX 17     oc12    O  -0.500
O15      5.472029124    7.653104071   16.791293416 XXXX 17     oc12    O  -0.500
O16      6.627860312    1.857669049   18.175194375 XXXX 17     oc13    O  -1.000
O17      4.034429640    2.021667338   18.278739514 XXXX 17     oc13    O  -1.000
O18      4.860903060    1.619587431   11.609422211 XXXX 17     oc22    O  -1.000
O19      7.839011931    3.592558736   16.014157700 XXXX 17     oc14    O  -0.660
O20      8.561479543    0.687372509   15.086193590 XXXX 17     o*      O  -0.820
O21      5.566160075    5.175543370   15.848046400 XXXX 17     oc12    O  -0.500
O22      4.057807587    5.763904796   18.062701882 XXXX 17     oc13    O  -1.000
O24      1.730984578    5.159192808   12.700175753 XXXX 17     o*      O  -0.820
Ca6      8.178068097    3.755708845   18.533278286 XXXX 17     ca+t    Ca  1.500
Ca7      5.378170756    5.613561870   20.381714689 XXXX 17     ca+t    Ca  1.500
Si7      7.975808660    3.533574895   21.613972215 XXXX 17     sc2     Si  1.000
Si8      8.758184203    5.739828928   23.563170379 XXXX 17     sc3     Si  1.000
Si9      8.059454911    0.477095871   21.613587011 XXXX 17     sc2     Si  1.000
O25      7.957688149    4.426521380   23.013851225 XXXX 17     oc12    O  -0.500
O26      7.907527101    2.009857661   22.187362318 XXXX 17     oc12    O  -0.500
O28      6.765034196    3.773931278   20.665517800 XXXX 17     oc13    O  -1.000
O29      7.009204890    3.700727864    0.445469130 XXXX 17     oc22    O  -1.000
O30     10.333114645    5.872547227   23.027211015 XXXX 17     oc14    O  -0.660
O31      5.896917652    6.700861453   25.248417376 XXXX 17     o*      O  -0.820
O32      7.894672398    7.002817011   23.058967926 XXXX 17     oc12    O  -0.500
O33      6.855126977    0.074130981   20.675525956 XXXX 17     oc13    O  -1.000
O35      0.949035656    1.000076772   -1.933525977 XXXX 17     o*      O  -0.820
O36      5.836404784    3.506578941   25.521456383 XXXX 17     o*      O  -0.820
Ca8      3.768651918    7.418114263    5.225273552 XXXX 17     ca+t    Ca  1.500
Ca9      6.713975194    5.593872318    7.011547601 XXXX 17     ca+t    Ca  1.500
Si10     3.861540062    7.067907831    8.215783134 XXXX 17     sc2     Si  1.000
Si11     4.806843145    1.789038190    9.972737848 XXXX 17     sc3     Si  1.000
Si12     3.838591163    4.000136885    8.192921350 XXXX 17     sc2     Si  1.000
O37      3.886296319    7.963411217    9.581655560 XXXX 17     oc12    O  -0.500
O38      3.820389376    5.537047286    8.753268657 XXXX 17     oc12    O  -0.500
O40      2.638517274    7.377387231    7.305185407 XXXX 17     oc13    O  -1.000
O41      6.304205944    3.572655804   13.872056955 XXXX 17     oc22    O  -1.000
O42      6.397660654    1.815610368    9.372131815 XXXX 17     oc14    O  -0.660
O43      4.714911453    5.400958186   11.622393406 XXXX 17     o*      O  -0.820
O44      3.939507052    3.095038055    9.564981914 XXXX 17     oc12    O  -0.500
O45      2.554961144    3.709713669    7.304713054 XXXX 17     oc13    O  -1.000
O46      5.179688493    3.842471582    7.264998792 XXXX 17     oc13    O  -1.000
O48     10.384490831   10.041595946   11.677157409 XXXX 17     o*      O  -0.820
O49      7.432498752    1.843244184   12.043252766 XXXX 17     o*      O  -0.820
Ca10     3.945496412    3.382819059   13.160135305 XXXX 17     ca+t    Ca  1.500
O50     -3.471301125    0.091255150   15.286467709 XXXX 17     o*      O  -0.820
H1      10.941750862    6.227956098   23.632958231 XXXX 17     hoy     H   0.410
H2       8.429747551    3.683344403   15.301561443 XXXX 17     hoy     H   0.410
H4       9.287213048    2.896948612    1.942992721 XXXX 17     hoy     H   0.410
H5       1.362729192    1.878218957   -1.829808036 XXXX 17     h*      H   0.410
H6       1.026753574    0.801823092   -0.989907063 XXXX 17     h*      H   0.410
H7      -2.038972027   -2.245211005    1.730647261 XXXX 17     h*      H   0.410
H8      -1.616148618   -3.644413716    1.397340554 XXXX 17     h*      H   0.410
H9       4.504381041    1.535390261    0.925030591 XXXX 17     h*      H   0.410
H10      5.692024300    2.334716699    0.304274708 XXXX 17     h*      H   0.410
H11      2.390080700   -3.093838224   -1.093104325 XXXX 17     h*      H   0.410
H12      3.366236865   -3.959844208   -1.847686289 XXXX 17     h*      H   0.410
H13      4.809063428    5.399997397   10.673516007 XXXX 17     h*      H   0.410
H14      4.090207085    6.131130127   11.758264922 XXXX 17     h*      H   0.410
H15      1.499457256    5.952745545   13.187641343 XXXX 17     h*      H   0.410
H16      0.884627935    5.140931923   12.253236894 XXXX 17     h*      H   0.410
H17      7.274177194    2.468735405   12.837708586 XXXX 17     h*      H   0.410
H18      6.460526568    1.762628017   11.829464859 XXXX 17     h*      H   0.410
H19     10.440433952   10.160492078   10.696747046 XXXX 17     h*      H   0.410
H20     10.031983989   10.948605357   11.820067589 XXXX 17     h*      H   0.410
H23     -3.673558183   -0.531264927   16.024135987 XXXX 17     h*      H   0.410
H24     -3.694036852    0.966593428   15.782837002 XXXX 17     h*      H   0.410
H25      7.888128076    1.376998024   14.937979436 XXXX 17     h*      H   0.410
H26      8.902132749    1.052733410   15.901317504 XXXX 17     h*      H   0.410
H27      6.869002106    6.401680022   25.187567109 XXXX 17     h*      H   0.410
H28      5.564287601    6.413522806   24.315219968 XXXX 17     h*      H   0.410
H29      5.495369144    4.184927189   26.152607046 XXXX 17     h*      H   0.410
H30      5.105023333    2.870120569   25.533951965 XXXX 17     h*      H   0.410
H31      6.294782767   -2.217611777   27.764267352 XXXX 17     h*      H   0.410
H32      6.392665217   -0.815285646   28.271852753 XXXX 17     h*      H   0.410
Ca1     17.557926209    1.759586508    6.502124162 XXXX 18     ca+t    Ca  1.500
Ca2     14.920431458    3.728939199    4.819314464 XXXX 18     ca+t    Ca  1.500
Si1     17.843671347    8.825131724    3.680088074 XXXX 18     sc2     Si  1.000
Si2     17.946915186    3.652119516    1.440506628 XXXX 18     sc3     Si  1.000
Si3     17.674580393    5.700137273    3.790121006 XXXX 18     sc2     Si  1.000
O1      17.485394605    2.184571266    2.070238754 XXXX 18     oc12    O  -0.500
O2      17.924735618    7.262147806    3.312309167 XXXX 18     oc12    O  -0.500
O3      18.946314417    9.269740934    4.770502409 XXXX 18     oc13    O  -1.000
O4      16.454605004    9.103221574    4.383234102 XXXX 18     oc13    O  -1.000
O5      18.833715973    5.675216939   25.286516019 XXXX 18     oc22    O  -1.000
O6      19.583517248    3.730610074    1.284758843 XXXX 18     oc14    O  -0.660
O7      13.260278759    3.007690653   -0.081887472 XXXX 18     o*      O  -0.820
O8      17.315053430    4.855770247    2.396037440 XXXX 18     oc12    O  -0.500
O9      16.359709690    5.528732221    4.762771368 XXXX 18     oc13    O  -1.000
O11     20.769379935    1.808823051   25.050656136 XXXX 18     o*      O  -0.820
O12     16.012858175    1.481072346   -0.287706843 XXXX 18     o*      O  -0.820
Ca3     19.359306294    3.494184828   -1.380897349 XXXX 18     ca+t    Ca  1.500
O13     18.661548291    0.724820523   -0.843025312 XXXX 18     o*      O  -0.820
Ca4     16.201335413    2.036943215   20.551712959 XXXX 18     ca+t    Ca  1.500
Ca5     19.204878568    0.201341306   18.919765404 XXXX 18     ca+t    Ca  1.500
Si4     16.561457597    1.571290080   17.547140635 XXXX 18     sc2     Si  1.000
Si5     17.119959340    3.816215017   15.476528441 XXXX 18     sc3     Si  1.000
Si6     16.392163489    5.975851057   17.487171838 XXXX 18     sc2     Si  1.000
O14     16.562210088    2.335811637   16.126318116 XXXX 18     oc12    O  -0.500
O15     16.335149111    7.446876126   16.978329207 XXXX 18     oc12    O  -0.500
O16     17.784208649    2.062890487   18.464836366 XXXX 18     oc13    O  -1.000
O17     15.145713816    1.881199147   18.357025163 XXXX 18     oc13    O  -1.000
O18     15.930756315    1.930127224   11.448426475 XXXX 18     oc22    O  -1.000
O19     18.704946833    4.060641755   15.790725977 XXXX 18     oc14    O  -0.660
O20     21.151693000   -1.638288100   19.560923991 XXXX 18     o*      O  -0.820
O21     16.230873037    5.010704713   16.165639421 XXXX 18     oc12    O  -0.500
O22     15.279206386    5.821514748   18.645077152 XXXX 18     oc13    O  -1.000
O24     19.282938490   -1.524316547   13.679362676 XXXX 18     o*      O  -0.820
Ca6     19.155546025    3.966442369   18.662423743 XXXX 18     ca+t    Ca  1.500
Ca7     16.483333269    5.655661306   20.620063268 XXXX 18     ca+t    Ca  1.500
Si7     18.976979237    3.720435957   21.555707925 XXXX 18     sc2     Si  1.000
Si8     19.473963721    5.682455162   23.809845426 XXXX 18     sc3     Si  1.000
Si9     19.302587612    0.627932989   21.763577123 XXXX 18     sc2     Si  1.000
O25     18.645798472    4.668248793   22.849311694 XXXX 18     oc12    O  -0.500
O26     19.180709247    2.202369065   22.216673875 XXXX 18     oc12    O  -0.500
O28     17.764946870    3.711882933   20.535243999 XXXX 18     oc13    O  -1.000
O29     17.260174263    3.878934700    0.001601407 XXXX 18     oc22    O  -1.000
O30     21.056600529    5.336425088   23.955139087 XXXX 18     oc14    O  -0.660
O31     16.454827101    7.311049579   25.323105036 XXXX 18     o*      O  -0.820
O32     19.236215482    7.202901019   23.283113841 XXXX 18     oc12    O  -0.500
O33     18.058241140    0.249613671   20.818838402 XXXX 18     oc13    O  -1.000
O35     22.117077235   10.937242092   -0.414675946 XXXX 18     o*      O  -0.820
O36     16.862529058    3.844192224   25.196158618 XXXX 18     o*      O  -0.820
Ca8     14.937075678    7.373654317    4.827773338 XXXX 18     ca+t    Ca  1.500
Ca9     17.776381988    5.554907897    6.832749120 XXXX 18     ca+t    Ca  1.500
Si10    14.985853499    7.050296305    7.934647346 XXXX 18     sc2     Si  1.000
Si11    15.964227454    1.876415741    9.800655286 XXXX 18     sc3     Si  1.000
Si12    15.035030056    4.040329908    7.915228811 XXXX 18     sc2     Si  1.000
O37     15.025686042    7.874105848    9.337165961 XXXX 18     oc12    O  -0.500
O38     15.125641155    5.560611993    8.484791469 XXXX 18     oc12    O  -0.500
O40     13.659600877    7.222926372    7.106314247 XXXX 18     oc13    O  -1.000
O41     16.849283884    3.755168947   13.872956717 XXXX 18     oc22    O  -1.000
O42     17.498912120    1.908495111    9.303850080 XXXX 18     oc14    O  -0.660
O43     20.583465577    3.451649054    3.757451168 XXXX 18     o*      O  -0.820
O44     15.080558936    3.161679655    9.267783787 XXXX 18     oc12    O  -0.500
O45     13.671177402    3.728625517    7.086679231 XXXX 18     oc13    O  -1.000
O46     16.301639461    3.701449606    6.978342530 XXXX 18     oc13    O  -1.000
O49     12.614405674    5.204001579   12.344561418 XXXX 18     o*      O  -0.820
Ca10    14.765932323    3.776996394   12.656767760 XXXX 18     ca+t    Ca  1.500
O50     21.418268320    6.049256728   18.694362644 XXXX 18     o*      O  -0.820
H1      21.622324271    5.631606903   23.280592473 XXXX 18     hoy     H   0.410
H2      19.254588180    4.141960221   15.013509127 XXXX 18     hoy     H   0.410
H4      20.158454273    3.397615116    1.978636483 XXXX 18     hoy     H   0.410
H5      22.693696875   10.172582187   -0.547496535 XXXX 18     h*      H   0.410
H6      22.356884922   11.212927528    0.510806668 XXXX 18     h*      H   0.410
H7      12.962509250    2.188959899    0.259776805 XXXX 18     h*      H   0.410
H8      13.746244443    2.626530400   -0.829224991 XXXX 18     h*      H   0.410
H9      16.435786906    2.381504304   -0.231516778 XXXX 18     h*      H   0.410
H10     16.863350581    1.052622661   -0.231132773 XXXX 18     h*      H   0.410
H11     19.273017618    0.492161726   -0.099310219 XXXX 18     h*      H   0.410
H12     19.079181908    0.112242007   -1.516908143 XXXX 18     h*      H   0.410
H13     19.923866043    2.729721417    3.897566702 XXXX 18     h*      H   0.410
H14     19.994588775    4.217491109    4.015312137 XXXX 18     h*      H   0.410
H15     18.696347654   -0.795971854   13.357950773 XXXX 18     h*      H   0.410
H16     18.573781912   -2.270885254   13.632867935 XXXX 18     h*      H   0.410
H17     12.487230940    6.093128001   12.898912779 XXXX 18     h*      H   0.410
H18     11.653824872    5.043200261   12.097802225 XXXX 18     h*      H   0.410
H23     21.719264055    5.661299365   19.548790029 XXXX 18     h*      H   0.410
H24     22.118179223    6.740406976   18.545752768 XXXX 18     h*      H   0.410
H25     21.029772278   -0.952886845   20.256434393 XXXX 18     h*      H   0.410
H26     21.078513203   -2.381004891   20.229651495 XXXX 18     h*      H   0.410
H27     17.262728910    6.706266603   25.126154084 XXXX 18     h*      H   0.410
H28     16.354795984    7.852112197   24.540799912 XXXX 18     h*      H   0.410
H29     16.248635698    4.042434608   25.965151731 XXXX 18     h*      H   0.410
H30     17.162452034    4.730042937   24.960741219 XXXX 18     h*      H   0.410
H31     20.733088986    0.889670150   24.894143012 XXXX 18     h*      H   0.410
H32     21.222304732    2.168830326   24.257802670 XXXX 18     h*      H   0.410
O48     -2.562727662    8.203367228   14.538432539 XXXX 20     o*      O  -0.820
H19     -3.136970611    7.818958518   15.210492883 XXXX 20     h*      H   0.410
H20     -1.999185151    8.725398831   15.125969928 XXXX 20     h*      H   0.410
Ca1      6.563842917    9.152740758    7.001054502 XXXX 21     ca+t    Ca  1.500
Ca2      4.148894373   11.137429601    4.981381532 XXXX 21     ca+t    Ca  1.500
Si1      6.719830591   16.384019227    3.836323526 XXXX 21     sc2     Si  1.000
Si2      7.343521489   11.016544898    2.024413493 XXXX 21     sc3     Si  1.000
Si3      6.751494734   13.326025878    3.868649187 XXXX 21     sc2     Si  1.000
O1       6.485351491    9.837310894    2.708326550 XXXX 21     oc12    O  -0.500
O2       6.780301253   14.836597045    3.294659059 XXXX 21     oc12    O  -0.500
O3       8.003550006   16.705321465    4.787572305 XXXX 21     oc13    O  -1.000
O4       5.399291608   16.677318543    4.747642617 XXXX 21     oc13    O  -1.000
O5       8.816508989   13.145556500   25.145416785 XXXX 21     oc22    O  -1.000
O6       8.933540470   10.889232791    2.363628032 XXXX 21     oc14    O  -0.660
O7      -1.426947369    7.225726506    2.299415688 XXXX 21     o*      O  -0.820
O8       6.737898803   12.457802802    2.469084238 XXXX 21     oc12    O  -0.500
O9       5.432282296   13.052994087    4.700343768 XXXX 21     oc13    O  -1.000
O11     11.236291658    6.980638890   25.803359209 XXXX 21     o*      O  -0.820
O12      5.645388164    8.378081337    0.034959320 XXXX 21     o*      O  -0.820
Ca3      8.853778271   11.282377218   -1.241700388 XXXX 21     ca+t    Ca  1.500
O13      4.873363595    5.401929859    0.247603064 XXXX 21     o*      O  -0.820
Ca4      5.156930616    9.358086413   20.342906244 XXXX 21     ca+t    Ca  1.500
Ca5      8.058509616    7.466172452   18.681463969 XXXX 21     ca+t    Ca  1.500
Si4      5.422136074    9.167817464   17.364415892 XXXX 21     sc2     Si  1.000
Si5      6.318844807   11.306434357   15.467154772 XXXX 21     sc3     Si  1.000
Si6      5.371857838   13.401873745   17.401106729 XXXX 21     sc2     Si  1.000
O14      5.514453245   10.047580317   16.009524003 XXXX 21     oc12    O  -0.500
O15      5.389109152   14.958548724   16.874934289 XXXX 21     oc12    O  -0.500
O16      6.652948117    9.377482048   18.269508610 XXXX 21     oc13    O  -1.000
O17      4.093873290    9.453234646   18.216351947 XXXX 21     oc13    O  -1.000
O18      4.625448013    9.203171610   11.704268009 XXXX 21     oc22    O  -1.000
O19      7.856005369   11.283056948   15.947881087 XXXX 21     oc14    O  -0.660
O20      8.178302927    8.484024507   15.119531669 XXXX 21     o*      O  -0.820
O21      5.498159451   12.595836067   16.018960981 XXXX 21     oc12    O  -0.500
O22      4.084027262   13.086187925   18.274541455 XXXX 21     oc13    O  -1.000
O24      7.252541278   13.567098857   12.810019322 XXXX 21     o*      O  -0.820
Ca6      8.085085670   11.297727888   18.653305614 XXXX 21     ca+t    Ca  1.500
Ca7      5.406860258   13.139502296   20.478601016 XXXX 21     ca+t    Ca  1.500
Si7      7.909015137   10.892700465   21.628569344 XXXX 21     sc2     Si  1.000
Si8      8.837644012   13.110994714   23.548222780 XXXX 21     sc3     Si  1.000
Si9      7.932049921    7.856385349   21.662960626 XXXX 21     sc2     Si  1.000
O25      7.960271562   11.801854902   23.020770248 XXXX 21     oc12    O  -0.500
O26      7.914411009    9.352669583   22.206569178 XXXX 21     oc12    O  -0.500
O28      6.660667062   11.272794660   20.675745817 XXXX 21     oc13    O  -1.000
O29      7.085275382   10.869128801    0.427574915 XXXX 21     oc22    O  -1.000
O30     10.386472448   13.037732628   22.957255990 XXXX 21     oc14    O  -0.660
O31      2.034041705   12.209569013   25.841454932 XXXX 21     o*      O  -0.820
O32      8.106005167   14.435255881   22.989514552 XXXX 21     oc12    O  -0.500
O33      6.615907240    7.519790444   20.798265706 XXXX 21     oc13    O  -1.000
O34      9.190460400    7.467370849   20.865129673 XXXX 21     oc13    O  -1.000
O35      5.886257224   10.673018384   -2.143239883 XXXX 21     o*      O  -0.820
O36      8.345374017    8.670282954   25.665082128 XXXX 21     o*      O  -0.820
Ca8      3.880949852   14.870029751    5.058662920 XXXX 21     ca+t    Ca  1.500
Ca9      6.806706244   12.924716606    6.867623988 XXXX 21     ca+t    Ca  1.500
Si10     4.031563529   14.406565729    8.054730548 XXXX 21     sc2     Si  1.000
Si11     4.803006357    9.197235370   10.112363608 XXXX 21     sc3     Si  1.000
Si12     4.048956274   11.325488408    8.099976848 XXXX 21     sc2     Si  1.000
O37      4.104782301   15.322922350    9.437836223 XXXX 21     oc12    O  -0.500
O38      3.901671999   12.869210866    8.651012269 XXXX 21     oc12    O  -0.500
O40      2.730645695   14.806877007    7.180552764 XXXX 21     oc13    O  -1.000
O41      6.099971022   11.365625274   13.858775886 XXXX 21     oc22    O  -1.000
O42      6.419975698    9.078388266    9.712697632 XXXX 21     oc14    O  -0.660
O43      6.755492843   12.581978858    9.728150478 XXXX 21     o*      O  -0.820
O44      4.129533771   10.576007073    9.537186519 XXXX 21     oc12    O  -0.500
O45      2.775138129   10.920690906    7.249318691 XXXX 21     oc13    O  -1.000
O46      5.336621420   11.104875273    7.167592421 XXXX 21     oc13    O  -1.000
O47      4.260855087    7.499807419   14.018671388 XXXX 21     o*      O  -0.820
O48      7.272549042   16.730239870   12.350614171 XXXX 21     o*      O  -0.820
O49     12.956672861   13.009759287   12.019008039 XXXX 21     o*      O  -0.820
Ca10     3.837858932   11.349900410   12.804635447 XXXX 21     ca+t    Ca  1.500
O50      3.804364775   15.672214869   14.054413332 XXXX 21     o*      O  -0.820
H1      11.007396252   13.628831114   23.437003613 XXXX 21     hoy     H   0.410
H2       8.368195995   11.547363566   15.216468945 XXXX 21     hoy     H   0.410
H3       7.145915225    8.929181985   10.302557627 XXXX 21     hoy     H   0.410
H4       9.383920107   10.073653445    2.027259375 XXXX 21     hoy     H   0.410
H5       5.920592761   10.468379685   -1.191218591 XXXX 21     h*      H   0.410
H6       5.144563900   10.106901356   -2.324195998 XXXX 21     h*      H   0.410
H7      -1.674594683    7.877041250    1.568253064 XXXX 21     h*      H   0.410
H8      -0.560037867    6.899827499    2.059330256 XXXX 21     h*      H   0.410
H9       6.015523041    9.203839699    0.347301179 XXXX 21     h*      H   0.410
H10      6.391534580    7.744022895    0.249272029 XXXX 21     h*      H   0.410
H11      5.794032995    4.919143668    0.422603865 XXXX 21     h*      H   0.410
H12      4.376385494    4.871498079    0.904338752 XXXX 21     h*      H   0.410
H13      7.272671615   12.907286621   10.509109508 XXXX 21     h*      H   0.410
H14      6.759187635   11.624371657    9.879575991 XXXX 21     h*      H   0.410
H15      6.976380497   12.847981731   13.470500563 XXXX 21     h*      H   0.410
H16      6.427863085   13.584328976   12.319041681 XXXX 21     h*      H   0.410
H17     12.024285466   12.981422412   11.729339519 XXXX 21     h*      H   0.410
H18     12.697267171   13.606916413   12.812118692 XXXX 21     h*      H   0.410
H19      7.029272840   17.706527673   12.660909009 XXXX 21     h*      H   0.410
H20      6.359004641   16.398951414   12.133120406 XXXX 21     h*      H   0.410
H21      5.011054709    7.086161855   14.465303379 XXXX 21     h*      H   0.410
H22      4.511808019    7.910306934   13.170847063 XXXX 21     h*      H   0.410
H23      4.691364984   15.572562525   14.457728416 XXXX 21     h*      H   0.410
H24      4.085042267   15.832813564   13.125038121 XXXX 21     h*      H   0.410
H25      8.122887154    9.468343528   15.269417197 XXXX 21     h*      H   0.410
H26      7.209239204    8.229583830   15.267319313 XXXX 21     h*      H   0.410
H27      1.774819906   11.653491560   26.636645768 XXXX 21     h*      H   0.410
H28      2.643088433   11.543167940   25.351027744 XXXX 21     h*      H   0.410
H29      8.139720602    8.747513597   24.706121247 XXXX 21     h*      H   0.410
H30      8.126639030    7.694843732   25.714164242 XXXX 21     h*      H   0.410
H31     11.461748338    6.762824848   26.748202881 XXXX 21     h*      H   0.410
H32     10.362101399    6.532087784   25.786640519 XXXX 21     h*      H   0.410
Ca1     17.500029993    9.339161295    6.531395002 XXXX 22     ca+t    Ca  1.500
Ca2     14.983850385   11.083381096    4.704861409 XXXX 22     ca+t    Ca  1.500
Si1     17.867115750   16.178913964    3.827688597 XXXX 22     sc2     Si  1.000
Si2     18.146016296   11.037245890    1.643457182 XXXX 22     sc3     Si  1.000
Si3     17.585523448   13.053447461    3.908311041 XXXX 22     sc2     Si  1.000
O1      17.939527327    9.565541386    2.182959904 XXXX 22     oc12    O  -0.500
O2      17.715526599   14.617330895    3.291447814 XXXX 22     oc12    O  -0.500
O3      19.092348032   16.411045621    4.812515265 XXXX 22     oc13    O  -1.000
O4      16.545428040   16.604653909    4.700315440 XXXX 22     oc13    O  -1.000
O5      18.531554666   13.011866469   25.305087462 XXXX 22     oc22    O  -1.000
O6      19.780217880   11.420551356    1.513032397 XXXX 22     oc14    O  -0.660
O7      14.404810561   10.990491437    1.954216324 XXXX 22     o*      O  -0.820
O8      17.329678889   12.107322644    2.580335438 XXXX 22     oc12    O  -0.500
O9      16.378904179   12.941110248    4.918897742 XXXX 22     oc13    O  -1.000
O11     19.157176473    8.583542910   26.882073596 XXXX 22     o*      O  -0.820
O12     15.775228409    9.286463106   -0.019216783 XXXX 22     o*      O  -0.820
Ca3     19.543530979   11.167079787   -1.279097029 XXXX 22     ca+t    Ca  1.500
O13     15.193721493    5.757703474    0.070599892 XXXX 22     o*      O  -0.820
Ca4     16.189725531    9.373237540   20.671758259 XXXX 22     ca+t    Ca  1.500
Ca5     19.152171731    7.347215582   18.932611988 XXXX 22     ca+t    Ca  1.500
Si4     16.494107159    8.947448160   17.512801763 XXXX 22     sc2     Si  1.000
Si5     17.120724445   11.202657985   15.621696410 XXXX 22     sc3     Si  1.000
Si6     16.383180378   13.328367645   17.598185994 XXXX 22     sc2     Si  1.000
O14     16.508778376    9.784519525   16.122984095 XXXX 22     oc12    O  -0.500
O15     16.425326681   14.856184429   17.004528599 XXXX 22     oc12    O  -0.500
O16     17.913790859    9.178503757   18.301456241 XXXX 22     oc13    O  -1.000
O17     15.265648388    9.316503355   18.476242699 XXXX 22     oc13    O  -1.000
O18     15.821176701    9.236601805   11.422321663 XXXX 22     oc22    O  -1.000
O19     18.732370888   11.317403534   15.826046301 XXXX 22     oc14    O  -0.660
O20     21.282331233    9.612367469   19.602003480 XXXX 22     o*      O  -0.820
O21     16.224418137   12.353665322   16.294346535 XXXX 22     oc12    O  -0.500
O22     15.127218906   13.071879417   18.538899266 XXXX 22     oc13    O  -1.000
O24     17.247072685   15.860678630   13.348483776 XXXX 22     o*      O  -0.820
Ca6     19.126022011   11.145430646   18.547133023 XXXX 22     ca+t    Ca  1.500
Ca7     16.339249196   12.988272096   20.659958369 XXXX 22     ca+t    Ca  1.500
Si7     19.025159596   11.109203458   21.556993831 XXXX 22     sc2     Si  1.000
Si8     19.425626481   13.074532074   23.922818088 XXXX 22     sc3     Si  1.000
Si9     19.116948757    8.018970598   21.798612702 XXXX 22     sc2     Si  1.000
O25     18.636309705   12.090908129   22.861881823 XXXX 22     oc12    O  -0.500
O26     19.199291802    9.631532672   22.155376946 XXXX 22     oc12    O  -0.500
O28     17.789472714   11.086550162   20.558665098 XXXX 22     oc13    O  -1.000
O29     17.480176922   11.165576481    0.174626058 XXXX 22     oc22    O  -1.000
O30     20.916942573   12.487149722   24.313141941 XXXX 22     oc14    O  -0.660
O31     16.333754419   14.812391896   25.414409996 XXXX 22     o*      O  -0.820
O32     19.378355436   14.620398984   23.435728160 XXXX 22     oc12    O  -0.500
O33     17.812345534    7.558746477   20.941718936 XXXX 22     oc13    O  -1.000
O34     20.358219858    7.690237267   20.818946035 XXXX 22     oc13    O  -1.000
O35     20.876347066    9.646646409   -3.460189643 XXXX 22     o*      O  -0.820
O36     16.796202357   11.074063803   25.557303763 XXXX 22     o*      O  -0.820
Ca8     14.836641198   14.737841776    4.811406477 XXXX 22     ca+t    Ca  1.500
Ca9     17.784155720   12.913244009    6.856624930 XXXX 22     ca+t    Ca  1.500
Si10    15.124385270   14.500122628    8.033512044 XXXX 22     sc2     Si  1.000
Si11    15.823945517    9.196639937    9.853473608 XXXX 22     sc3     Si  1.000
Si12    14.994101241   11.439725582    7.991507453 XXXX 22     sc2     Si  1.000
O37     15.187086459   15.342848414    9.460926510 XXXX 22     oc12    O  -0.500
O38     14.929196337   12.982366854    8.564774623 XXXX 22     oc12    O  -0.500
O40     13.874701410   14.831273806    7.101008425 XXXX 22     oc13    O  -1.000
O41     16.871056429   11.227417624   13.997549793 XXXX 22     oc22    O  -1.000
O42     17.406066566    9.238156638    9.279855153 XXXX 22     oc14    O  -0.660
O43     19.951551997   14.473233243    6.197248342 XXXX 22     o*      O  -0.820
O44     14.924833760   10.520737322    9.315395825 XXXX 22     oc12    O  -0.500
O45     13.702379420   11.094521082    7.064757579 XXXX 22     oc13    O  -1.000
O46     16.312371166   11.174149602    7.082767010 XXXX 22     oc13    O  -1.000
O47     21.987321391    5.761401767   21.461262871 XXXX 22     o*      O  -0.820
O49     15.431668206    8.025072865   13.837301132 XXXX 22     o*      O  -0.820
Ca10    15.104015102   11.491207249   12.411444827 XXXX 22     ca+t    Ca  1.500
O50     17.756966847   13.198942222    9.583162257 XXXX 22     o*      O  -0.820
H1      21.618702440   12.970280608   23.942464193 XXXX 22     hoy     H   0.410
H2      19.214279890   11.480287976   15.055029087 XXXX 22     hoy     H   0.410
H3      17.989731312    9.711325313    9.860508423 XXXX 22     hoy     H   0.410
H4      20.297078388   11.180908601    2.260934916 XXXX 22     hoy     H   0.410
H5      20.207895392    9.366297268   -4.112977810 XXXX 22     h*      H   0.410
H6      21.648567489    9.832295898   -4.015135797 XXXX 22     h*      H   0.410
H7      14.790582467   10.759144856    1.086774672 XXXX 22     h*      H   0.410
H8      13.414797608   10.884271099    1.900730201 XXXX 22     h*      H   0.410
H9      16.229433261    8.822896129    0.747461802 XXXX 22     h*      H   0.410
H10     16.293702404   10.085734174    0.081668950 XXXX 22     h*      H   0.410
H11     16.058048135    5.297612912    0.221500533 XXXX 22     h*      H   0.410
H12     14.653011623    4.957021779   -0.024156229 XXXX 22     h*      H   0.410
H13     19.707875286   13.850604806    5.472381101 XXXX 22     h*      H   0.410
H14     19.956923810   15.299341768    5.554816820 XXXX 22     h*      H   0.410
H15     16.798910805   16.309229752   12.591021800 XXXX 22     h*      H   0.410
H16     17.283719581   16.587893940   13.997209263 XXXX 22     h*      H   0.410
H17     15.249372819    8.841756465   13.271848471 XXXX 22     h*      H   0.410
H18     16.111929985    8.499480011   14.307199198 XXXX 22     h*      H   0.410
H21     21.334773781    6.546589262   21.305227176 XXXX 22     h*      H   0.410
H22     21.328060370    5.048319857   21.358497037 XXXX 22     h*      H   0.410
H23     18.322311077   12.549167554   10.067353440 XXXX 22     h*      H   0.410
H24     17.039938526   13.218815610   10.209777690 XXXX 22     h*      H   0.410
H25     21.102042098   10.318466330   20.272345619 XXXX 22     h*      H   0.410
H26     21.121158843    8.788305481   20.163833224 XXXX 22     h*      H   0.410
H27     16.496121130   15.080378934   24.436493148 XXXX 22     h*      H   0.410
H28     17.175883784   14.400472971   25.640810393 XXXX 22     h*      H   0.410
H29     17.094155431   11.913088652   25.143748842 XXXX 22     h*      H   0.410
H30     16.954496848   11.265603568   26.538431901 XXXX 22     h*      H   0.410
H31     18.370399437    8.414661419   27.479788247 XXXX 22     h*      H   0.410
H32     19.244297457    7.699236528   26.431713932 XXXX 22     h*      H   0.410
O48     -3.263964924   13.538001107   14.505798223 XXXX 24     o*      O  -0.820
H19     -4.095904363   13.588161030   14.952856422 XXXX 24     h*      H   0.410
H20     -2.792459483   12.731392870   14.762111014 XXXX 24     h*      H   0.410
Ca1      6.683229500   16.639384371    7.023942672 XXXX 25     ca+t    Ca  1.500
Ca2      3.946777244   18.576443244    5.055820095 XXXX 25     ca+t    Ca  1.500
Si1      6.616547766   23.846161063    4.059562000 XXXX 25     sc2     Si  1.000
Si2      7.307318030   18.671957414    1.894367907 XXXX 25     sc3     Si  1.000
Si3      6.563924120   20.767753487    3.936647762 XXXX 25     sc2     Si  1.000
O1       6.644496931   17.292274331    2.453223141 XXXX 25     oc12    O  -0.500
O2       6.453238022   22.332680313    3.443746743 XXXX 25     oc12    O  -0.500
O4       5.390223708   24.262926014    4.998459757 XXXX 25     oc13    O  -1.000
O5       9.019498557   20.640747555   25.121389928 XXXX 25     oc22    O  -1.000
O6       8.805809016   18.744294292    2.400447188 XXXX 25     oc14    O  -0.660
O7      -1.555840745   14.044830045    2.534389741 XXXX 25     o*      O  -0.820
O8       6.576108934   19.995343780    2.487216731 XXXX 25     oc12    O  -0.500
O9       5.353720655   20.231510177    4.793553792 XXXX 25     oc13    O  -1.000
O11      8.419028256   15.702425899   26.132249121 XXXX 25     o*      O  -0.820
O12      0.675903433   19.637712421   -0.263026528 XXXX 25     o*      O  -0.820
Ca3      9.097300466   18.287507635   -1.438759701 XXXX 25     ca+t    Ca  1.500
O13      5.385257751   13.697314623   -3.070250726 XXXX 25     o*      O  -0.820
Ca4      5.182617484   16.798318724   20.617213793 XXXX 25     ca+t    Ca  1.500
Ca5      8.203228683   15.009398589   18.464627818 XXXX 25     ca+t    Ca  1.500
Si4      5.366622400   16.491009295   17.463441533 XXXX 25     sc2     Si  1.000
Si5      6.101442858   18.616016613   15.415560908 XXXX 25     sc3     Si  1.000
Si6      5.353656657   20.799772853   17.286917336 XXXX 25     sc2     Si  1.000
O14      5.212302114   17.364555834   16.084160180 XXXX 25     oc12    O  -0.500
O16      6.630291967   16.859147892   18.357772915 XXXX 25     oc13    O  -1.000
O17      4.046906538   16.758710088   18.277994522 XXXX 25     oc13    O  -1.000
O18      4.649106312   16.775934927   11.556186507 XXXX 25     oc22    O  -1.000
O19      7.716936284   18.556825833   15.838449547 XXXX 25     oc14    O  -0.660
O20      7.988017902   15.674031793   15.345243411 XXXX 25     o*      O  -0.820
O21      5.433284569   20.024876468   15.829697732 XXXX 25     oc12    O  -0.500
O22      4.009757121   20.449971581   18.178492279 XXXX 25     oc13    O  -1.000
O24      3.975874437   20.632160573   11.403866535 XXXX 25     o*      O  -0.820
Ca6      8.057475456   18.649046162   18.597436982 XXXX 25     ca+t    Ca  1.500
Ca7      5.375656730   20.506240929   20.282147214 XXXX 25     ca+t    Ca  1.500
Si7      8.092276917   18.380545204   21.689624613 XXXX 25     sc2     Si  1.000
Si8      9.043354239   20.612605265   23.534096291 XXXX 25     sc3     Si  1.000
Si9      8.098009972   15.325298475   21.658922162 XXXX 25     sc2     Si  1.000
O25      8.326013376   19.230843686   23.078266478 XXXX 25     oc12    O  -0.500
O26      8.207158795   16.849087464   22.206876069 XXXX 25     oc12    O  -0.500
O28      6.676305141   18.693607203   21.055843200 XXXX 25     oc13    O  -1.000
O29      7.144013177   18.660987437    0.294477167 XXXX 25     oc22    O  -1.000
O30     10.526978741   20.642447416   22.892123486 XXXX 25     oc14    O  -0.660
O31      5.605512268   21.126791002   24.307813516 XXXX 25     o*      O  -0.820
O32      8.160738609   21.894678409   22.973422621 XXXX 25     oc12    O  -0.500
O33      6.773276946   15.137057911   20.803702070 XXXX 25     oc13    O  -1.000
O34      9.350991738   14.984303975   20.684295944 XXXX 25     oc13    O  -1.000
O35      0.038092605   16.996367793   -4.345317727 XXXX 25     o*      O  -0.820
O36      6.181446816   17.640104806   25.858240066 XXXX 25     o*      O  -0.820
Ca8      3.935061794   22.252931243    5.037837334 XXXX 25     ca+t    Ca  1.500
Ca9      6.676640578   20.313790180    6.979605000 XXXX 25     ca+t    Ca  1.500
Si10     3.976494765   21.873900013    8.065214092 XXXX 25     sc2     Si  1.000
Si11     4.794268516   16.668467818    9.955159235 XXXX 25     sc3     Si  1.000
Si12     3.930440715   18.829843954    8.045612350 XXXX 25     sc2     Si  1.000
O37      3.995330336   22.738474220    9.420415848 XXXX 25     oc12    O  -0.500
O38      4.027599494   20.364829707    8.620434340 XXXX 25     oc12    O  -0.500
O40      2.642492609   22.103640501    7.198780442 XXXX 25     oc13    O  -1.000
O41      5.945051350   18.586006135   13.840967292 XXXX 25     oc22    O  -1.000
O42      6.336304650   16.771068245    9.519677810 XXXX 25     oc14    O  -0.660
O43      6.621316933   19.909813449    9.742246866 XXXX 25     o*      O  -0.820
O44      3.924549632   17.879656156    9.383256087 XXXX 25     oc12    O  -0.500
O45      2.591219074   18.613270129    7.164809404 XXXX 25     oc13    O  -1.000
O46      5.122032071   18.425037006    7.104083741 XXXX 25     oc13    O  -1.000
O47      9.537563563   19.614190502   14.058536928 XXXX 25     o*      O  -0.820
O48     13.486161670   18.671183171   15.502376296 XXXX 25     o*      O  -0.820
O49     10.366826201   16.875944958   11.682728299 XXXX 25     o*      O  -0.820
Ca10     3.465359631   18.385469971   12.969048200 XXXX 25     ca+t    Ca  1.500
O50      4.006878192   23.063194086   13.899803818 XXXX 25     o*      O  -0.820
H1      11.258789344   21.003519114   23.431880404 XXXX 25     hoy     H   0.410
H2       8.182868864   19.032148418   15.168127658 XXXX 25     hoy     H   0.410
H3       6.976492400   16.605575918   10.193597248 XXXX 25     hoy     H   0.410
H4       9.355758773   18.114478727    2.011755818 XXXX 25     hoy     H   0.410
H5      -0.054459599   16.615356839   -3.426353765 XXXX 25     h*      H   0.410
H6       0.761508945   17.600348048   -4.172696684 XXXX 25     h*      H   0.410
H7      -1.763447359   13.187170337    2.075422816 XXXX 25     h*      H   0.410
H8      -0.578783417   14.115781477    2.534663089 XXXX 25     h*      H   0.410
H9       0.904364642   19.552926066    0.674952764 XXXX 25     h*      H   0.410
H10      1.210889140   20.517167448   -0.281946379 XXXX 25     h*      H   0.410
H11      5.975795728   12.910177352   -2.943440366 XXXX 25     h*      H   0.410
H12      6.000688926   14.131370281   -3.695500573 XXXX 25     h*      H   0.410
H13      6.046918174   19.115218738    9.946154053 XXXX 25     h*      H   0.410
H14      7.564095547   19.427912003    9.839276041 XXXX 25     h*      H   0.410
H15      3.779710102   21.568215533   11.320572313 XXXX 25     h*      H   0.410
H16      4.626590699   20.659659763   10.640359974 XXXX 25     h*      H   0.410
H17      9.691111837   17.439900317   11.323543984 XXXX 25     h*      H   0.410
H18     10.943756037   17.646517097   11.978823090 XXXX 25     h*      H   0.410
H19     13.147696043   17.812207644   15.085179180 XXXX 25     h*      H   0.410
H20     12.697191457   19.278392205   15.558824040 XXXX 25     h*      H   0.410
H21      9.671082882   19.673663935   13.086114970 XXXX 25     h*      H   0.410
H22     10.192583675   20.261595607   14.437758688 XXXX 25     h*      H   0.410
H23      4.645579466   22.838737637   14.569989191 XXXX 25     h*      H   0.410
H24      4.509411635   22.961883198   13.066583166 XXXX 25     h*      H   0.410
H25      8.050180532   16.663400097   15.493826481 XXXX 25     h*      H   0.410
H26      7.048447783   15.573920035   15.171155425 XXXX 25     h*      H   0.410
H27      6.137712396   21.788500013   23.792542663 XXXX 25     h*      H   0.410
H28      6.297295025   20.516759097   24.636614915 XXXX 25     h*      H   0.410
H29      5.234279113   17.185541555   25.932236422 XXXX 25     h*      H   0.410
H30      6.217814769   17.865609065   26.870680731 XXXX 25     h*      H   0.410
H31      7.553290196   15.680100087   25.597954698 XXXX 25     h*      H   0.410
H32      8.668584754   14.805113997   25.887304384 XXXX 25     h*      H   0.410
Ca1     17.696279259   16.601693303    6.825393917 XXXX 26     ca+t    Ca  1.500
Ca2     15.043013132   18.582959545    4.858683637 XXXX 26     ca+t    Ca  1.500
Si1     17.584732911   23.674579947    3.506735647 XXXX 26     sc2     Si  1.000
Si2     18.340001893   18.443804634    1.713611727 XXXX 26     sc3     Si  1.000
Si3     17.603568912   20.600899393    3.742585734 XXXX 26     sc2     Si  1.000
O1      18.118943578   16.968035912    2.385847984 XXXX 26     oc12    O  -0.500
O2      17.550625902   22.085945952    3.089776698 XXXX 26     oc12    O  -0.500
O4      16.365244588   23.973490207    4.511813072 XXXX 26     oc13    O  -1.000
O5      19.584724807   20.660318626   25.355140514 XXXX 26     oc22    O  -1.000
O6      19.913365249   18.903298794    1.578627882 XXXX 26     oc14    O  -0.660
O7      15.697299518   16.574472248    0.501886837 XXXX 26     o*      O  -0.820
O8      17.376905604   19.624207233    2.454407158 XXXX 26     oc12    O  -0.500
O9      16.347889626   20.436226530    4.771102077 XXXX 26     oc13    O  -1.000
O11     21.649248603   18.246832035   25.135226888 XXXX 26     o*      O  -0.820
O12     15.780167249   13.469195894    0.293260066 XXXX 26     o*      O  -0.820
Ca3     19.376620279   18.463669218   -1.429478464 XXXX 26     ca+t    Ca  1.500
O13     20.616651400   22.878310337    1.944630955 XXXX 26     o*      O  -0.820
Ca4     16.286653391   16.747740918   20.661267214 XXXX 26     ca+t    Ca  1.500
Ca5     19.250182026   14.757430237   19.145955359 XXXX 26     ca+t    Ca  1.500
Si4     16.639264015   16.390157174   17.523471032 XXXX 26     sc2     Si  1.000
Si5     17.497405635   18.690328277   15.738200798 XXXX 26     sc3     Si  1.000
Si6     16.592413559   20.810258901   17.636865413 XXXX 26     sc2     Si  1.000
O14     16.844908090   17.213616294   16.128778115 XXXX 26     oc12    O  -0.500
O16     17.949114818   16.524776587   18.498190727 XXXX 26     oc13    O  -1.000
O17     15.318114705   16.877528722   18.410864562 XXXX 26     oc13    O  -1.000
O18     15.507971247   16.942160646   11.568595276 XXXX 26     oc22    O  -1.000
O19     19.071850721   18.827652171   16.214055007 XXXX 26     oc14    O  -0.660
O20     21.260300572   17.004758805   19.607595333 XXXX 26     o*      O  -0.820
O21     16.578624836   19.863538894   16.316582698 XXXX 26     oc12    O  -0.500
O22     15.257854115   20.672257843   18.506058624 XXXX 26     oc13    O  -1.000
O24     19.763685736   29.378255474    5.999087509 XXXX 26     o*      O  -0.820
Ca6     19.175715418   18.642445967   18.839132710 XXXX 26     ca+t    Ca  1.500
Ca7     16.525851194   20.418364364   20.805720598 XXXX 26     ca+t    Ca  1.500
Si7     19.048340862   18.414903131   21.908773111 XXXX 26     sc2     Si  1.000
Si8     19.818795426   20.709006975   23.781027865 XXXX 26     sc3     Si  1.000
Si9     19.194954301   15.351598879   21.980039048 XXXX 26     sc2     Si  1.000
O25     19.017033811   19.382284496   23.214745198 XXXX 26     oc12    O  -0.500
O26     19.103194531   16.886051560   22.486195544 XXXX 26     oc12    O  -0.500
O28     17.777548783   18.569364844   20.924199962 XXXX 26     oc13    O  -1.000
O29     17.750230200   18.307885698    0.235431404 XXXX 26     oc22    O  -1.000
O30     21.418041999   20.601086794   23.379592806 XXXX 26     oc14    O  -0.660
O31     16.646912650   21.438043310   24.949948435 XXXX 26     o*      O  -0.820
O32     19.173994786   22.090366172   23.146214120 XXXX 26     oc12    O  -0.500
O33     17.827540489   14.951301539   21.225872362 XXXX 26     oc13    O  -1.000
O34     20.454712295   15.122260195   21.031731920 XXXX 26     oc13    O  -1.000
O35     19.585290661   22.345635602    5.966157511 XXXX 26     o*      O  -0.820
O36     16.865071215   18.219856102   25.355593940 XXXX 26     o*      O  -0.820
Ca8     14.687455580   22.232647962    4.884120260 XXXX 26     ca+t    Ca  1.500
Ca9     17.819709212   20.362956428    6.646496568 XXXX 26     ca+t    Ca  1.500
Si10    15.075816031   21.881427786    8.009366182 XXXX 26     sc2     Si  1.000
Si11    15.746602388   16.843068610    9.945542402 XXXX 26     sc3     Si  1.000
Si12    15.030152774   18.816970878    7.920222429 XXXX 26     sc2     Si  1.000
O37     15.226565514   22.753279449    9.369363201 XXXX 26     oc12    O  -0.500
O38     15.086956857   20.323252785    8.518922869 XXXX 26     oc12    O  -0.500
O40     13.751465026   22.202902558    7.194095641 XXXX 26     oc13    O  -1.000
O41     17.350012026   18.837484887   14.129800116 XXXX 26     oc22    O  -1.000
O42     17.356594033   16.949931165    9.637674579 XXXX 26     oc14    O  -0.660
O43     19.747231250   18.422440098    6.243012801 XXXX 26     o*      O  -0.820
O44     14.867063106   17.945942557    9.251699225 XXXX 26     oc12    O  -0.500
O45     13.726189380   18.612486755    7.003069765 XXXX 26     oc13    O  -1.000
O46     16.320404308   18.421287231    7.071749808 XXXX 26     oc13    O  -1.000
O47     21.227135319   13.119307411   18.582589237 XXXX 26     o*      O  -0.820
O49     22.102111115   13.059925962   21.466414825 XXXX 26     o*      O  -0.820
Ca10    15.023412670   18.771863910   13.074264013 XXXX 26     ca+t    Ca  1.500
O50     19.825578546    3.717759188    6.675984640 XXXX 26     o*      O  -0.820
H1      21.813580017   21.203962508   22.791869934 XXXX 26     hoy     H   0.410
H2      19.623699642   19.321744078   15.636258311 XXXX 26     hoy     H   0.410
H3      17.900256432   16.606604721   10.279319805 XXXX 26     hoy     H   0.410
H4      20.301595274   19.467226110    2.275938651 XXXX 26     hoy     H   0.410
H5      19.535651493   21.583509540    5.330192430 XXXX 26     h*      H   0.410
H6      19.752204918   23.084908593    5.283519064 XXXX 26     h*      H   0.410
H7      16.257397397   17.419700335    0.452550371 XXXX 26     h*      H   0.410
H8      16.334488179   15.981024911    0.845964622 XXXX 26     h*      H   0.410
H9      16.058796843   12.542848848   -0.048979916 XXXX 26     h*      H   0.410
H10     16.117730363   13.389267571    1.239687840 XXXX 26     h*      H   0.410
H11     21.207446357   22.765665083    2.719186655 XXXX 26     h*      H   0.410
H12     19.951347383   23.344039639    2.398072905 XXXX 26     h*      H   0.410
H13     19.799037142   19.142978962    5.525283488 XXXX 26     h*      H   0.410
H14     19.905526348   17.687230591    5.558675939 XXXX 26     h*      H   0.410
H15     19.916213218   30.206286313    5.384892497 XXXX 26     h*      H   0.410
H16     19.735649012   28.685215181    5.232508598 XXXX 26     h*      H   0.410
H17     21.824067600   14.052309917   21.383348916 XXXX 26     h*      H   0.410
H18     21.294451750   12.684521013   21.190169310 XXXX 26     h*      H   0.410
H21     22.173492196   13.415563351   18.823976318 XXXX 26     h*      H   0.410
H22     21.146282154   12.498151544   19.399887281 XXXX 26     h*      H   0.410
H23     20.691272436    3.283704072    6.411547166 XXXX 26     h*      H   0.410
H24     19.736003315    4.276833226    5.826752742 XXXX 26     h*      H   0.410
H25     21.207217251   17.729061672   20.254747690 XXXX 26     h*      H   0.410
H26     21.037937154   16.373531707   20.374616458 XXXX 26     h*      H   0.410
H27     17.525067132   21.081311959   25.171128857 XXXX 26     h*      H   0.410
H28     16.921169565   21.898629194   24.152940195 XXXX 26     h*      H   0.410
H29     16.574894330   19.149969005   25.372341115 XXXX 26     h*      H   0.410
H30     16.113173803   17.707653737   25.803892223 XXXX 26     h*      H   0.410
H31     22.560531818   17.887760921   25.122776114 XXXX 26     h*      H   0.410
H32     21.684099364   18.943193724   24.450034582 XXXX 26     h*      H   0.410
O48     -3.580552507   20.092703767    5.774288602 XXXX 28     o*      O  -0.820
H19     -3.762927564   19.346473865    6.421681234 XXXX 28     h*      H   0.410
H20     -3.629006933   20.879491070    6.437484770 XXXX 28     h*      H   0.410
O3       7.962802650    1.710221064    4.896892694 XXXX 29     oc13    O  -1.000
O15      5.226338763    0.092960791   16.779549294 XXXX 29     oc12    O  -0.500
O3      18.879104878    1.721008111    4.323982892 XXXX 30     oc13    O  -1.000
O15     16.733617163   -0.002810968   17.023221588 XXXX 30     oc12    O  -0.500
O34      9.406472023   22.581956138   20.734342787 XXXX 33     oc13    O  -1.000
O47      7.001796687   20.833654954   12.669140740 XXXX 33     o*      O  -0.820
H3       7.083330440   24.082122007   10.011193368 XXXX 33     hoy     H   0.410
H21      6.616443903   20.071778458   13.261438512 XXXX 33     h*      H   0.410
H22      6.149260564   21.112848421   12.343455544 XXXX 33     h*      H   0.410
O34     20.684054501   22.444343857   21.051722272 XXXX 34     oc13    O  -1.000
O47     18.127660047   25.862696281   11.631397302 XXXX 34     o*      O  -0.820
H3      18.151208991   24.681503728    9.814953817 XXXX 34     hoy     H   0.410
H21     18.006621981   26.030491791   12.574614095 XXXX 34     h*      H   0.410
H22     17.446977369   25.173727114   11.550006134 XXXX 34     h*      H   0.410
O10      2.403837173    9.332545235    4.900871188 XXXX 37     oc13    O  -1.000
O23      1.270699742    9.408517300   18.324428613 XXXX 37     oc13    O  -1.000
O27      3.715908471   15.024968811   20.609834746 XXXX 37     oc13    O  -1.000
O39     -0.296904346   10.968918176    7.096412189 XXXX 37     oc13    O  -1.000
O10     13.406368020    9.244363212    4.653446951 XXXX 38     oc13    O  -1.000
O23     12.204694556    9.417233277   18.396472533 XXXX 38     oc13    O  -1.000
O27     14.833749576   14.755388070   20.874026406 XXXX 38     oc13    O  -1.000
O39     10.840914014   11.003153234    7.202901061 XXXX 38     oc13    O  -1.000
O10      2.329060761   16.651871857    4.929100047 XXXX 41     oc13    O  -1.000
O23      1.088665990   16.785844769   18.582224591 XXXX 41     oc13    O  -1.000
O39     -0.348060336   18.449063650    7.104510557 XXXX 41     oc13    O  -1.000
O10     13.483344733   16.851189115    4.525948688 XXXX 42     oc13    O  -1.000
O23     12.172144139   16.881248305   18.456119978 XXXX 42     oc13    O  -1.000
O39     10.644172758   18.377400374    7.060675089 XXXX 42     oc13    O  -1.000
O10      2.343421776   24.057971659    4.806049842 XXXX 45     oc13    O  -1.000
O10     13.534420550   24.192499434    4.731713716 XXXX 46     oc13    O  -1.000
O23      1.193581200    1.997658441   18.432461126 XXXX 49     oc13    O  -1.000
O27      3.673034970    7.585235567   20.490880758 XXXX 49     oc13    O  -1.000
O39     -0.430123239    3.595738269    7.109901605 XXXX 49     oc13    O  -1.000
O23     12.193382376    2.013444433   18.267943003 XXXX 50     oc13    O  -1.000
O27     14.900575453    7.467128743   20.887030970 XXXX 50     oc13    O  -1.000
O39     10.683266877    3.655484641    7.121909358 XXXX 50     oc13    O  -1.000
O27      3.840484544    0.031705287   20.635306451 XXXX 53     oc13    O  -1.000
O27     14.986998555   -0.007722979   20.972061255 XXXX 54     oc13    O  -1.000
O10      8.000543040    5.566045755    4.726803322 XXXX 57     oc13    O  -1.000
O23      6.681009111    5.710377780   18.219422655 XXXX 57     oc13    O  -1.000
O27      9.294722844    3.790914925   20.706314473 XXXX 57     oc13    O  -1.000
O39      5.171362954    7.335792043    7.367152589 XXXX 57     oc13    O  -1.000
O10     18.946149258    5.121708395    4.647435384 XXXX 58     oc13    O  -1.000
O23     17.797067347    5.699935627   18.199545269 XXXX 58     oc13    O  -1.000
O27     20.182529404    4.268434614   20.763989335 XXXX 58     oc13    O  -1.000
O39     16.223721487    7.434639061    6.996284139 XXXX 58     oc13    O  -1.000
O10      8.033828423   13.098558472    4.837035633 XXXX 61     oc13    O  -1.000
O23      6.621614753   13.143995867   18.358928465 XXXX 61     oc13    O  -1.000
O27      9.260331536   11.170035364   20.761654940 XXXX 61     oc13    O  -1.000
O39      5.202548487   14.624033055    7.044517337 XXXX 61     oc13    O  -1.000
O10     18.860740821   12.658387322    4.711148280 XXXX 62     oc13    O  -1.000
O23     17.712747508   12.997583662   18.449512530 XXXX 62     oc13    O  -1.000
O27     20.209331938   11.661574915   20.667199786 XXXX 62     oc13    O  -1.000
O39     16.472818298   14.713437896    7.220686459 XXXX 62     oc13    O  -1.000
O10      7.903086222   20.474059203    4.750910430 XXXX 65     oc13    O  -1.000
O23      6.680391143   20.546660164   18.157028052 XXXX 65     oc13    O  -1.000
O27      9.213730500   18.671829213   20.574243753 XXXX 65     oc13    O  -1.000
O39      5.251558502   22.152334410    7.120036873 XXXX 65     oc13    O  -1.000
O10     18.983378980   20.396291230    4.542059241 XXXX 66     oc13    O  -1.000
O23     17.846962817   20.587964296   18.599421653 XXXX 66     oc13    O  -1.000
O27     20.253522336   18.679254036   20.927318717 XXXX 66     oc13    O  -1.000
O39     16.320422174   22.162998807    7.084705154 XXXX 66     oc13    O  -1.000
end
end
