!BIOSYM archive 3
PBC=ON
Materials Studio Generated CAR File
!DATE Fri May 02 18:12:57 2014
PBC   25.8000   26.8980   18.6940   91.1800  100.4600   89.6400 (P1)
AL1      1.890027641    1.315927027    4.689136732 XXXX 1      ay2     Al  1.449
SI2      0.099761723    4.220879315    7.370465651 XXXX 1      sy2     Si  1.100
SI3      2.744418262    2.685819386    7.376071349 XXXX 1      sy1     Si  1.100
SI4      0.192585407    7.168730973    7.376071349 XXXX 1      sy1     Si  1.100
O1       2.458586095   -0.186690946    5.751302138 XXXX 1      oy5     O  -0.758
O2      -0.093246581    4.296220539    5.751302138 XXXX 1      oy5     O  -0.758
O3       2.897925018    2.557693003    5.754059091 XXXX 1      oy4     O  -0.758
O4       0.346092342    7.040604351    5.754059091 XXXX 1      oy4     O  -0.758
O5       0.298185764    1.526230214    5.683297053 XXXX 1      oy6     O  -0.683
O6       2.906353114    6.009142159    5.683297053 XXXX 1      oy6     O  -0.683
O7      -1.027082445    3.241515158    7.988117114 XXXX 1      oy3     O  -0.550
O8       1.581084846    7.724426983    7.988117114 XXXX 1      oy3     O  -0.550
O9       2.445616124    1.220709680    7.983521834 XXXX 1      oy1     O  -0.550
O10     -0.106216432    5.703621147    7.983521834 XXXX 1      oy1     O  -0.550
O11      1.576994537    3.725987194    7.745504513 XXXX 1      oy2     O  -0.550
O12     -0.974837990    8.208898781    7.745504513 XXXX 1      oy2     O  -0.550
AL1      7.050027641    1.315927027    4.689136732 XXXX 2      ay2     Al  1.449
AL2      4.498194801    5.798838375    4.689136732 XXXX 2      ay2     Al  1.449
SI2      5.259761723    4.220879315    7.370465651 XXXX 2      sy2     Si  1.100
SI3      7.904418262    2.685819386    7.376071349 XXXX 2      sy1     Si  1.100
SI4      5.352585407    7.168730973    7.376071349 XXXX 2      sy1     Si  1.100
O1       7.618586095   -0.186690946    5.751302138 XXXX 2      oy5     O  -0.758
O2       5.066753419    4.296220539    5.751302138 XXXX 2      oy5     O  -0.758
O3       8.057925018    2.557693003    5.754059091 XXXX 2      oy4     O  -0.758
O4       5.506092342    7.040604351    5.754059091 XXXX 2      oy4     O  -0.758
O5       5.458185764    1.526230214    5.683297053 XXXX 2      oy6     O  -0.683
O6       8.066353114    6.009142159    5.683297053 XXXX 2      oy6     O  -0.683
O7       4.132917555    3.241515158    7.988117114 XXXX 2      oy3     O  -0.550
O8       6.741084846    7.724426983    7.988117114 XXXX 2      oy3     O  -0.550
O9       7.605616124    1.220709680    7.983521834 XXXX 2      oy1     O  -0.550
O10      5.053783568    5.703621147    7.983521834 XXXX 2      oy1     O  -0.550
O11      6.736994537    3.725987194    7.745504513 XXXX 2      oy2     O  -0.550
O12      4.185162010    8.208898781    7.745504513 XXXX 2      oy2     O  -0.550
AL1     12.210027641    1.315927027    4.689136732 XXXX 3      ay2     Al  1.449
AL2      9.658194801    5.798838375    4.689136732 XXXX 3      ay2     Al  1.449
SI2     10.419761723    4.220879315    7.370465651 XXXX 3      sy2     Si  1.100
SI3     13.064418262    2.685819386    7.376071349 XXXX 3      sy1     Si  1.100
SI4     10.512585407    7.168730973    7.376071349 XXXX 3      sy1     Si  1.100
O1      12.778586095   -0.186690946    5.751302138 XXXX 3      oy5     O  -0.758
O2      10.226753419    4.296220539    5.751302138 XXXX 3      oy5     O  -0.758
O3      13.217925018    2.557693003    5.754059091 XXXX 3      oy4     O  -0.758
O4      10.666092342    7.040604351    5.754059091 XXXX 3      oy4     O  -0.758
O5      10.618185764    1.526230214    5.683297053 XXXX 3      oy6     O  -0.683
O6      13.226353114    6.009142159    5.683297053 XXXX 3      oy6     O  -0.683
O7       9.292917555    3.241515158    7.988117114 XXXX 3      oy3     O  -0.550
O8      11.901084846    7.724426983    7.988117114 XXXX 3      oy3     O  -0.550
O9      12.765616124    1.220709680    7.983521834 XXXX 3      oy1     O  -0.550
O10     10.213783568    5.703621147    7.983521834 XXXX 3      oy1     O  -0.550
O11     11.896994537    3.725987194    7.745504513 XXXX 3      oy2     O  -0.550
O12      9.345162010    8.208898781    7.745504513 XXXX 3      oy2     O  -0.550
AL1     17.370027641    1.315927027    4.689136732 XXXX 4      ay2     Al  1.449
AL2     14.818194801    5.798838375    4.689136732 XXXX 4      ay2     Al  1.449
SI2     15.579761723    4.220879315    7.370465651 XXXX 4      sy2     Si  1.100
SI3     18.224418262    2.685819386    7.376071349 XXXX 4      sy1     Si  1.100
SI4     15.672585407    7.168730973    7.376071349 XXXX 4      sy1     Si  1.100
O1      17.938586095   -0.186690946    5.751302138 XXXX 4      oy5     O  -0.758
O2      15.386753419    4.296220539    5.751302138 XXXX 4      oy5     O  -0.758
O3      18.377925018    2.557693003    5.754059091 XXXX 4      oy4     O  -0.758
O4      15.826092342    7.040604351    5.754059091 XXXX 4      oy4     O  -0.758
O5      15.778185764    1.526230214    5.683297053 XXXX 4      oy6     O  -0.683
O6      18.386353114    6.009142159    5.683297053 XXXX 4      oy6     O  -0.683
O7      14.452917555    3.241515158    7.988117114 XXXX 4      oy3     O  -0.550
O8      17.061084846    7.724426983    7.988117114 XXXX 4      oy3     O  -0.550
O9      17.925616124    1.220709680    7.983521834 XXXX 4      oy1     O  -0.550
O10     15.373783568    5.703621147    7.983521834 XXXX 4      oy1     O  -0.550
O11     17.056994537    3.725987194    7.745504513 XXXX 4      oy2     O  -0.550
O12     14.505162010    8.208898781    7.745504513 XXXX 4      oy2     O  -0.550
AL1     22.530027641    1.315927027    4.689136732 XXXX 5      ay2     Al  1.449
AL2     19.978194801    5.798838375    4.689136732 XXXX 5      ay2     Al  1.449
SI2     20.739761723    4.220879315    7.370465651 XXXX 5      sy2     Si  1.100
SI3     23.384418262    2.685819386    7.376071349 XXXX 5      sy1     Si  1.100
SI4     20.832585407    7.168730973    7.376071349 XXXX 5      sy1     Si  1.100
O1      23.098586095   -0.186690946    5.751302138 XXXX 5      oy5     O  -0.758
O2      20.546753419    4.296220539    5.751302138 XXXX 5      oy5     O  -0.758
O3      23.537925018    2.557693003    5.754059091 XXXX 5      oy4     O  -0.758
O4      20.986092342    7.040604351    5.754059091 XXXX 5      oy4     O  -0.758
O5      20.938185764    1.526230214    5.683297053 XXXX 5      oy6     O  -0.683
O6      23.546353114    6.009142159    5.683297053 XXXX 5      oy6     O  -0.683
O7      19.612917555    3.241515158    7.988117114 XXXX 5      oy3     O  -0.550
O8      22.221084846    7.724426983    7.988117114 XXXX 5      oy3     O  -0.550
O9      23.085616124    1.220709680    7.983521834 XXXX 5      oy1     O  -0.550
O10     20.533783568    5.703621147    7.983521834 XXXX 5      oy1     O  -0.550
O11     22.216994537    3.725987194    7.745504513 XXXX 5      oy2     O  -0.550
O12     19.665162010    8.208898781    7.745504513 XXXX 5      oy2     O  -0.550
AL1      1.946362310   10.281750046    4.689136732 XXXX 6      ay2     Al  1.449
SI1      2.707928949    8.703790829    7.370465651 XXXX 6      sy2     Si  1.100
SI2      0.156096392   13.186702334    7.370465651 XXXX 6      sy2     Si  1.100
SI3      2.800752931   11.651642405    7.376071349 XXXX 6      sy1     Si  1.100
SI4      0.248920076   16.134553992    7.376071349 XXXX 6      sy1     Si  1.100
O1       2.514920764    8.779132073    5.751302138 XXXX 6      oy5     O  -0.758
O2      -0.036911912   13.262043558    5.751302138 XXXX 6      oy5     O  -0.758
O3       2.954259687   11.523516022    5.754059091 XXXX 6      oy4     O  -0.758
O4       0.402427011   16.006427370    5.754059091 XXXX 6      oy4     O  -0.758
O5       0.354520433   10.492053233    5.683297053 XXXX 6      oy6     O  -0.683
O6       2.962687783   14.974965178    5.683297053 XXXX 6      oy6     O  -0.683
O7      -0.970747776   12.207338177    7.988117114 XXXX 6      oy3     O  -0.550
O8       1.637419515   16.690250002    7.988117114 XXXX 6      oy3     O  -0.550
O9       2.501950793   10.186532699    7.983521834 XXXX 6      oy1     O  -0.550
O10     -0.049881763   14.669444166    7.983521834 XXXX 6      oy1     O  -0.550
O11      1.633329206   12.691810213    7.745504513 XXXX 6      oy2     O  -0.550
O12     -0.918503321   17.174721800    7.745504513 XXXX 6      oy2     O  -0.550
AL1      7.106362310   10.281750046    4.689136732 XXXX 7      ay2     Al  1.449
AL2      4.554529470   14.764661394    4.689136732 XXXX 7      ay2     Al  1.449
SI1      7.867928949    8.703790829    7.370465651 XXXX 7      sy2     Si  1.100
SI2      5.316096392   13.186702334    7.370465651 XXXX 7      sy2     Si  1.100
SI3      7.960752931   11.651642405    7.376071349 XXXX 7      sy1     Si  1.100
SI4      5.408920076   16.134553992    7.376071349 XXXX 7      sy1     Si  1.100
O1       7.674920764    8.779132073    5.751302138 XXXX 7      oy5     O  -0.758
O2       5.123088088   13.262043558    5.751302138 XXXX 7      oy5     O  -0.758
O3       8.114259687   11.523516022    5.754059091 XXXX 7      oy4     O  -0.758
O4       5.562427011   16.006427370    5.754059091 XXXX 7      oy4     O  -0.758
O5       5.514520433   10.492053233    5.683297053 XXXX 7      oy6     O  -0.683
O6       8.122687783   14.974965178    5.683297053 XXXX 7      oy6     O  -0.683
O7       4.189252224   12.207338177    7.988117114 XXXX 7      oy3     O  -0.550
O8       6.797419515   16.690250002    7.988117114 XXXX 7      oy3     O  -0.550
O9       7.661950793   10.186532699    7.983521834 XXXX 7      oy1     O  -0.550
O10      5.110118237   14.669444166    7.983521834 XXXX 7      oy1     O  -0.550
O11      6.793329206   12.691810213    7.745504513 XXXX 7      oy2     O  -0.550
O12      4.241496679   17.174721800    7.745504513 XXXX 7      oy2     O  -0.550
AL1     12.266362310   10.281750046    4.689136732 XXXX 8      ay2     Al  1.449
AL2      9.714529470   14.764661394    4.689136732 XXXX 8      ay2     Al  1.449
SI1     13.027928949    8.703790829    7.370465651 XXXX 8      sy2     Si  1.100
SI2     10.476096392   13.186702334    7.370465651 XXXX 8      sy2     Si  1.100
SI3     13.120752931   11.651642405    7.376071349 XXXX 8      sy1     Si  1.100
SI4     10.568920076   16.134553992    7.376071349 XXXX 8      sy1     Si  1.100
O1      12.834920764    8.779132073    5.751302138 XXXX 8      oy5     O  -0.758
O2      10.283088088   13.262043558    5.751302138 XXXX 8      oy5     O  -0.758
O3      13.274259687   11.523516022    5.754059091 XXXX 8      oy4     O  -0.758
O4      10.722427011   16.006427370    5.754059091 XXXX 8      oy4     O  -0.758
O5      10.674520433   10.492053233    5.683297053 XXXX 8      oy6     O  -0.683
O6      13.282687783   14.974965178    5.683297053 XXXX 8      oy6     O  -0.683
O7       9.349252224   12.207338177    7.988117114 XXXX 8      oy3     O  -0.550
O8      11.957419515   16.690250002    7.988117114 XXXX 8      oy3     O  -0.550
O9      12.821950793   10.186532699    7.983521834 XXXX 8      oy1     O  -0.550
O10     10.270118237   14.669444166    7.983521834 XXXX 8      oy1     O  -0.550
O11     11.953329206   12.691810213    7.745504513 XXXX 8      oy2     O  -0.550
O12      9.401496679   17.174721800    7.745504513 XXXX 8      oy2     O  -0.550
AL1     17.426362310   10.281750046    4.689136732 XXXX 9      ay2     Al  1.449
AL2     14.874529470   14.764661394    4.689136732 XXXX 9      ay2     Al  1.449
SI1     18.187928949    8.703790829    7.370465651 XXXX 9      sy2     Si  1.100
SI2     15.636096392   13.186702334    7.370465651 XXXX 9      sy2     Si  1.100
SI3     18.280752931   11.651642405    7.376071349 XXXX 9      sy1     Si  1.100
SI4     15.728920076   16.134553992    7.376071349 XXXX 9      sy1     Si  1.100
O1      17.994920764    8.779132073    5.751302138 XXXX 9      oy5     O  -0.758
O2      15.443088088   13.262043558    5.751302138 XXXX 9      oy5     O  -0.758
O3      18.434259687   11.523516022    5.754059091 XXXX 9      oy4     O  -0.758
O4      15.882427011   16.006427370    5.754059091 XXXX 9      oy4     O  -0.758
O5      15.834520433   10.492053233    5.683297053 XXXX 9      oy6     O  -0.683
O6      18.442687783   14.974965178    5.683297053 XXXX 9      oy6     O  -0.683
O7      14.509252224   12.207338177    7.988117114 XXXX 9      oy3     O  -0.550
O8      17.117419515   16.690250002    7.988117114 XXXX 9      oy3     O  -0.550
O9      17.981950793   10.186532699    7.983521834 XXXX 9      oy1     O  -0.550
O10     15.430118237   14.669444166    7.983521834 XXXX 9      oy1     O  -0.550
O11     17.113329206   12.691810213    7.745504513 XXXX 9      oy2     O  -0.550
O12     14.561496679   17.174721800    7.745504513 XXXX 9      oy2     O  -0.550
AL1     22.586362310   10.281750046    4.689136732 XXXX 10     ay2     Al  1.449
AL2     20.034529470   14.764661394    4.689136732 XXXX 10     ay2     Al  1.449
SI1     23.347928949    8.703790829    7.370465651 XXXX 10     sy2     Si  1.100
SI2     20.796096392   13.186702334    7.370465651 XXXX 10     sy2     Si  1.100
SI3     23.440752931   11.651642405    7.376071349 XXXX 10     sy1     Si  1.100
SI4     20.888920076   16.134553992    7.376071349 XXXX 10     sy1     Si  1.100
O1      23.154920764    8.779132073    5.751302138 XXXX 10     oy5     O  -0.758
O2      20.603088088   13.262043558    5.751302138 XXXX 10     oy5     O  -0.758
O3      23.594259687   11.523516022    5.754059091 XXXX 10     oy4     O  -0.758
O4      21.042427011   16.006427370    5.754059091 XXXX 10     oy4     O  -0.758
O5      20.994520433   10.492053233    5.683297053 XXXX 10     oy6     O  -0.683
O6      23.602687783   14.974965178    5.683297053 XXXX 10     oy6     O  -0.683
O7      19.669252224   12.207338177    7.988117114 XXXX 10     oy3     O  -0.550
O8      22.277419515   16.690250002    7.988117114 XXXX 10     oy3     O  -0.550
O9      23.141950793   10.186532699    7.983521834 XXXX 10     oy1     O  -0.550
O10     20.590118237   14.669444166    7.983521834 XXXX 10     oy1     O  -0.550
O11     22.273329206   12.691810213    7.745504513 XXXX 10     oy2     O  -0.550
O12     19.721496679   17.174721800    7.745504513 XXXX 10     oy2     O  -0.550
AL1      2.002696978   19.247573065    4.689136732 XXXX 11     ay2     Al  1.449
SI1      2.764263617   17.669613848    7.370465651 XXXX 11     sy2     Si  1.100
SI2      0.212431060   22.152525353    7.370465651 XXXX 11     sy2     Si  1.100
SI3      2.857087599   20.617465424    7.376071349 XXXX 11     sy1     Si  1.100
SI4      0.305254744   25.100377011    7.376071349 XXXX 11     sy1     Si  1.100
O1       2.571255432   17.744955092    5.751302138 XXXX 11     oy5     O  -0.758
O2       0.019422756   22.227866577    5.751302138 XXXX 11     oy5     O  -0.758
O3       3.010594355   20.489339041    5.754059091 XXXX 11     oy4     O  -0.758
O4       0.458761679   24.972250389    5.754059091 XXXX 11     oy4     O  -0.758
O5       0.410855101   19.457876252    5.683297053 XXXX 11     oy6     O  -0.683
O6       3.019022451   23.940788197    5.683297053 XXXX 11     oy6     O  -0.683
O7      -0.914413108   21.173161196    7.988117114 XXXX 11     oy3     O  -0.550
O8       1.693754183   25.656073021    7.988117114 XXXX 11     oy3     O  -0.550
O9       2.558285461   19.152355718    7.983521834 XXXX 11     oy1     O  -0.550
O10      0.006452905   23.635267185    7.983521834 XXXX 11     oy1     O  -0.550
O11      1.689663874   21.657633232    7.745504513 XXXX 11     oy2     O  -0.550
O12     -0.862168653   26.140544819    7.745504513 XXXX 11     oy2     O  -0.550
AL1      7.162696978   19.247573065    4.689136732 XXXX 12     ay2     Al  1.449
AL2      4.610864138   23.730484413    4.689136732 XXXX 12     ay2     Al  1.449
SI1      7.924263617   17.669613848    7.370465651 XXXX 12     sy2     Si  1.100
SI2      5.372431060   22.152525353    7.370465651 XXXX 12     sy2     Si  1.100
SI3      8.017087599   20.617465424    7.376071349 XXXX 12     sy1     Si  1.100
SI4      5.465254744   25.100377011    7.376071349 XXXX 12     sy1     Si  1.100
O1       7.731255432   17.744955092    5.751302138 XXXX 12     oy5     O  -0.758
O2       5.179422756   22.227866577    5.751302138 XXXX 12     oy5     O  -0.758
O3       8.170594355   20.489339041    5.754059091 XXXX 12     oy4     O  -0.758
O4       5.618761679   24.972250389    5.754059091 XXXX 12     oy4     O  -0.758
O5       5.570855101   19.457876252    5.683297053 XXXX 12     oy6     O  -0.683
O6       8.179022451   23.940788197    5.683297053 XXXX 12     oy6     O  -0.683
O7       4.245586892   21.173161196    7.988117114 XXXX 12     oy3     O  -0.550
O8       6.853754183   25.656073021    7.988117114 XXXX 12     oy3     O  -0.550
O9       7.718285461   19.152355718    7.983521834 XXXX 12     oy1     O  -0.550
O10      5.166452905   23.635267185    7.983521834 XXXX 12     oy1     O  -0.550
O11      6.849663874   21.657633232    7.745504513 XXXX 12     oy2     O  -0.550
O12      4.297831347   26.140544819    7.745504513 XXXX 12     oy2     O  -0.550
AL1     12.322696978   19.247573065    4.689136732 XXXX 13     ay2     Al  1.449
AL2      9.770864138   23.730484413    4.689136732 XXXX 13     ay2     Al  1.449
SI1     13.084263617   17.669613848    7.370465651 XXXX 13     sy2     Si  1.100
SI2     10.532431060   22.152525353    7.370465651 XXXX 13     sy2     Si  1.100
SI3     13.177087599   20.617465424    7.376071349 XXXX 13     sy1     Si  1.100
SI4     10.625254744   25.100377011    7.376071349 XXXX 13     sy1     Si  1.100
O1      12.891255432   17.744955092    5.751302138 XXXX 13     oy5     O  -0.758
O2      10.339422756   22.227866577    5.751302138 XXXX 13     oy5     O  -0.758
O3      13.330594355   20.489339041    5.754059091 XXXX 13     oy4     O  -0.758
O4      10.778761679   24.972250389    5.754059091 XXXX 13     oy4     O  -0.758
O5      10.730855101   19.457876252    5.683297053 XXXX 13     oy6     O  -0.683
O6      13.339022451   23.940788197    5.683297053 XXXX 13     oy6     O  -0.683
O7       9.405586892   21.173161196    7.988117114 XXXX 13     oy3     O  -0.550
O8      12.013754183   25.656073021    7.988117114 XXXX 13     oy3     O  -0.550
O9      12.878285461   19.152355718    7.983521834 XXXX 13     oy1     O  -0.550
O10     10.326452905   23.635267185    7.983521834 XXXX 13     oy1     O  -0.550
O11     12.009663874   21.657633232    7.745504513 XXXX 13     oy2     O  -0.550
O12      9.457831347   26.140544819    7.745504513 XXXX 13     oy2     O  -0.550
AL1     17.482696978   19.247573065    4.689136732 XXXX 14     ay2     Al  1.449
AL2     14.930864138   23.730484413    4.689136732 XXXX 14     ay2     Al  1.449
SI1     18.244263617   17.669613848    7.370465651 XXXX 14     sy2     Si  1.100
SI2     15.692431060   22.152525353    7.370465651 XXXX 14     sy2     Si  1.100
SI3     18.337087599   20.617465424    7.376071349 XXXX 14     sy1     Si  1.100
SI4     15.785254744   25.100377011    7.376071349 XXXX 14     sy1     Si  1.100
O1      18.051255432   17.744955092    5.751302138 XXXX 14     oy5     O  -0.758
O2      15.499422756   22.227866577    5.751302138 XXXX 14     oy5     O  -0.758
O3      18.490594355   20.489339041    5.754059091 XXXX 14     oy4     O  -0.758
O4      15.938761679   24.972250389    5.754059091 XXXX 14     oy4     O  -0.758
O5      15.890855101   19.457876252    5.683297053 XXXX 14     oy6     O  -0.683
O6      18.499022451   23.940788197    5.683297053 XXXX 14     oy6     O  -0.683
O7      14.565586892   21.173161196    7.988117114 XXXX 14     oy3     O  -0.550
O8      17.173754183   25.656073021    7.988117114 XXXX 14     oy3     O  -0.550
O9      18.038285461   19.152355718    7.983521834 XXXX 14     oy1     O  -0.550
O10     15.486452905   23.635267185    7.983521834 XXXX 14     oy1     O  -0.550
O11     17.169663874   21.657633232    7.745504513 XXXX 14     oy2     O  -0.550
O12     14.617831347   26.140544819    7.745504513 XXXX 14     oy2     O  -0.550
AL1     22.642696978   19.247573065    4.689136732 XXXX 15     ay2     Al  1.449
AL2     20.090864138   23.730484413    4.689136732 XXXX 15     ay2     Al  1.449
SI1     23.404263617   17.669613848    7.370465651 XXXX 15     sy2     Si  1.100
SI2     20.852431060   22.152525353    7.370465651 XXXX 15     sy2     Si  1.100
SI3     23.497087599   20.617465424    7.376071349 XXXX 15     sy1     Si  1.100
SI4     20.945254744   25.100377011    7.376071349 XXXX 15     sy1     Si  1.100
O1      23.211255432   17.744955092    5.751302138 XXXX 15     oy5     O  -0.758
O2      20.659422756   22.227866577    5.751302138 XXXX 15     oy5     O  -0.758
O3      23.650594355   20.489339041    5.754059091 XXXX 15     oy4     O  -0.758
O4      21.098761679   24.972250389    5.754059091 XXXX 15     oy4     O  -0.758
O5      21.050855101   19.457876252    5.683297053 XXXX 15     oy6     O  -0.683
O6      23.659022451   23.940788197    5.683297053 XXXX 15     oy6     O  -0.683
O7      19.725586892   21.173161196    7.988117114 XXXX 15     oy3     O  -0.550
O8      22.333754183   25.656073021    7.988117114 XXXX 15     oy3     O  -0.550
O9      23.198285461   19.152355718    7.983521834 XXXX 15     oy1     O  -0.550
O10     20.646452905   23.635267185    7.983521834 XXXX 15     oy1     O  -0.550
O11     22.329663874   21.657633232    7.745504513 XXXX 15     oy2     O  -0.550
O12     19.777831347   26.140544819    7.745504513 XXXX 15     oy2     O  -0.550
AL1      0.193088767    1.134098766   13.879008654 XXXX 16     ay2     Al  1.449
SI2     -1.597177151    4.039051054   16.560337573 XXXX 16     sy2     Si  1.100
SI3      1.047479388    2.503991125   16.565943271 XXXX 16     sy1     Si  1.100
SI4     -1.504353467    6.986902712   16.565943271 XXXX 16     sy1     Si  1.100
O1       0.761647221   -0.368519207   14.941174060 XXXX 16     oy5     O  -0.758
O2      -1.790185455    4.114392278   14.941174060 XXXX 16     oy5     O  -0.758
O3       1.200986144    2.375864742   14.943931013 XXXX 16     oy4     O  -0.758
O4      -1.350846532    6.858776090   14.943931013 XXXX 16     oy4     O  -0.758
O5      -1.398753110    1.344401953   14.873168975 XXXX 16     oy6     O  -0.683
O6       1.209414240    5.827313898   14.873168975 XXXX 16     oy6     O  -0.683
O7      -2.724021319    3.059686897   17.177989036 XXXX 16     oy3     O  -0.550
O8      -0.115854028    7.542598722   17.177989036 XXXX 16     oy3     O  -0.550
O9       0.748677250    1.038881419   17.173393756 XXXX 16     oy1     O  -0.550
O10     -1.803155306    5.521792886   17.173393756 XXXX 16     oy1     O  -0.550
O11     -0.119944337    3.544158933   16.935376435 XXXX 16     oy2     O  -0.550
O12     -2.671776864    8.027070520   16.935376435 XXXX 16     oy2     O  -0.550
AL1      5.353088767    1.134098766   13.879008654 XXXX 17     ay2     Al  1.449
AL2      2.801255927    5.617010114   13.879008654 XXXX 17     ay2     Al  1.449
SI2      3.562822849    4.039051054   16.560337573 XXXX 17     sy2     Si  1.100
SI3      6.207479388    2.503991125   16.565943271 XXXX 17     sy1     Si  1.100
SI4      3.655646533    6.986902712   16.565943271 XXXX 17     sy1     Si  1.100
O1       5.921647221   -0.368519207   14.941174060 XXXX 17     oy5     O  -0.758
O2       3.369814545    4.114392278   14.941174060 XXXX 17     oy5     O  -0.758
O3       6.360986144    2.375864742   14.943931013 XXXX 17     oy4     O  -0.758
O4       3.809153468    6.858776090   14.943931013 XXXX 17     oy4     O  -0.758
O5       3.761246890    1.344401953   14.873168975 XXXX 17     oy6     O  -0.683
O6       6.369414240    5.827313898   14.873168975 XXXX 17     oy6     O  -0.683
O7       2.435978681    3.059686897   17.177989036 XXXX 17     oy3     O  -0.550
O8       5.044145972    7.542598722   17.177989036 XXXX 17     oy3     O  -0.550
O9       5.908677250    1.038881419   17.173393756 XXXX 17     oy1     O  -0.550
O10      3.356844694    5.521792886   17.173393756 XXXX 17     oy1     O  -0.550
O11      5.040055663    3.544158933   16.935376435 XXXX 17     oy2     O  -0.550
O12      2.488223136    8.027070520   16.935376435 XXXX 17     oy2     O  -0.550
AL1     10.513088767    1.134098766   13.879008654 XXXX 18     ay2     Al  1.449
AL2      7.961255927    5.617010114   13.879008654 XXXX 18     ay2     Al  1.449
SI2      8.722822849    4.039051054   16.560337573 XXXX 18     sy2     Si  1.100
SI3     11.367479388    2.503991125   16.565943271 XXXX 18     sy1     Si  1.100
SI4      8.815646533    6.986902712   16.565943271 XXXX 18     sy1     Si  1.100
O1      11.081647221   -0.368519207   14.941174060 XXXX 18     oy5     O  -0.758
O2       8.529814545    4.114392278   14.941174060 XXXX 18     oy5     O  -0.758
O3      11.520986144    2.375864742   14.943931013 XXXX 18     oy4     O  -0.758
O4       8.969153468    6.858776090   14.943931013 XXXX 18     oy4     O  -0.758
O5       8.921246890    1.344401953   14.873168975 XXXX 18     oy6     O  -0.683
O6      11.529414240    5.827313898   14.873168975 XXXX 18     oy6     O  -0.683
O7       7.595978681    3.059686897   17.177989036 XXXX 18     oy3     O  -0.550
O8      10.204145972    7.542598722   17.177989036 XXXX 18     oy3     O  -0.550
O9      11.068677250    1.038881419   17.173393756 XXXX 18     oy1     O  -0.550
O10      8.516844694    5.521792886   17.173393756 XXXX 18     oy1     O  -0.550
O11     10.200055663    3.544158933   16.935376435 XXXX 18     oy2     O  -0.550
O12      7.648223136    8.027070520   16.935376435 XXXX 18     oy2     O  -0.550
AL1     15.673088767    1.134098766   13.879008654 XXXX 19     ay2     Al  1.449
AL2     13.121255927    5.617010114   13.879008654 XXXX 19     ay2     Al  1.449
SI2     13.882822849    4.039051054   16.560337573 XXXX 19     sy2     Si  1.100
SI3     16.527479388    2.503991125   16.565943271 XXXX 19     sy1     Si  1.100
SI4     13.975646533    6.986902712   16.565943271 XXXX 19     sy1     Si  1.100
O1      16.241647221   -0.368519207   14.941174060 XXXX 19     oy5     O  -0.758
O2      13.689814545    4.114392278   14.941174060 XXXX 19     oy5     O  -0.758
O3      16.680986144    2.375864742   14.943931013 XXXX 19     oy4     O  -0.758
O4      14.129153468    6.858776090   14.943931013 XXXX 19     oy4     O  -0.758
O5      14.081246890    1.344401953   14.873168975 XXXX 19     oy6     O  -0.683
O6      16.689414240    5.827313898   14.873168975 XXXX 19     oy6     O  -0.683
O7      12.755978681    3.059686897   17.177989036 XXXX 19     oy3     O  -0.550
O8      15.364145972    7.542598722   17.177989036 XXXX 19     oy3     O  -0.550
O9      16.228677250    1.038881419   17.173393756 XXXX 19     oy1     O  -0.550
O10     13.676844694    5.521792886   17.173393756 XXXX 19     oy1     O  -0.550
O11     15.360055663    3.544158933   16.935376435 XXXX 19     oy2     O  -0.550
O12     12.808223136    8.027070520   16.935376435 XXXX 19     oy2     O  -0.550
AL1     20.833088767    1.134098766   13.879008654 XXXX 20     ay2     Al  1.449
AL2     18.281255927    5.617010114   13.879008654 XXXX 20     ay2     Al  1.449
SI2     19.042822849    4.039051054   16.560337573 XXXX 20     sy2     Si  1.100
SI3     21.687479388    2.503991125   16.565943271 XXXX 20     sy1     Si  1.100
SI4     19.135646533    6.986902712   16.565943271 XXXX 20     sy1     Si  1.100
O1      21.401647221   -0.368519207   14.941174060 XXXX 20     oy5     O  -0.758
O2      18.849814545    4.114392278   14.941174060 XXXX 20     oy5     O  -0.758
O3      21.840986144    2.375864742   14.943931013 XXXX 20     oy4     O  -0.758
O4      19.289153468    6.858776090   14.943931013 XXXX 20     oy4     O  -0.758
O5      19.241246890    1.344401953   14.873168975 XXXX 20     oy6     O  -0.683
O6      21.849414240    5.827313898   14.873168975 XXXX 20     oy6     O  -0.683
O7      17.915978681    3.059686897   17.177989036 XXXX 20     oy3     O  -0.550
O8      20.524145972    7.542598722   17.177989036 XXXX 20     oy3     O  -0.550
O9      21.388677250    1.038881419   17.173393756 XXXX 20     oy1     O  -0.550
O10     18.836844694    5.521792886   17.173393756 XXXX 20     oy1     O  -0.550
O11     20.520055663    3.544158933   16.935376435 XXXX 20     oy2     O  -0.550
O12     17.968223136    8.027070520   16.935376435 XXXX 20     oy2     O  -0.550
AL1      0.249423435   10.099921784   13.879008654 XXXX 21     ay2     Al  1.449
SI1      1.010990074    8.521962567   16.560337573 XXXX 21     sy2     Si  1.100
SI2     -1.540842483   13.004874072   16.560337573 XXXX 21     sy2     Si  1.100
SI3      1.103814056   11.469814143   16.565943271 XXXX 21     sy1     Si  1.100
SI4     -1.448018799   15.952725730   16.565943271 XXXX 21     sy1     Si  1.100
O1       0.817981889    8.597303811   14.941174060 XXXX 21     oy5     O  -0.758
O2      -1.733850787   13.080215296   14.941174060 XXXX 21     oy5     O  -0.758
O3       1.257320812   11.341687760   14.943931013 XXXX 21     oy4     O  -0.758
O4      -1.294511864   15.824599108   14.943931013 XXXX 21     oy4     O  -0.758
O5      -1.342418442   10.310224971   14.873168975 XXXX 21     oy6     O  -0.683
O6       1.265748908   14.793136916   14.873168975 XXXX 21     oy6     O  -0.683
O7      -2.667686651   12.025509915   17.177989036 XXXX 21     oy3     O  -0.550
O8      -0.059519360   16.508421740   17.177989036 XXXX 21     oy3     O  -0.550
O9       0.805011918   10.004704437   17.173393756 XXXX 21     oy1     O  -0.550
O10     -1.746820638   14.487615904   17.173393756 XXXX 21     oy1     O  -0.550
O11     -0.063609669   12.509981951   16.935376435 XXXX 21     oy2     O  -0.550
O12     -2.615442196   16.992893538   16.935376435 XXXX 21     oy2     O  -0.550
AL1      5.409423435   10.099921784   13.879008654 XXXX 22     ay2     Al  1.449
AL2      2.857590595   14.582833132   13.879008654 XXXX 22     ay2     Al  1.449
SI1      6.170990074    8.521962567   16.560337573 XXXX 22     sy2     Si  1.100
SI2      3.619157517   13.004874072   16.560337573 XXXX 22     sy2     Si  1.100
SI3      6.263814056   11.469814143   16.565943271 XXXX 22     sy1     Si  1.100
SI4      3.711981201   15.952725730   16.565943271 XXXX 22     sy1     Si  1.100
O1       5.977981889    8.597303811   14.941174060 XXXX 22     oy5     O  -0.758
O2       3.426149213   13.080215296   14.941174060 XXXX 22     oy5     O  -0.758
O3       6.417320812   11.341687760   14.943931013 XXXX 22     oy4     O  -0.758
O4       3.865488136   15.824599108   14.943931013 XXXX 22     oy4     O  -0.758
O5       3.817581558   10.310224971   14.873168975 XXXX 22     oy6     O  -0.683
O6       6.425748908   14.793136916   14.873168975 XXXX 22     oy6     O  -0.683
O7       2.492313349   12.025509915   17.177989036 XXXX 22     oy3     O  -0.550
O8       5.100480640   16.508421740   17.177989036 XXXX 22     oy3     O  -0.550
O9       5.965011918   10.004704437   17.173393756 XXXX 22     oy1     O  -0.550
O10      3.413179362   14.487615904   17.173393756 XXXX 22     oy1     O  -0.550
O11      5.096390331   12.509981951   16.935376435 XXXX 22     oy2     O  -0.550
O12      2.544557804   16.992893538   16.935376435 XXXX 22     oy2     O  -0.550
AL1     10.569423435   10.099921784   13.879008654 XXXX 23     ay2     Al  1.449
AL2      8.017590595   14.582833132   13.879008654 XXXX 23     ay2     Al  1.449
SI1     11.330990074    8.521962567   16.560337573 XXXX 23     sy2     Si  1.100
SI2      8.779157517   13.004874072   16.560337573 XXXX 23     sy2     Si  1.100
SI3     11.423814056   11.469814143   16.565943271 XXXX 23     sy1     Si  1.100
SI4      8.871981201   15.952725730   16.565943271 XXXX 23     sy1     Si  1.100
O1      11.137981889    8.597303811   14.941174060 XXXX 23     oy5     O  -0.758
O2       8.586149213   13.080215296   14.941174060 XXXX 23     oy5     O  -0.758
O3      11.577320812   11.341687760   14.943931013 XXXX 23     oy4     O  -0.758
O4       9.025488136   15.824599108   14.943931013 XXXX 23     oy4     O  -0.758
O5       8.977581558   10.310224971   14.873168975 XXXX 23     oy6     O  -0.683
O6      11.585748908   14.793136916   14.873168975 XXXX 23     oy6     O  -0.683
O7       7.652313349   12.025509915   17.177989036 XXXX 23     oy3     O  -0.550
O8      10.260480640   16.508421740   17.177989036 XXXX 23     oy3     O  -0.550
O9      11.125011918   10.004704437   17.173393756 XXXX 23     oy1     O  -0.550
O10      8.573179362   14.487615904   17.173393756 XXXX 23     oy1     O  -0.550
O11     10.256390331   12.509981951   16.935376435 XXXX 23     oy2     O  -0.550
O12      7.704557804   16.992893538   16.935376435 XXXX 23     oy2     O  -0.550
AL1     15.729423435   10.099921784   13.879008654 XXXX 24     ay2     Al  1.449
AL2     13.177590595   14.582833132   13.879008654 XXXX 24     ay2     Al  1.449
SI1     16.490990074    8.521962567   16.560337573 XXXX 24     sy2     Si  1.100
SI2     13.939157517   13.004874072   16.560337573 XXXX 24     sy2     Si  1.100
SI3     16.583814056   11.469814143   16.565943271 XXXX 24     sy1     Si  1.100
SI4     14.031981201   15.952725730   16.565943271 XXXX 24     sy1     Si  1.100
O1      16.297981889    8.597303811   14.941174060 XXXX 24     oy5     O  -0.758
O2      13.746149213   13.080215296   14.941174060 XXXX 24     oy5     O  -0.758
O3      16.737320812   11.341687760   14.943931013 XXXX 24     oy4     O  -0.758
O4      14.185488136   15.824599108   14.943931013 XXXX 24     oy4     O  -0.758
O5      14.137581558   10.310224971   14.873168975 XXXX 24     oy6     O  -0.683
O6      16.745748908   14.793136916   14.873168975 XXXX 24     oy6     O  -0.683
O7      12.812313349   12.025509915   17.177989036 XXXX 24     oy3     O  -0.550
O8      15.420480640   16.508421740   17.177989036 XXXX 24     oy3     O  -0.550
O9      16.285011918   10.004704437   17.173393756 XXXX 24     oy1     O  -0.550
O10     13.733179362   14.487615904   17.173393756 XXXX 24     oy1     O  -0.550
O11     15.416390331   12.509981951   16.935376435 XXXX 24     oy2     O  -0.550
O12     12.864557804   16.992893538   16.935376435 XXXX 24     oy2     O  -0.550
AL1     20.889423435   10.099921784   13.879008654 XXXX 25     ay2     Al  1.449
AL2     18.337590595   14.582833132   13.879008654 XXXX 25     ay2     Al  1.449
SI1     21.650990074    8.521962567   16.560337573 XXXX 25     sy2     Si  1.100
SI2     19.099157517   13.004874072   16.560337573 XXXX 25     sy2     Si  1.100
SI3     21.743814056   11.469814143   16.565943271 XXXX 25     sy1     Si  1.100
SI4     19.191981201   15.952725730   16.565943271 XXXX 25     sy1     Si  1.100
O1      21.457981889    8.597303811   14.941174060 XXXX 25     oy5     O  -0.758
O2      18.906149213   13.080215296   14.941174060 XXXX 25     oy5     O  -0.758
O3      21.897320812   11.341687760   14.943931013 XXXX 25     oy4     O  -0.758
O4      19.345488136   15.824599108   14.943931013 XXXX 25     oy4     O  -0.758
O5      19.297581558   10.310224971   14.873168975 XXXX 25     oy6     O  -0.683
O6      21.905748908   14.793136916   14.873168975 XXXX 25     oy6     O  -0.683
O7      17.972313349   12.025509915   17.177989036 XXXX 25     oy3     O  -0.550
O8      20.580480640   16.508421740   17.177989036 XXXX 25     oy3     O  -0.550
O9      21.445011918   10.004704437   17.173393756 XXXX 25     oy1     O  -0.550
O10     18.893179362   14.487615904   17.173393756 XXXX 25     oy1     O  -0.550
O11     20.576390331   12.509981951   16.935376435 XXXX 25     oy2     O  -0.550
O12     18.024557804   16.992893538   16.935376435 XXXX 25     oy2     O  -0.550
AL1      0.305758104   19.065744803   13.879008654 XXXX 26     ay2     Al  1.449
SI1      1.067324743   17.487785586   16.560337573 XXXX 26     sy2     Si  1.100
SI2     -1.484507814   21.970697091   16.560337573 XXXX 26     sy2     Si  1.100
SI3      1.160148725   20.435637162   16.565943271 XXXX 26     sy1     Si  1.100
SI4     -1.391684130   24.918548749   16.565943271 XXXX 26     sy1     Si  1.100
O1       0.874316558   17.563126830   14.941174060 XXXX 26     oy5     O  -0.758
O2      -1.677516118   22.046038315   14.941174060 XXXX 26     oy5     O  -0.758
O3       1.313655481   20.307510779   14.943931013 XXXX 26     oy4     O  -0.758
O4      -1.238177195   24.790422127   14.943931013 XXXX 26     oy4     O  -0.758
O5      -1.286083773   19.276047990   14.873168975 XXXX 26     oy6     O  -0.683
O6       1.322083577   23.758959935   14.873168975 XXXX 26     oy6     O  -0.683
O7      -2.611351982   20.991332934   17.177989036 XXXX 26     oy3     O  -0.550
O8      -0.003184691   25.474244759   17.177989036 XXXX 26     oy3     O  -0.550
O9       0.861346587   18.970527456   17.173393756 XXXX 26     oy1     O  -0.550
O10     -1.690485969   23.453438923   17.173393756 XXXX 26     oy1     O  -0.550
O11     -0.007275000   21.475804970   16.935376435 XXXX 26     oy2     O  -0.550
O12     -2.559107527   25.958716557   16.935376435 XXXX 26     oy2     O  -0.550
AL1      5.465758104   19.065744803   13.879008654 XXXX 27     ay2     Al  1.449
AL2      2.913925264   23.548656151   13.879008654 XXXX 27     ay2     Al  1.449
SI1      6.227324743   17.487785586   16.560337573 XXXX 27     sy2     Si  1.100
SI2      3.675492186   21.970697091   16.560337573 XXXX 27     sy2     Si  1.100
SI3      6.320148725   20.435637162   16.565943271 XXXX 27     sy1     Si  1.100
SI4      3.768315870   24.918548749   16.565943271 XXXX 27     sy1     Si  1.100
O1       6.034316558   17.563126830   14.941174060 XXXX 27     oy5     O  -0.758
O2       3.482483882   22.046038315   14.941174060 XXXX 27     oy5     O  -0.758
O3       6.473655481   20.307510779   14.943931013 XXXX 27     oy4     O  -0.758
O4       3.921822805   24.790422127   14.943931013 XXXX 27     oy4     O  -0.758
O5       3.873916227   19.276047990   14.873168975 XXXX 27     oy6     O  -0.683
O6       6.482083577   23.758959935   14.873168975 XXXX 27     oy6     O  -0.683
O7       2.548648018   20.991332934   17.177989036 XXXX 27     oy3     O  -0.550
O8       5.156815309   25.474244759   17.177989036 XXXX 27     oy3     O  -0.550
O9       6.021346587   18.970527456   17.173393756 XXXX 27     oy1     O  -0.550
O10      3.469514031   23.453438923   17.173393756 XXXX 27     oy1     O  -0.550
O11      5.152725000   21.475804970   16.935376435 XXXX 27     oy2     O  -0.550
O12      2.600892473   25.958716557   16.935376435 XXXX 27     oy2     O  -0.550
AL1     10.625758104   19.065744803   13.879008654 XXXX 28     ay2     Al  1.449
AL2      8.073925264   23.548656151   13.879008654 XXXX 28     ay2     Al  1.449
SI1     11.387324743   17.487785586   16.560337573 XXXX 28     sy2     Si  1.100
SI2      8.835492186   21.970697091   16.560337573 XXXX 28     sy2     Si  1.100
SI3     11.480148725   20.435637162   16.565943271 XXXX 28     sy1     Si  1.100
SI4      8.928315870   24.918548749   16.565943271 XXXX 28     sy1     Si  1.100
O1      11.194316558   17.563126830   14.941174060 XXXX 28     oy5     O  -0.758
O2       8.642483882   22.046038315   14.941174060 XXXX 28     oy5     O  -0.758
O3      11.633655481   20.307510779   14.943931013 XXXX 28     oy4     O  -0.758
O4       9.081822805   24.790422127   14.943931013 XXXX 28     oy4     O  -0.758
O5       9.033916227   19.276047990   14.873168975 XXXX 28     oy6     O  -0.683
O6      11.642083577   23.758959935   14.873168975 XXXX 28     oy6     O  -0.683
O7       7.708648018   20.991332934   17.177989036 XXXX 28     oy3     O  -0.550
O8      10.316815309   25.474244759   17.177989036 XXXX 28     oy3     O  -0.550
O9      11.181346587   18.970527456   17.173393756 XXXX 28     oy1     O  -0.550
O10      8.629514031   23.453438923   17.173393756 XXXX 28     oy1     O  -0.550
O11     10.312725000   21.475804970   16.935376435 XXXX 28     oy2     O  -0.550
O12      7.760892473   25.958716557   16.935376435 XXXX 28     oy2     O  -0.550
AL1     15.785758104   19.065744803   13.879008654 XXXX 29     ay2     Al  1.449
AL2     13.233925264   23.548656151   13.879008654 XXXX 29     ay2     Al  1.449
SI1     16.547324743   17.487785586   16.560337573 XXXX 29     sy2     Si  1.100
SI2     13.995492186   21.970697091   16.560337573 XXXX 29     sy2     Si  1.100
SI3     16.640148725   20.435637162   16.565943271 XXXX 29     sy1     Si  1.100
SI4     14.088315870   24.918548749   16.565943271 XXXX 29     sy1     Si  1.100
O1      16.354316558   17.563126830   14.941174060 XXXX 29     oy5     O  -0.758
O2      13.802483882   22.046038315   14.941174060 XXXX 29     oy5     O  -0.758
O3      16.793655481   20.307510779   14.943931013 XXXX 29     oy4     O  -0.758
O4      14.241822805   24.790422127   14.943931013 XXXX 29     oy4     O  -0.758
O5      14.193916227   19.276047990   14.873168975 XXXX 29     oy6     O  -0.683
O6      16.802083577   23.758959935   14.873168975 XXXX 29     oy6     O  -0.683
O7      12.868648018   20.991332934   17.177989036 XXXX 29     oy3     O  -0.550
O8      15.476815309   25.474244759   17.177989036 XXXX 29     oy3     O  -0.550
O9      16.341346587   18.970527456   17.173393756 XXXX 29     oy1     O  -0.550
O10     13.789514031   23.453438923   17.173393756 XXXX 29     oy1     O  -0.550
O11     15.472725000   21.475804970   16.935376435 XXXX 29     oy2     O  -0.550
O12     12.920892473   25.958716557   16.935376435 XXXX 29     oy2     O  -0.550
AL1     20.945758104   19.065744803   13.879008654 XXXX 30     ay2     Al  1.449
AL2     18.393925264   23.548656151   13.879008654 XXXX 30     ay2     Al  1.449
SI1     21.707324743   17.487785586   16.560337573 XXXX 30     sy2     Si  1.100
SI2     19.155492186   21.970697091   16.560337573 XXXX 30     sy2     Si  1.100
SI3     21.800148725   20.435637162   16.565943271 XXXX 30     sy1     Si  1.100
SI4     19.248315870   24.918548749   16.565943271 XXXX 30     sy1     Si  1.100
O1      21.514316558   17.563126830   14.941174060 XXXX 30     oy5     O  -0.758
O2      18.962483882   22.046038315   14.941174060 XXXX 30     oy5     O  -0.758
O3      21.953655481   20.307510779   14.943931013 XXXX 30     oy4     O  -0.758
O4      19.401822805   24.790422127   14.943931013 XXXX 30     oy4     O  -0.758
O5      19.353916227   19.276047990   14.873168975 XXXX 30     oy6     O  -0.683
O6      21.962083577   23.758959935   14.873168975 XXXX 30     oy6     O  -0.683
O7      18.028648018   20.991332934   17.177989036 XXXX 30     oy3     O  -0.550
O8      20.636815309   25.474244759   17.177989036 XXXX 30     oy3     O  -0.550
O9      21.501346587   18.970527456   17.173393756 XXXX 30     oy1     O  -0.550
O10     18.949514031   23.453438923   17.173393756 XXXX 30     oy1     O  -0.550
O11     20.632725000   21.475804970   16.935376435 XXXX 30     oy2     O  -0.550
O12     18.080892473   25.958716557   16.935376435 XXXX 30     oy2     O  -0.550
AL2     25.138194801    5.798838375    4.689136732 XXXX 31     ay2     Al  1.449
AL2     25.194529470   14.764661394    4.689136732 XXXX 32     ay2     Al  1.449
AL2     25.250864138   23.730484413    4.689136732 XXXX 33     ay2     Al  1.449
AL2     23.441255927    5.617010114   13.879008654 XXXX 34     ay2     Al  1.449
AL2     23.497590595   14.582833132   13.879008654 XXXX 35     ay2     Al  1.449
AL2     23.553925264   23.548656151   13.879008654 XXXX 36     ay2     Al  1.449
SI1      2.820598286   26.635436867    7.370465651 XXXX 37     sy2     Si  1.100
SI1      7.980598286   26.635436867    7.370465651 XXXX 38     sy2     Si  1.100
SI1     13.140598286   26.635436867    7.370465651 XXXX 39     sy2     Si  1.100
SI1     18.300598286   26.635436867    7.370465651 XXXX 40     sy2     Si  1.100
SI1     23.460598286   26.635436867    7.370465651 XXXX 41     sy2     Si  1.100
SI1      1.123659412   26.453608605   16.560337573 XXXX 42     sy2     Si  1.100
SI1      6.283659412   26.453608605   16.560337573 XXXX 43     sy2     Si  1.100
SI1     11.443659412   26.453608605   16.560337573 XXXX 44     sy2     Si  1.100
SI1     16.603659412   26.453608605   16.560337573 XXXX 45     sy2     Si  1.100
SI1     21.763659412   26.453608605   16.560337573 XXXX 46     sy2     Si  1.100
AL1      1.932429193    7.286239384    4.690607112 XXX  47     ay1     Al  1.449
AL2     -0.675737882    2.803328036    4.690607112 XXX  47     ay1     Al  1.449
SI1      1.114527939   -0.101624334    2.009278193 XXX  47     sy2     Si  1.100
SI2      3.722694991    4.381287335    2.009278193 XXX  47     sy2     Si  1.100
SI3      1.078038691    5.916347264    2.003672495 XXX  47     sy1     Si  1.100
SI4      3.629871486    1.433435319    2.003672495 XXX  47     sy1     Si  1.100
O2       3.915703414    4.305946110    3.628441825 XXX  47     oy8     O  -0.758
O3       0.924531816    6.044473885    3.625684753 XXX  47     oy7     O  -0.758
O4       3.476364730    1.561561941    3.625684753 XXX  47     oy7     O  -0.758
O5       3.524271129    7.075936554    3.696446434 XXX  47     oy9     O  -0.683
O6       0.916103838    2.593024491    3.696446434 XXX  47     oy9     O  -0.683
O7       4.849539397    5.360651730    1.391626730 XXX  47     oy3     O  -0.550
O8       2.241372226    0.877739547    1.391626730 XXX  47     oy3     O  -0.550
O9       1.376840709    7.381457089    1.396222010 XXX  47     oy1     O  -0.550
O10      3.928673385    2.898545502    1.396222010 XXX  47     oy1     O  -0.550
O11      2.245462297    4.876179455    1.634239092 XXX  47     oy2     O  -0.550
O12      4.797294734    0.393267809    1.634239092 XXX  47     oy2     O  -0.550
H1      -0.115656854    0.693469106    5.788169518 XXX  47     hoy     H   0.200
H2       2.448003410    5.263117550    5.812019721 XXX  47     hoy     H   0.200
H3       3.990051387    7.864687203    3.560120597 XXX  47     hoy     H   0.200
H4       1.437749027    3.416100977    3.558185592 XXX  47     hoy     H   0.200
AL1      7.092429193    7.286239384    4.690607112 XXX  48     ay1     Al  1.449
AL2      4.484262118    2.803328036    4.690607112 XXX  48     ay1     Al  1.449
SI1      6.274527939   -0.101624334    2.009278193 XXX  48     sy2     Si  1.100
SI2      8.882694991    4.381287335    2.009278193 XXX  48     sy2     Si  1.100
SI3      6.238038691    5.916347264    2.003672495 XXX  48     sy1     Si  1.100
SI4      8.789871486    1.433435319    2.003672495 XXX  48     sy1     Si  1.100
O2       9.075703414    4.305946110    3.628441825 XXX  48     oy8     O  -0.758
O3       6.084531816    6.044473885    3.625684753 XXX  48     oy7     O  -0.758
O4       8.636364730    1.561561941    3.625684753 XXX  48     oy7     O  -0.758
O5       8.684271129    7.075936554    3.696446434 XXX  48     oy9     O  -0.683
O6       6.076103838    2.593024491    3.696446434 XXX  48     oy9     O  -0.683
O7      10.009539397    5.360651730    1.391626730 XXX  48     oy3     O  -0.550
O8       7.401372226    0.877739547    1.391626730 XXX  48     oy3     O  -0.550
O9       6.536840709    7.381457089    1.396222010 XXX  48     oy1     O  -0.550
O10      9.088673385    2.898545502    1.396222010 XXX  48     oy1     O  -0.550
O11      7.405462297    4.876179455    1.634239092 XXX  48     oy2     O  -0.550
O12      9.957294734    0.393267809    1.634239092 XXX  48     oy2     O  -0.550
H1       5.044343146    0.693469106    5.788169518 XXX  48     hoy     H   0.200
H2       7.608003410    5.263117550    5.812019721 XXX  48     hoy     H   0.200
H3       9.150051387    7.864687203    3.560120597 XXX  48     hoy     H   0.200
H4       6.597749027    3.416100977    3.558185592 XXX  48     hoy     H   0.200
AL1     12.252429193    7.286239384    4.690607112 XXX  49     ay1     Al  1.449
AL2      9.644262118    2.803328036    4.690607112 XXX  49     ay1     Al  1.449
SI1     11.434527939   -0.101624334    2.009278193 XXX  49     sy2     Si  1.100
SI2     14.042694991    4.381287335    2.009278193 XXX  49     sy2     Si  1.100
SI3     11.398038691    5.916347264    2.003672495 XXX  49     sy1     Si  1.100
SI4     13.949871486    1.433435319    2.003672495 XXX  49     sy1     Si  1.100
O2      14.235703414    4.305946110    3.628441825 XXX  49     oy8     O  -0.758
O3      11.244531816    6.044473885    3.625684753 XXX  49     oy7     O  -0.758
O4      13.796364730    1.561561941    3.625684753 XXX  49     oy7     O  -0.758
O5      13.844271129    7.075936554    3.696446434 XXX  49     oy9     O  -0.683
O6      11.236103838    2.593024491    3.696446434 XXX  49     oy9     O  -0.683
O7      15.169539397    5.360651730    1.391626730 XXX  49     oy3     O  -0.550
O8      12.561372226    0.877739547    1.391626730 XXX  49     oy3     O  -0.550
O9      11.696840709    7.381457089    1.396222010 XXX  49     oy1     O  -0.550
O10     14.248673385    2.898545502    1.396222010 XXX  49     oy1     O  -0.550
O11     12.565462297    4.876179455    1.634239092 XXX  49     oy2     O  -0.550
O12     15.117294734    0.393267809    1.634239092 XXX  49     oy2     O  -0.550
H1      10.204343146    0.693469106    5.788169518 XXX  49     hoy     H   0.200
H2      12.768003410    5.263117550    5.812019721 XXX  49     hoy     H   0.200
H3      14.310051387    7.864687203    3.560120597 XXX  49     hoy     H   0.200
H4      11.757749027    3.416100977    3.558185592 XXX  49     hoy     H   0.200
AL1     17.412429193    7.286239384    4.690607112 XXX  50     ay1     Al  1.449
AL2     14.804262118    2.803328036    4.690607112 XXX  50     ay1     Al  1.449
SI1     16.594527939   -0.101624334    2.009278193 XXX  50     sy2     Si  1.100
SI2     19.202694991    4.381287335    2.009278193 XXX  50     sy2     Si  1.100
SI3     16.558038691    5.916347264    2.003672495 XXX  50     sy1     Si  1.100
SI4     19.109871486    1.433435319    2.003672495 XXX  50     sy1     Si  1.100
O2      19.395703414    4.305946110    3.628441825 XXX  50     oy8     O  -0.758
O3      16.404531816    6.044473885    3.625684753 XXX  50     oy7     O  -0.758
O4      18.956364730    1.561561941    3.625684753 XXX  50     oy7     O  -0.758
O5      19.004271129    7.075936554    3.696446434 XXX  50     oy9     O  -0.683
O6      16.396103838    2.593024491    3.696446434 XXX  50     oy9     O  -0.683
O7      20.329539397    5.360651730    1.391626730 XXX  50     oy3     O  -0.550
O8      17.721372226    0.877739547    1.391626730 XXX  50     oy3     O  -0.550
O9      16.856840709    7.381457089    1.396222010 XXX  50     oy1     O  -0.550
O10     19.408673385    2.898545502    1.396222010 XXX  50     oy1     O  -0.550
O11     17.725462297    4.876179455    1.634239092 XXX  50     oy2     O  -0.550
O12     20.277294734    0.393267809    1.634239092 XXX  50     oy2     O  -0.550
H1      15.364343146    0.693469106    5.788169518 XXX  50     hoy     H   0.200
H2      17.928003410    5.263117550    5.812019721 XXX  50     hoy     H   0.200
H3      19.470051387    7.864687203    3.560120597 XXX  50     hoy     H   0.200
H4      16.917749027    3.416100977    3.558185592 XXX  50     hoy     H   0.200
AL1     22.572429193    7.286239384    4.690607112 XXX  51     ay1     Al  1.449
AL2     19.964262118    2.803328036    4.690607112 XXX  51     ay1     Al  1.449
SI1     21.754527939   -0.101624334    2.009278193 XXX  51     sy2     Si  1.100
SI2     24.362694991    4.381287335    2.009278193 XXX  51     sy2     Si  1.100
SI3     21.718038691    5.916347264    2.003672495 XXX  51     sy1     Si  1.100
SI4     24.269871486    1.433435319    2.003672495 XXX  51     sy1     Si  1.100
O2      24.555703414    4.305946110    3.628441825 XXX  51     oy8     O  -0.758
O3      21.564531816    6.044473885    3.625684753 XXX  51     oy7     O  -0.758
O4      24.116364730    1.561561941    3.625684753 XXX  51     oy7     O  -0.758
O5      24.164271129    7.075936554    3.696446434 XXX  51     oy9     O  -0.683
O6      21.556103838    2.593024491    3.696446434 XXX  51     oy9     O  -0.683
O7      25.489539397    5.360651730    1.391626730 XXX  51     oy3     O  -0.550
O8      22.881372226    0.877739547    1.391626730 XXX  51     oy3     O  -0.550
O9      22.016840709    7.381457089    1.396222010 XXX  51     oy1     O  -0.550
O10     24.568673385    2.898545502    1.396222010 XXX  51     oy1     O  -0.550
O11     22.885462297    4.876179455    1.634239092 XXX  51     oy2     O  -0.550
O12     25.437294734    0.393267809    1.634239092 XXX  51     oy2     O  -0.550
H1      20.524343146    0.693469106    5.788169518 XXX  51     hoy     H   0.200
H2      23.088003410    5.263117550    5.812019721 XXX  51     hoy     H   0.200
H3      24.630051387    7.864687203    3.560120597 XXX  51     hoy     H   0.200
H4      22.077749027    3.416100977    3.558185592 XXX  51     hoy     H   0.200
AL1      1.988763862   16.252062403    4.690607112 XXX  52     ay1     Al  1.449
AL2     -0.619403213   11.769151055    4.690607112 XXX  52     ay1     Al  1.449
SI1      1.170862608    8.864198685    2.009278193 XXX  52     sy2     Si  1.100
SI2      3.779029660   13.347110354    2.009278193 XXX  52     sy2     Si  1.100
SI3      1.134373360   14.882170283    2.003672495 XXX  52     sy1     Si  1.100
SI4      3.686206155   10.399258338    2.003672495 XXX  52     sy1     Si  1.100
O1       1.363870673    8.788857440    3.628441825 XXX  52     oy8     O  -0.758
O2       3.972038083   13.271769129    3.628441825 XXX  52     oy8     O  -0.758
O3       0.980866485   15.010296904    3.625684753 XXX  52     oy7     O  -0.758
O4       3.532699399   10.527384960    3.625684753 XXX  52     oy7     O  -0.758
O5       3.580605798   16.041759573    3.696446434 XXX  52     oy9     O  -0.683
O6       0.972438507   11.558847510    3.696446434 XXX  52     oy9     O  -0.683
O7       4.905874066   14.326474749    1.391626730 XXX  52     oy3     O  -0.550
O8       2.297706895    9.843562566    1.391626730 XXX  52     oy3     O  -0.550
O9       1.433175378   16.347280108    1.396222010 XXX  52     oy1     O  -0.550
O10      3.985008054   11.864368521    1.396222010 XXX  52     oy1     O  -0.550
O11      2.301796966   13.842002474    1.634239092 XXX  52     oy2     O  -0.550
O12      4.853629403    9.359090828    1.634239092 XXX  52     oy2     O  -0.550
H1      -0.059322185    9.659292125    5.788169518 XXX  52     hoy     H   0.200
H2       2.504338079   14.228940569    5.812019721 XXX  52     hoy     H   0.200
H3       4.046386056   16.830510222    3.560120597 XXX  52     hoy     H   0.200
H4       1.494083696   12.381923996    3.558185592 XXX  52     hoy     H   0.200
AL1      7.148763862   16.252062403    4.690607112 XXX  53     ay1     Al  1.449
AL2      4.540596787   11.769151055    4.690607112 XXX  53     ay1     Al  1.449
SI1      6.330862608    8.864198685    2.009278193 XXX  53     sy2     Si  1.100
SI2      8.939029660   13.347110354    2.009278193 XXX  53     sy2     Si  1.100
SI3      6.294373360   14.882170283    2.003672495 XXX  53     sy1     Si  1.100
SI4      8.846206155   10.399258338    2.003672495 XXX  53     sy1     Si  1.100
O1       6.523870673    8.788857440    3.628441825 XXX  53     oy8     O  -0.758
O2       9.132038083   13.271769129    3.628441825 XXX  53     oy8     O  -0.758
O3       6.140866485   15.010296904    3.625684753 XXX  53     oy7     O  -0.758
O4       8.692699399   10.527384960    3.625684753 XXX  53     oy7     O  -0.758
O5       8.740605798   16.041759573    3.696446434 XXX  53     oy9     O  -0.683
O6       6.132438507   11.558847510    3.696446434 XXX  53     oy9     O  -0.683
O7      10.065874066   14.326474749    1.391626730 XXX  53     oy3     O  -0.550
O8       7.457706895    9.843562566    1.391626730 XXX  53     oy3     O  -0.550
O9       6.593175378   16.347280108    1.396222010 XXX  53     oy1     O  -0.550
O10      9.145008054   11.864368521    1.396222010 XXX  53     oy1     O  -0.550
O11      7.461796966   13.842002474    1.634239092 XXX  53     oy2     O  -0.550
O12     10.013629403    9.359090828    1.634239092 XXX  53     oy2     O  -0.550
H1       5.100677815    9.659292125    5.788169518 XXX  53     hoy     H   0.200
H2       7.664338079   14.228940569    5.812019721 XXX  53     hoy     H   0.200
H3       9.206386056   16.830510222    3.560120597 XXX  53     hoy     H   0.200
H4       6.654083696   12.381923996    3.558185592 XXX  53     hoy     H   0.200
AL1     12.308763862   16.252062403    4.690607112 XXX  54     ay1     Al  1.449
AL2      9.700596787   11.769151055    4.690607112 XXX  54     ay1     Al  1.449
SI1     11.490862608    8.864198685    2.009278193 XXX  54     sy2     Si  1.100
SI2     14.099029660   13.347110354    2.009278193 XXX  54     sy2     Si  1.100
SI3     11.454373360   14.882170283    2.003672495 XXX  54     sy1     Si  1.100
SI4     14.006206155   10.399258338    2.003672495 XXX  54     sy1     Si  1.100
O1      11.683870673    8.788857440    3.628441825 XXX  54     oy8     O  -0.758
O2      14.292038083   13.271769129    3.628441825 XXX  54     oy8     O  -0.758
O3      11.300866485   15.010296904    3.625684753 XXX  54     oy7     O  -0.758
O4      13.852699399   10.527384960    3.625684753 XXX  54     oy7     O  -0.758
O5      13.900605798   16.041759573    3.696446434 XXX  54     oy9     O  -0.683
O6      11.292438507   11.558847510    3.696446434 XXX  54     oy9     O  -0.683
O7      15.225874066   14.326474749    1.391626730 XXX  54     oy3     O  -0.550
O8      12.617706895    9.843562566    1.391626730 XXX  54     oy3     O  -0.550
O9      11.753175378   16.347280108    1.396222010 XXX  54     oy1     O  -0.550
O10     14.305008054   11.864368521    1.396222010 XXX  54     oy1     O  -0.550
O11     12.621796966   13.842002474    1.634239092 XXX  54     oy2     O  -0.550
O12     15.173629403    9.359090828    1.634239092 XXX  54     oy2     O  -0.550
H1      10.260677815    9.659292125    5.788169518 XXX  54     hoy     H   0.200
H2      12.824338079   14.228940569    5.812019721 XXX  54     hoy     H   0.200
H3      14.366386056   16.830510222    3.560120597 XXX  54     hoy     H   0.200
H4      11.814083696   12.381923996    3.558185592 XXX  54     hoy     H   0.200
AL1     17.468763862   16.252062403    4.690607112 XXX  55     ay1     Al  1.449
AL2     14.860596787   11.769151055    4.690607112 XXX  55     ay1     Al  1.449
SI1     16.650862608    8.864198685    2.009278193 XXX  55     sy2     Si  1.100
SI2     19.259029660   13.347110354    2.009278193 XXX  55     sy2     Si  1.100
SI3     16.614373360   14.882170283    2.003672495 XXX  55     sy1     Si  1.100
SI4     19.166206155   10.399258338    2.003672495 XXX  55     sy1     Si  1.100
O1      16.843870673    8.788857440    3.628441825 XXX  55     oy8     O  -0.758
O2      19.452038083   13.271769129    3.628441825 XXX  55     oy8     O  -0.758
O3      16.460866485   15.010296904    3.625684753 XXX  55     oy7     O  -0.758
O4      19.012699399   10.527384960    3.625684753 XXX  55     oy7     O  -0.758
O5      19.060605798   16.041759573    3.696446434 XXX  55     oy9     O  -0.683
O6      16.452438507   11.558847510    3.696446434 XXX  55     oy9     O  -0.683
O7      20.385874066   14.326474749    1.391626730 XXX  55     oy3     O  -0.550
O8      17.777706895    9.843562566    1.391626730 XXX  55     oy3     O  -0.550
O9      16.913175378   16.347280108    1.396222010 XXX  55     oy1     O  -0.550
O10     19.465008054   11.864368521    1.396222010 XXX  55     oy1     O  -0.550
O11     17.781796966   13.842002474    1.634239092 XXX  55     oy2     O  -0.550
O12     20.333629403    9.359090828    1.634239092 XXX  55     oy2     O  -0.550
H1      15.420677815    9.659292125    5.788169518 XXX  55     hoy     H   0.200
H2      17.984338079   14.228940569    5.812019721 XXX  55     hoy     H   0.200
H3      19.526386056   16.830510222    3.560120597 XXX  55     hoy     H   0.200
H4      16.974083696   12.381923996    3.558185592 XXX  55     hoy     H   0.200
AL1     22.628763862   16.252062403    4.690607112 XXX  56     ay1     Al  1.449
AL2     20.020596787   11.769151055    4.690607112 XXX  56     ay1     Al  1.449
SI1     21.810862608    8.864198685    2.009278193 XXX  56     sy2     Si  1.100
SI2     24.419029660   13.347110354    2.009278193 XXX  56     sy2     Si  1.100
SI3     21.774373360   14.882170283    2.003672495 XXX  56     sy1     Si  1.100
SI4     24.326206155   10.399258338    2.003672495 XXX  56     sy1     Si  1.100
O1      22.003870673    8.788857440    3.628441825 XXX  56     oy8     O  -0.758
O2      24.612038083   13.271769129    3.628441825 XXX  56     oy8     O  -0.758
O3      21.620866485   15.010296904    3.625684753 XXX  56     oy7     O  -0.758
O4      24.172699399   10.527384960    3.625684753 XXX  56     oy7     O  -0.758
O5      24.220605798   16.041759573    3.696446434 XXX  56     oy9     O  -0.683
O6      21.612438507   11.558847510    3.696446434 XXX  56     oy9     O  -0.683
O7      25.545874066   14.326474749    1.391626730 XXX  56     oy3     O  -0.550
O8      22.937706895    9.843562566    1.391626730 XXX  56     oy3     O  -0.550
O9      22.073175378   16.347280108    1.396222010 XXX  56     oy1     O  -0.550
O10     24.625008054   11.864368521    1.396222010 XXX  56     oy1     O  -0.550
O11     22.941796966   13.842002474    1.634239092 XXX  56     oy2     O  -0.550
O12     25.493629403    9.359090828    1.634239092 XXX  56     oy2     O  -0.550
H1      20.580677815    9.659292125    5.788169518 XXX  56     hoy     H   0.200
H2      23.144338079   14.228940569    5.812019721 XXX  56     hoy     H   0.200
H3      24.686386056   16.830510222    3.560120597 XXX  56     hoy     H   0.200
H4      22.134083696   12.381923996    3.558185592 XXX  56     hoy     H   0.200
AL1      2.045098530   25.217885422    4.690607112 XXX  57     ay1     Al  1.449
AL2     -0.563068545   20.734974074    4.690607112 XXX  57     ay1     Al  1.449
SI1      1.227197276   17.830021704    2.009278193 XXX  57     sy2     Si  1.100
SI2      3.835364328   22.312933373    2.009278193 XXX  57     sy2     Si  1.100
SI3      1.190708028   23.847993302    2.003672495 XXX  57     sy1     Si  1.100
SI4      3.742540823   19.365081357    2.003672495 XXX  57     sy1     Si  1.100
O1       1.420205341   17.754680459    3.628441825 XXX  57     oy8     O  -0.758
O2       4.028372751   22.237592148    3.628441825 XXX  57     oy8     O  -0.758
O3       1.037201153   23.976119923    3.625684753 XXX  57     oy7     O  -0.758
O4       3.589034067   19.493207979    3.625684753 XXX  57     oy7     O  -0.758
O5       3.636940466   25.007582592    3.696446434 XXX  57     oy9     O  -0.683
O6       1.028773175   20.524670529    3.696446434 XXX  57     oy9     O  -0.683
O7       4.962208734   23.292297768    1.391626730 XXX  57     oy3     O  -0.550
O8       2.354041563   18.809385585    1.391626730 XXX  57     oy3     O  -0.550
O9       1.489510046   25.313103127    1.396222010 XXX  57     oy1     O  -0.550
O10      4.041342722   20.830191540    1.396222010 XXX  57     oy1     O  -0.550
O11      2.358131634   22.807825493    1.634239092 XXX  57     oy2     O  -0.550
O12      4.909964071   18.324913847    1.634239092 XXX  57     oy2     O  -0.550
H1      -0.002987517   18.625115144    5.788169518 XXX  57     hoy     H   0.200
H2       2.560672747   23.194763588    5.812019721 XXX  57     hoy     H   0.200
H3       4.102720724   25.796333241    3.560120597 XXX  57     hoy     H   0.200
H4       1.550418364   21.347747015    3.558185592 XXX  57     hoy     H   0.200
AL1      7.205098530   25.217885422    4.690607112 XXX  58     ay1     Al  1.449
AL2      4.596931455   20.734974074    4.690607112 XXX  58     ay1     Al  1.449
SI1      6.387197276   17.830021704    2.009278193 XXX  58     sy2     Si  1.100
SI2      8.995364328   22.312933373    2.009278193 XXX  58     sy2     Si  1.100
SI3      6.350708028   23.847993302    2.003672495 XXX  58     sy1     Si  1.100
SI4      8.902540823   19.365081357    2.003672495 XXX  58     sy1     Si  1.100
O1       6.580205341   17.754680459    3.628441825 XXX  58     oy8     O  -0.758
O2       9.188372751   22.237592148    3.628441825 XXX  58     oy8     O  -0.758
O3       6.197201153   23.976119923    3.625684753 XXX  58     oy7     O  -0.758
O4       8.749034067   19.493207979    3.625684753 XXX  58     oy7     O  -0.758
O5       8.796940466   25.007582592    3.696446434 XXX  58     oy9     O  -0.683
O6       6.188773175   20.524670529    3.696446434 XXX  58     oy9     O  -0.683
O7      10.122208734   23.292297768    1.391626730 XXX  58     oy3     O  -0.550
O8       7.514041563   18.809385585    1.391626730 XXX  58     oy3     O  -0.550
O9       6.649510046   25.313103127    1.396222010 XXX  58     oy1     O  -0.550
O10      9.201342722   20.830191540    1.396222010 XXX  58     oy1     O  -0.550
O11      7.518131634   22.807825493    1.634239092 XXX  58     oy2     O  -0.550
O12     10.069964071   18.324913847    1.634239092 XXX  58     oy2     O  -0.550
H1       5.157012483   18.625115144    5.788169518 XXX  58     hoy     H   0.200
H2       7.720672747   23.194763588    5.812019721 XXX  58     hoy     H   0.200
H3       9.262720724   25.796333241    3.560120597 XXX  58     hoy     H   0.200
H4       6.710418364   21.347747015    3.558185592 XXX  58     hoy     H   0.200
AL1     12.365098530   25.217885422    4.690607112 XXX  59     ay1     Al  1.449
AL2      9.756931455   20.734974074    4.690607112 XXX  59     ay1     Al  1.449
SI1     11.547197276   17.830021704    2.009278193 XXX  59     sy2     Si  1.100
SI2     14.155364328   22.312933373    2.009278193 XXX  59     sy2     Si  1.100
SI3     11.510708028   23.847993302    2.003672495 XXX  59     sy1     Si  1.100
SI4     14.062540823   19.365081357    2.003672495 XXX  59     sy1     Si  1.100
O1      11.740205341   17.754680459    3.628441825 XXX  59     oy8     O  -0.758
O2      14.348372751   22.237592148    3.628441825 XXX  59     oy8     O  -0.758
O3      11.357201153   23.976119923    3.625684753 XXX  59     oy7     O  -0.758
O4      13.909034067   19.493207979    3.625684753 XXX  59     oy7     O  -0.758
O5      13.956940466   25.007582592    3.696446434 XXX  59     oy9     O  -0.683
O6      11.348773175   20.524670529    3.696446434 XXX  59     oy9     O  -0.683
O7      15.282208734   23.292297768    1.391626730 XXX  59     oy3     O  -0.550
O8      12.674041563   18.809385585    1.391626730 XXX  59     oy3     O  -0.550
O9      11.809510046   25.313103127    1.396222010 XXX  59     oy1     O  -0.550
O10     14.361342722   20.830191540    1.396222010 XXX  59     oy1     O  -0.550
O11     12.678131634   22.807825493    1.634239092 XXX  59     oy2     O  -0.550
O12     15.229964071   18.324913847    1.634239092 XXX  59     oy2     O  -0.550
H1      10.317012483   18.625115144    5.788169518 XXX  59     hoy     H   0.200
H2      12.880672747   23.194763588    5.812019721 XXX  59     hoy     H   0.200
H3      14.422720724   25.796333241    3.560120597 XXX  59     hoy     H   0.200
H4      11.870418364   21.347747015    3.558185592 XXX  59     hoy     H   0.200
AL1     17.525098530   25.217885422    4.690607112 XXX  60     ay1     Al  1.449
AL2     14.916931455   20.734974074    4.690607112 XXX  60     ay1     Al  1.449
SI1     16.707197276   17.830021704    2.009278193 XXX  60     sy2     Si  1.100
SI2     19.315364328   22.312933373    2.009278193 XXX  60     sy2     Si  1.100
SI3     16.670708028   23.847993302    2.003672495 XXX  60     sy1     Si  1.100
SI4     19.222540823   19.365081357    2.003672495 XXX  60     sy1     Si  1.100
O1      16.900205341   17.754680459    3.628441825 XXX  60     oy8     O  -0.758
O2      19.508372751   22.237592148    3.628441825 XXX  60     oy8     O  -0.758
O3      16.517201153   23.976119923    3.625684753 XXX  60     oy7     O  -0.758
O4      19.069034067   19.493207979    3.625684753 XXX  60     oy7     O  -0.758
O5      19.116940466   25.007582592    3.696446434 XXX  60     oy9     O  -0.683
O6      16.508773175   20.524670529    3.696446434 XXX  60     oy9     O  -0.683
O7      20.442208734   23.292297768    1.391626730 XXX  60     oy3     O  -0.550
O8      17.834041563   18.809385585    1.391626730 XXX  60     oy3     O  -0.550
O9      16.969510046   25.313103127    1.396222010 XXX  60     oy1     O  -0.550
O10     19.521342722   20.830191540    1.396222010 XXX  60     oy1     O  -0.550
O11     17.838131634   22.807825493    1.634239092 XXX  60     oy2     O  -0.550
O12     20.389964071   18.324913847    1.634239092 XXX  60     oy2     O  -0.550
H1      15.477012483   18.625115144    5.788169518 XXX  60     hoy     H   0.200
H2      18.040672747   23.194763588    5.812019721 XXX  60     hoy     H   0.200
H3      19.582720724   25.796333241    3.560120597 XXX  60     hoy     H   0.200
H4      17.030418364   21.347747015    3.558185592 XXX  60     hoy     H   0.200
AL1     22.685098530   25.217885422    4.690607112 XXX  61     ay1     Al  1.449
AL2     20.076931455   20.734974074    4.690607112 XXX  61     ay1     Al  1.449
SI1     21.867197276   17.830021704    2.009278193 XXX  61     sy2     Si  1.100
SI2     24.475364328   22.312933373    2.009278193 XXX  61     sy2     Si  1.100
SI3     21.830708028   23.847993302    2.003672495 XXX  61     sy1     Si  1.100
SI4     24.382540823   19.365081357    2.003672495 XXX  61     sy1     Si  1.100
O1      22.060205341   17.754680459    3.628441825 XXX  61     oy8     O  -0.758
O2      24.668372751   22.237592148    3.628441825 XXX  61     oy8     O  -0.758
O3      21.677201153   23.976119923    3.625684753 XXX  61     oy7     O  -0.758
O4      24.229034067   19.493207979    3.625684753 XXX  61     oy7     O  -0.758
O5      24.276940466   25.007582592    3.696446434 XXX  61     oy9     O  -0.683
O6      21.668773175   20.524670529    3.696446434 XXX  61     oy9     O  -0.683
O7      25.602208734   23.292297768    1.391626730 XXX  61     oy3     O  -0.550
O8      22.994041563   18.809385585    1.391626730 XXX  61     oy3     O  -0.550
O9      22.129510046   25.313103127    1.396222010 XXX  61     oy1     O  -0.550
O10     24.681342722   20.830191540    1.396222010 XXX  61     oy1     O  -0.550
O11     22.998131634   22.807825493    1.634239092 XXX  61     oy2     O  -0.550
O12     25.549964071   18.324913847    1.634239092 XXX  61     oy2     O  -0.550
H1      20.637012483   18.625115144    5.788169518 XXX  61     hoy     H   0.200
H2      23.200672747   23.194763588    5.812019721 XXX  61     hoy     H   0.200
H3      24.742720724   25.796333241    3.560120597 XXX  61     hoy     H   0.200
H4      22.190418364   21.347747015    3.558185592 XXX  61     hoy     H   0.200
AL1      0.235490319    7.104411123   13.880479034 XXX  62     ay1     Al  1.449
AL2     -2.372676756    2.621499775   13.880479034 XXX  62     ay1     Al  1.449
SI1     -0.582410935   -0.283452595   11.199150115 XXX  62     sy2     Si  1.100
SI2      2.025756117    4.199459074   11.199150115 XXX  62     sy2     Si  1.100
SI3     -0.618900183    5.734519003   11.193544417 XXX  62     sy1     Si  1.100
SI4      1.932932612    1.251607058   11.193544417 XXX  62     sy1     Si  1.100
O2       2.218764540    4.124117849   12.818313747 XXX  62     oy8     O  -0.758
O3      -0.772407058    5.862645624   12.815556675 XXX  62     oy7     O  -0.758
O4       1.779425856    1.379733680   12.815556675 XXX  62     oy7     O  -0.758
O5       1.827332255    6.894108293   12.886318356 XXX  62     oy9     O  -0.683
O6      -0.780835036    2.411196230   12.886318356 XXX  62     oy9     O  -0.683
O7       3.152600523    5.178823469   10.581498652 XXX  62     oy3     O  -0.550
O8       0.544433352    0.695911286   10.581498652 XXX  62     oy3     O  -0.550
O9      -0.320098165    7.199628828   10.586093932 XXX  62     oy1     O  -0.550
O10      2.231734511    2.716717241   10.586093932 XXX  62     oy1     O  -0.550
O11      0.548523423    4.694351194   10.824111014 XXX  62     oy2     O  -0.550
O12      3.100355860    0.211439548   10.824111014 XXX  62     oy2     O  -0.550
H1      -1.812595728    0.511640845   14.978041440 XXX  62     hoy     H   0.200
H2       0.751064536    5.081289289   15.001891643 XXX  62     hoy     H   0.200
H3       2.293112513    7.682858942   12.749992519 XXX  62     hoy     H   0.200
H4      -0.259189847    3.234272716   12.748057514 XXX  62     hoy     H   0.200
AL1      5.395490319    7.104411123   13.880479034 XXX  63     ay1     Al  1.449
AL2      2.787323244    2.621499775   13.880479034 XXX  63     ay1     Al  1.449
SI1      4.577589065   -0.283452595   11.199150115 XXX  63     sy2     Si  1.100
SI2      7.185756117    4.199459074   11.199150115 XXX  63     sy2     Si  1.100
SI3      4.541099817    5.734519003   11.193544417 XXX  63     sy1     Si  1.100
SI4      7.092932612    1.251607058   11.193544417 XXX  63     sy1     Si  1.100
O2       7.378764540    4.124117849   12.818313747 XXX  63     oy8     O  -0.758
O3       4.387592942    5.862645624   12.815556675 XXX  63     oy7     O  -0.758
O4       6.939425856    1.379733680   12.815556675 XXX  63     oy7     O  -0.758
O5       6.987332255    6.894108293   12.886318356 XXX  63     oy9     O  -0.683
O6       4.379164964    2.411196230   12.886318356 XXX  63     oy9     O  -0.683
O7       8.312600523    5.178823469   10.581498652 XXX  63     oy3     O  -0.550
O8       5.704433352    0.695911286   10.581498652 XXX  63     oy3     O  -0.550
O9       4.839901835    7.199628828   10.586093932 XXX  63     oy1     O  -0.550
O10      7.391734511    2.716717241   10.586093932 XXX  63     oy1     O  -0.550
O11      5.708523423    4.694351194   10.824111014 XXX  63     oy2     O  -0.550
O12      8.260355860    0.211439548   10.824111014 XXX  63     oy2     O  -0.550
H1       3.347404272    0.511640845   14.978041440 XXX  63     hoy     H   0.200
H2       5.911064536    5.081289289   15.001891643 XXX  63     hoy     H   0.200
H3       7.453112513    7.682858942   12.749992519 XXX  63     hoy     H   0.200
H4       4.900810153    3.234272716   12.748057514 XXX  63     hoy     H   0.200
AL1     10.555490319    7.104411123   13.880479034 XXX  64     ay1     Al  1.449
AL2      7.947323244    2.621499775   13.880479034 XXX  64     ay1     Al  1.449
SI1      9.737589065   -0.283452595   11.199150115 XXX  64     sy2     Si  1.100
SI2     12.345756117    4.199459074   11.199150115 XXX  64     sy2     Si  1.100
SI3      9.701099817    5.734519003   11.193544417 XXX  64     sy1     Si  1.100
SI4     12.252932612    1.251607058   11.193544417 XXX  64     sy1     Si  1.100
O2      12.538764540    4.124117849   12.818313747 XXX  64     oy8     O  -0.758
O3       9.547592942    5.862645624   12.815556675 XXX  64     oy7     O  -0.758
O4      12.099425856    1.379733680   12.815556675 XXX  64     oy7     O  -0.758
O5      12.147332255    6.894108293   12.886318356 XXX  64     oy9     O  -0.683
O6       9.539164964    2.411196230   12.886318356 XXX  64     oy9     O  -0.683
O7      13.472600523    5.178823469   10.581498652 XXX  64     oy3     O  -0.550
O8      10.864433352    0.695911286   10.581498652 XXX  64     oy3     O  -0.550
O9       9.999901835    7.199628828   10.586093932 XXX  64     oy1     O  -0.550
O10     12.551734511    2.716717241   10.586093932 XXX  64     oy1     O  -0.550
O11     10.868523423    4.694351194   10.824111014 XXX  64     oy2     O  -0.550
O12     13.420355860    0.211439548   10.824111014 XXX  64     oy2     O  -0.550
H1       8.507404272    0.511640845   14.978041440 XXX  64     hoy     H   0.200
H2      11.071064536    5.081289289   15.001891643 XXX  64     hoy     H   0.200
H3      12.613112513    7.682858942   12.749992519 XXX  64     hoy     H   0.200
H4      10.060810153    3.234272716   12.748057514 XXX  64     hoy     H   0.200
AL1     15.715490319    7.104411123   13.880479034 XXX  65     ay1     Al  1.449
AL2     13.107323244    2.621499775   13.880479034 XXX  65     ay1     Al  1.449
SI1     14.897589065   -0.283452595   11.199150115 XXX  65     sy2     Si  1.100
SI2     17.505756117    4.199459074   11.199150115 XXX  65     sy2     Si  1.100
SI3     14.861099817    5.734519003   11.193544417 XXX  65     sy1     Si  1.100
SI4     17.412932612    1.251607058   11.193544417 XXX  65     sy1     Si  1.100
O2      17.698764540    4.124117849   12.818313747 XXX  65     oy8     O  -0.758
O3      14.707592942    5.862645624   12.815556675 XXX  65     oy7     O  -0.758
O4      17.259425856    1.379733680   12.815556675 XXX  65     oy7     O  -0.758
O5      17.307332255    6.894108293   12.886318356 XXX  65     oy9     O  -0.683
O6      14.699164964    2.411196230   12.886318356 XXX  65     oy9     O  -0.683
O7      18.632600523    5.178823469   10.581498652 XXX  65     oy3     O  -0.550
O8      16.024433352    0.695911286   10.581498652 XXX  65     oy3     O  -0.550
O9      15.159901835    7.199628828   10.586093932 XXX  65     oy1     O  -0.550
O10     17.711734511    2.716717241   10.586093932 XXX  65     oy1     O  -0.550
O11     16.028523423    4.694351194   10.824111014 XXX  65     oy2     O  -0.550
O12     18.580355860    0.211439548   10.824111014 XXX  65     oy2     O  -0.550
H1      13.667404272    0.511640845   14.978041440 XXX  65     hoy     H   0.200
H2      16.231064536    5.081289289   15.001891643 XXX  65     hoy     H   0.200
H3      17.773112513    7.682858942   12.749992519 XXX  65     hoy     H   0.200
H4      15.220810153    3.234272716   12.748057514 XXX  65     hoy     H   0.200
AL1     20.875490319    7.104411123   13.880479034 XXX  66     ay1     Al  1.449
AL2     18.267323244    2.621499775   13.880479034 XXX  66     ay1     Al  1.449
SI1     20.057589065   -0.283452595   11.199150115 XXX  66     sy2     Si  1.100
SI2     22.665756117    4.199459074   11.199150115 XXX  66     sy2     Si  1.100
SI3     20.021099817    5.734519003   11.193544417 XXX  66     sy1     Si  1.100
SI4     22.572932612    1.251607058   11.193544417 XXX  66     sy1     Si  1.100
O2      22.858764540    4.124117849   12.818313747 XXX  66     oy8     O  -0.758
O3      19.867592942    5.862645624   12.815556675 XXX  66     oy7     O  -0.758
O4      22.419425856    1.379733680   12.815556675 XXX  66     oy7     O  -0.758
O5      22.467332255    6.894108293   12.886318356 XXX  66     oy9     O  -0.683
O6      19.859164964    2.411196230   12.886318356 XXX  66     oy9     O  -0.683
O7      23.792600523    5.178823469   10.581498652 XXX  66     oy3     O  -0.550
O8      21.184433352    0.695911286   10.581498652 XXX  66     oy3     O  -0.550
O9      20.319901835    7.199628828   10.586093932 XXX  66     oy1     O  -0.550
O10     22.871734511    2.716717241   10.586093932 XXX  66     oy1     O  -0.550
O11     21.188523423    4.694351194   10.824111014 XXX  66     oy2     O  -0.550
O12     23.740355860    0.211439548   10.824111014 XXX  66     oy2     O  -0.550
H1      18.827404272    0.511640845   14.978041440 XXX  66     hoy     H   0.200
H2      21.391064536    5.081289289   15.001891643 XXX  66     hoy     H   0.200
H3      22.933112513    7.682858942   12.749992519 XXX  66     hoy     H   0.200
H4      20.380810153    3.234272716   12.748057514 XXX  66     hoy     H   0.200
AL1      0.291824987   16.070234141   13.880479034 XXX  67     ay1     Al  1.449
AL2     -2.316342088   11.587322793   13.880479034 XXX  67     ay1     Al  1.449
SI1     -0.526076267    8.682370423   11.199150115 XXX  67     sy2     Si  1.100
SI2      2.082090785   13.165282092   11.199150115 XXX  67     sy2     Si  1.100
SI3     -0.562565515   14.700342021   11.193544417 XXX  67     sy1     Si  1.100
SI4      1.989267280   10.217430076   11.193544417 XXX  67     sy1     Si  1.100
O1      -0.333068202    8.607029178   12.818313747 XXX  67     oy8     O  -0.758
O2       2.275099208   13.089940867   12.818313747 XXX  67     oy8     O  -0.758
O3      -0.716072390   14.828468642   12.815556675 XXX  67     oy7     O  -0.758
O4       1.835760524   10.345556698   12.815556675 XXX  67     oy7     O  -0.758
O5       1.883666923   15.859931311   12.886318356 XXX  67     oy9     O  -0.683
O6      -0.724500368   11.377019248   12.886318356 XXX  67     oy9     O  -0.683
O7       3.208935191   14.144646487   10.581498652 XXX  67     oy3     O  -0.550
O8       0.600768020    9.661734304   10.581498652 XXX  67     oy3     O  -0.550
O9      -0.263763497   16.165451846   10.586093932 XXX  67     oy1     O  -0.550
O10      2.288069179   11.682540259   10.586093932 XXX  67     oy1     O  -0.550
O11      0.604858091   13.660174212   10.824111014 XXX  67     oy2     O  -0.550
O12      3.156690528    9.177262566   10.824111014 XXX  67     oy2     O  -0.550
H1      -1.756261060    9.477463863   14.978041440 XXX  67     hoy     H   0.200
H2       0.807399204   14.047112307   15.001891643 XXX  67     hoy     H   0.200
H3       2.349447181   16.648681960   12.749992519 XXX  67     hoy     H   0.200
H4      -0.202855179   12.200095734   12.748057514 XXX  67     hoy     H   0.200
AL1      5.451824987   16.070234141   13.880479034 XXX  68     ay1     Al  1.449
AL2      2.843657912   11.587322793   13.880479034 XXX  68     ay1     Al  1.449
SI1      4.633923733    8.682370423   11.199150115 XXX  68     sy2     Si  1.100
SI2      7.242090785   13.165282092   11.199150115 XXX  68     sy2     Si  1.100
SI3      4.597434485   14.700342021   11.193544417 XXX  68     sy1     Si  1.100
SI4      7.149267280   10.217430076   11.193544417 XXX  68     sy1     Si  1.100
O1       4.826931798    8.607029178   12.818313747 XXX  68     oy8     O  -0.758
O2       7.435099208   13.089940867   12.818313747 XXX  68     oy8     O  -0.758
O3       4.443927610   14.828468642   12.815556675 XXX  68     oy7     O  -0.758
O4       6.995760524   10.345556698   12.815556675 XXX  68     oy7     O  -0.758
O5       7.043666923   15.859931311   12.886318356 XXX  68     oy9     O  -0.683
O6       4.435499632   11.377019248   12.886318356 XXX  68     oy9     O  -0.683
O7       8.368935191   14.144646487   10.581498652 XXX  68     oy3     O  -0.550
O8       5.760768020    9.661734304   10.581498652 XXX  68     oy3     O  -0.550
O9       4.896236503   16.165451846   10.586093932 XXX  68     oy1     O  -0.550
O10      7.448069179   11.682540259   10.586093932 XXX  68     oy1     O  -0.550
O11      5.764858091   13.660174212   10.824111014 XXX  68     oy2     O  -0.550
O12      8.316690528    9.177262566   10.824111014 XXX  68     oy2     O  -0.550
H1       3.403738940    9.477463863   14.978041440 XXX  68     hoy     H   0.200
H2       5.967399204   14.047112307   15.001891643 XXX  68     hoy     H   0.200
H3       7.509447181   16.648681960   12.749992519 XXX  68     hoy     H   0.200
H4       4.957144821   12.200095734   12.748057514 XXX  68     hoy     H   0.200
AL1     10.611824987   16.070234141   13.880479034 XXX  69     ay1     Al  1.449
AL2      8.003657912   11.587322793   13.880479034 XXX  69     ay1     Al  1.449
SI1      9.793923733    8.682370423   11.199150115 XXX  69     sy2     Si  1.100
SI2     12.402090785   13.165282092   11.199150115 XXX  69     sy2     Si  1.100
SI3      9.757434485   14.700342021   11.193544417 XXX  69     sy1     Si  1.100
SI4     12.309267280   10.217430076   11.193544417 XXX  69     sy1     Si  1.100
O1       9.986931798    8.607029178   12.818313747 XXX  69     oy8     O  -0.758
O2      12.595099208   13.089940867   12.818313747 XXX  69     oy8     O  -0.758
O3       9.603927610   14.828468642   12.815556675 XXX  69     oy7     O  -0.758
O4      12.155760524   10.345556698   12.815556675 XXX  69     oy7     O  -0.758
O5      12.203666923   15.859931311   12.886318356 XXX  69     oy9     O  -0.683
O6       9.595499632   11.377019248   12.886318356 XXX  69     oy9     O  -0.683
O7      13.528935191   14.144646487   10.581498652 XXX  69     oy3     O  -0.550
O8      10.920768020    9.661734304   10.581498652 XXX  69     oy3     O  -0.550
O9      10.056236503   16.165451846   10.586093932 XXX  69     oy1     O  -0.550
O10     12.608069179   11.682540259   10.586093932 XXX  69     oy1     O  -0.550
O11     10.924858091   13.660174212   10.824111014 XXX  69     oy2     O  -0.550
O12     13.476690528    9.177262566   10.824111014 XXX  69     oy2     O  -0.550
H1       8.563738940    9.477463863   14.978041440 XXX  69     hoy     H   0.200
H2      11.127399204   14.047112307   15.001891643 XXX  69     hoy     H   0.200
H3      12.669447181   16.648681960   12.749992519 XXX  69     hoy     H   0.200
H4      10.117144821   12.200095734   12.748057514 XXX  69     hoy     H   0.200
AL1     15.771824987   16.070234141   13.880479034 XXX  70     ay1     Al  1.449
AL2     13.163657912   11.587322793   13.880479034 XXX  70     ay1     Al  1.449
SI1     14.953923733    8.682370423   11.199150115 XXX  70     sy2     Si  1.100
SI2     17.562090785   13.165282092   11.199150115 XXX  70     sy2     Si  1.100
SI3     14.917434485   14.700342021   11.193544417 XXX  70     sy1     Si  1.100
SI4     17.469267280   10.217430076   11.193544417 XXX  70     sy1     Si  1.100
O1      15.146931798    8.607029178   12.818313747 XXX  70     oy8     O  -0.758
O2      17.755099208   13.089940867   12.818313747 XXX  70     oy8     O  -0.758
O3      14.763927610   14.828468642   12.815556675 XXX  70     oy7     O  -0.758
O4      17.315760524   10.345556698   12.815556675 XXX  70     oy7     O  -0.758
O5      17.363666923   15.859931311   12.886318356 XXX  70     oy9     O  -0.683
O6      14.755499632   11.377019248   12.886318356 XXX  70     oy9     O  -0.683
O7      18.688935191   14.144646487   10.581498652 XXX  70     oy3     O  -0.550
O8      16.080768020    9.661734304   10.581498652 XXX  70     oy3     O  -0.550
O9      15.216236503   16.165451846   10.586093932 XXX  70     oy1     O  -0.550
O10     17.768069179   11.682540259   10.586093932 XXX  70     oy1     O  -0.550
O11     16.084858091   13.660174212   10.824111014 XXX  70     oy2     O  -0.550
O12     18.636690528    9.177262566   10.824111014 XXX  70     oy2     O  -0.550
H1      13.723738940    9.477463863   14.978041440 XXX  70     hoy     H   0.200
H2      16.287399204   14.047112307   15.001891643 XXX  70     hoy     H   0.200
H3      17.829447181   16.648681960   12.749992519 XXX  70     hoy     H   0.200
H4      15.277144821   12.200095734   12.748057514 XXX  70     hoy     H   0.200
AL1     20.931824987   16.070234141   13.880479034 XXX  71     ay1     Al  1.449
AL2     18.323657912   11.587322793   13.880479034 XXX  71     ay1     Al  1.449
SI1     20.113923733    8.682370423   11.199150115 XXX  71     sy2     Si  1.100
SI2     22.722090785   13.165282092   11.199150115 XXX  71     sy2     Si  1.100
SI3     20.077434485   14.700342021   11.193544417 XXX  71     sy1     Si  1.100
SI4     22.629267280   10.217430076   11.193544417 XXX  71     sy1     Si  1.100
O1      20.306931798    8.607029178   12.818313747 XXX  71     oy8     O  -0.758
O2      22.915099208   13.089940867   12.818313747 XXX  71     oy8     O  -0.758
O3      19.923927610   14.828468642   12.815556675 XXX  71     oy7     O  -0.758
O4      22.475760524   10.345556698   12.815556675 XXX  71     oy7     O  -0.758
O5      22.523666923   15.859931311   12.886318356 XXX  71     oy9     O  -0.683
O6      19.915499632   11.377019248   12.886318356 XXX  71     oy9     O  -0.683
O7      23.848935191   14.144646487   10.581498652 XXX  71     oy3     O  -0.550
O8      21.240768020    9.661734304   10.581498652 XXX  71     oy3     O  -0.550
O9      20.376236503   16.165451846   10.586093932 XXX  71     oy1     O  -0.550
O10     22.928069179   11.682540259   10.586093932 XXX  71     oy1     O  -0.550
O11     21.244858091   13.660174212   10.824111014 XXX  71     oy2     O  -0.550
O12     23.796690528    9.177262566   10.824111014 XXX  71     oy2     O  -0.550
H1      18.883738940    9.477463863   14.978041440 XXX  71     hoy     H   0.200
H2      21.447399204   14.047112307   15.001891643 XXX  71     hoy     H   0.200
H3      22.989447181   16.648681960   12.749992519 XXX  71     hoy     H   0.200
H4      20.437144821   12.200095734   12.748057514 XXX  71     hoy     H   0.200
AL1      0.348159656   25.036057160   13.880479034 XXX  72     ay1     Al  1.449
AL2     -2.260007419   20.553145812   13.880479034 XXX  72     ay1     Al  1.449
SI1     -0.469741598   17.648193442   11.199150115 XXX  72     sy2     Si  1.100
SI2      2.138425454   22.131105111   11.199150115 XXX  72     sy2     Si  1.100
SI3     -0.506230846   23.666165040   11.193544417 XXX  72     sy1     Si  1.100
SI4      2.045601949   19.183253095   11.193544417 XXX  72     sy1     Si  1.100
O1      -0.276733533   17.572852197   12.818313747 XXX  72     oy8     O  -0.758
O2       2.331433877   22.055763886   12.818313747 XXX  72     oy8     O  -0.758
O3      -0.659737721   23.794291661   12.815556675 XXX  72     oy7     O  -0.758
O4       1.892095193   19.311379717   12.815556675 XXX  72     oy7     O  -0.758
O5       1.940001592   24.825754330   12.886318356 XXX  72     oy9     O  -0.683
O6      -0.668165699   20.342842267   12.886318356 XXX  72     oy9     O  -0.683
O7       3.265269860   23.110469506   10.581498652 XXX  72     oy3     O  -0.550
O8       0.657102689   18.627557323   10.581498652 XXX  72     oy3     O  -0.550
O9      -0.207428828   25.131274865   10.586093932 XXX  72     oy1     O  -0.550
O10      2.344403848   20.648363278   10.586093932 XXX  72     oy1     O  -0.550
O11      0.661192760   22.625997231   10.824111014 XXX  72     oy2     O  -0.550
O12      3.213025197   18.143085585   10.824111014 XXX  72     oy2     O  -0.550
H1      -1.699926391   18.443286882   14.978041440 XXX  72     hoy     H   0.200
H2       0.863733873   23.012935326   15.001891643 XXX  72     hoy     H   0.200
H3       2.405781850   25.614504979   12.749992519 XXX  72     hoy     H   0.200
H4      -0.146520510   21.165918753   12.748057514 XXX  72     hoy     H   0.200
AL1      5.508159656   25.036057160   13.880479034 XXX  73     ay1     Al  1.449
AL2      2.899992581   20.553145812   13.880479034 XXX  73     ay1     Al  1.449
SI1      4.690258402   17.648193442   11.199150115 XXX  73     sy2     Si  1.100
SI2      7.298425454   22.131105111   11.199150115 XXX  73     sy2     Si  1.100
SI3      4.653769154   23.666165040   11.193544417 XXX  73     sy1     Si  1.100
SI4      7.205601949   19.183253095   11.193544417 XXX  73     sy1     Si  1.100
O1       4.883266467   17.572852197   12.818313747 XXX  73     oy8     O  -0.758
O2       7.491433877   22.055763886   12.818313747 XXX  73     oy8     O  -0.758
O3       4.500262279   23.794291661   12.815556675 XXX  73     oy7     O  -0.758
O4       7.052095193   19.311379717   12.815556675 XXX  73     oy7     O  -0.758
O5       7.100001592   24.825754330   12.886318356 XXX  73     oy9     O  -0.683
O6       4.491834301   20.342842267   12.886318356 XXX  73     oy9     O  -0.683
O7       8.425269860   23.110469506   10.581498652 XXX  73     oy3     O  -0.550
O8       5.817102689   18.627557323   10.581498652 XXX  73     oy3     O  -0.550
O9       4.952571172   25.131274865   10.586093932 XXX  73     oy1     O  -0.550
O10      7.504403848   20.648363278   10.586093932 XXX  73     oy1     O  -0.550
O11      5.821192760   22.625997231   10.824111014 XXX  73     oy2     O  -0.550
O12      8.373025197   18.143085585   10.824111014 XXX  73     oy2     O  -0.550
H1       3.460073609   18.443286882   14.978041440 XXX  73     hoy     H   0.200
H2       6.023733873   23.012935326   15.001891643 XXX  73     hoy     H   0.200
H3       7.565781850   25.614504979   12.749992519 XXX  73     hoy     H   0.200
H4       5.013479490   21.165918753   12.748057514 XXX  73     hoy     H   0.200
AL1     10.668159656   25.036057160   13.880479034 XXX  74     ay1     Al  1.449
AL2      8.059992581   20.553145812   13.880479034 XXX  74     ay1     Al  1.449
SI1      9.850258402   17.648193442   11.199150115 XXX  74     sy2     Si  1.100
SI2     12.458425454   22.131105111   11.199150115 XXX  74     sy2     Si  1.100
SI3      9.813769154   23.666165040   11.193544417 XXX  74     sy1     Si  1.100
SI4     12.365601949   19.183253095   11.193544417 XXX  74     sy1     Si  1.100
O1      10.043266467   17.572852197   12.818313747 XXX  74     oy8     O  -0.758
O2      12.651433877   22.055763886   12.818313747 XXX  74     oy8     O  -0.758
O3       9.660262279   23.794291661   12.815556675 XXX  74     oy7     O  -0.758
O4      12.212095193   19.311379717   12.815556675 XXX  74     oy7     O  -0.758
O5      12.260001592   24.825754330   12.886318356 XXX  74     oy9     O  -0.683
O6       9.651834301   20.342842267   12.886318356 XXX  74     oy9     O  -0.683
O7      13.585269860   23.110469506   10.581498652 XXX  74     oy3     O  -0.550
O8      10.977102689   18.627557323   10.581498652 XXX  74     oy3     O  -0.550
O9      10.112571172   25.131274865   10.586093932 XXX  74     oy1     O  -0.550
O10     12.664403848   20.648363278   10.586093932 XXX  74     oy1     O  -0.550
O11     10.981192760   22.625997231   10.824111014 XXX  74     oy2     O  -0.550
O12     13.533025197   18.143085585   10.824111014 XXX  74     oy2     O  -0.550
H1       8.620073609   18.443286882   14.978041440 XXX  74     hoy     H   0.200
H2      11.183733873   23.012935326   15.001891643 XXX  74     hoy     H   0.200
H3      12.725781850   25.614504979   12.749992519 XXX  74     hoy     H   0.200
H4      10.173479490   21.165918753   12.748057514 XXX  74     hoy     H   0.200
AL1     15.828159656   25.036057160   13.880479034 XXX  75     ay1     Al  1.449
AL2     13.219992581   20.553145812   13.880479034 XXX  75     ay1     Al  1.449
SI1     15.010258402   17.648193442   11.199150115 XXX  75     sy2     Si  1.100
SI2     17.618425454   22.131105111   11.199150115 XXX  75     sy2     Si  1.100
SI3     14.973769154   23.666165040   11.193544417 XXX  75     sy1     Si  1.100
SI4     17.525601949   19.183253095   11.193544417 XXX  75     sy1     Si  1.100
O1      15.203266467   17.572852197   12.818313747 XXX  75     oy8     O  -0.758
O2      17.811433877   22.055763886   12.818313747 XXX  75     oy8     O  -0.758
O3      14.820262279   23.794291661   12.815556675 XXX  75     oy7     O  -0.758
O4      17.372095193   19.311379717   12.815556675 XXX  75     oy7     O  -0.758
O5      17.420001592   24.825754330   12.886318356 XXX  75     oy9     O  -0.683
O6      14.811834301   20.342842267   12.886318356 XXX  75     oy9     O  -0.683
O7      18.745269860   23.110469506   10.581498652 XXX  75     oy3     O  -0.550
O8      16.137102689   18.627557323   10.581498652 XXX  75     oy3     O  -0.550
O9      15.272571172   25.131274865   10.586093932 XXX  75     oy1     O  -0.550
O10     17.824403848   20.648363278   10.586093932 XXX  75     oy1     O  -0.550
O11     16.141192760   22.625997231   10.824111014 XXX  75     oy2     O  -0.550
O12     18.693025197   18.143085585   10.824111014 XXX  75     oy2     O  -0.550
H1      13.780073609   18.443286882   14.978041440 XXX  75     hoy     H   0.200
H2      16.343733873   23.012935326   15.001891643 XXX  75     hoy     H   0.200
H3      17.885781850   25.614504979   12.749992519 XXX  75     hoy     H   0.200
H4      15.333479490   21.165918753   12.748057514 XXX  75     hoy     H   0.200
AL1     20.988159656   25.036057160   13.880479034 XXX  76     ay1     Al  1.449
AL2     18.379992581   20.553145812   13.880479034 XXX  76     ay1     Al  1.449
SI1     20.170258402   17.648193442   11.199150115 XXX  76     sy2     Si  1.100
SI2     22.778425454   22.131105111   11.199150115 XXX  76     sy2     Si  1.100
SI3     20.133769154   23.666165040   11.193544417 XXX  76     sy1     Si  1.100
SI4     22.685601949   19.183253095   11.193544417 XXX  76     sy1     Si  1.100
O1      20.363266467   17.572852197   12.818313747 XXX  76     oy8     O  -0.758
O2      22.971433877   22.055763886   12.818313747 XXX  76     oy8     O  -0.758
O3      19.980262279   23.794291661   12.815556675 XXX  76     oy7     O  -0.758
O4      22.532095193   19.311379717   12.815556675 XXX  76     oy7     O  -0.758
O5      22.580001592   24.825754330   12.886318356 XXX  76     oy9     O  -0.683
O6      19.971834301   20.342842267   12.886318356 XXX  76     oy9     O  -0.683
O7      23.905269860   23.110469506   10.581498652 XXX  76     oy3     O  -0.550
O8      21.297102689   18.627557323   10.581498652 XXX  76     oy3     O  -0.550
O9      20.432571172   25.131274865   10.586093932 XXX  76     oy1     O  -0.550
O10     22.984403848   20.648363278   10.586093932 XXX  76     oy1     O  -0.550
O11     21.301192760   22.625997231   10.824111014 XXX  76     oy2     O  -0.550
O12     23.853025197   18.143085585   10.824111014 XXX  76     oy2     O  -0.550
H1      18.940073609   18.443286882   14.978041440 XXX  76     hoy     H   0.200
H2      21.503733873   23.012935326   15.001891643 XXX  76     hoy     H   0.200
H3      23.045781850   25.614504979   12.749992519 XXX  76     hoy     H   0.200
H4      20.493479490   21.165918753   12.748057514 XXX  76     hoy     H   0.200
O1       1.476540010   26.720503478    3.628441825 XXX  77     oy8     O  -0.758
O1       6.636540010   26.720503478    3.628441825 XXX  78     oy8     O  -0.758
O1      11.796540010   26.720503478    3.628441825 XXX  79     oy8     O  -0.758
O1      16.956540010   26.720503478    3.628441825 XXX  80     oy8     O  -0.758
O1      22.116540010   26.720503478    3.628441825 XXX  81     oy8     O  -0.758
O1      -0.220398864   26.538675216   12.818313747 XXX  82     oy8     O  -0.758
O1       4.939601136   26.538675216   12.818313747 XXX  83     oy8     O  -0.758
O1      10.099601136   26.538675216   12.818313747 XXX  84     oy8     O  -0.758
O1      15.259601136   26.538675216   12.818313747 XXX  85     oy8     O  -0.758
O1      20.419601136   26.538675216   12.818313747 XXX  86     oy8     O  -0.758
end
end
