!BIOSYM archive 3
PBC=ON
Materials Studio Generated CAR File
!DATE Mon Mar 23 21:27:41 2015
PBC   34.9787   32.6214  133.3161   90.0000   90.0000   90.0000 (P1)
O1       6.437057065    3.232929314    3.983444864 XXXX 1      oap1    O  -0.800
O2       7.530902299    8.140003928    5.191489974 XXXX 1      oap1    O  -0.800
O3       3.435511283    6.158609289    1.725521652 XXXX 1      oap1    O  -0.650
O4       6.678169457    5.529761155    8.768897625 XXXX 1      oap1    O  -0.800
O5       9.617054981    2.222168359   10.532464125 XXXX 1      oap1    O  -0.800
O6       5.164901969    5.117803471   10.587282797 XXXX 1      oap1    O  -0.800
O7       8.006795146    2.149533732   12.370404755 XXXX 1      oap1    O  -0.800
O8       5.137181953    2.489105648    5.868420201 XXXX 1      oap1    O  -0.800
O9       5.051345504    7.556732006    5.281186443 XXXX 1      oap1    O  -0.800
O10      2.207206099    6.312089981    3.818585108 XXXX 1      oap1    O  -0.625
Ca1      9.939352150    2.847242481    5.795216464 XXXX 1      ca+h    Ca  1.500
Ca2      3.840460131    5.467604687    5.587988847 XXXX 1      ca+h    Ca  1.500
Ca3      1.670954720    5.583125248    8.507850810 XXXX 1      ca+h    Ca  1.500
Ca4      7.658143695    2.895404928    8.439870144 XXXX 1      ca+h    Ca  1.500
P1       6.347420118    3.301362760    5.517565774 XXXX 1      pap     P   1.000
O11      6.127357225    4.758639157    5.942646367 XXXX 1      oap1    O  -0.800
O12      7.568965852    2.632927466    6.159597619 XXXX 1      oap1    O  -0.800
Ca5      7.776071307    6.211668233    6.553915010 XXXX 1      ca+h    Ca  1.500
P2       6.087932735    8.503128977    4.728783770 XXXX 1      pap     P   1.000
O13      6.212988328    8.643301698    3.175625344 XXXX 1      oap1    O  -0.800
O14      5.822756392    9.978348066    5.088339844 XXXX 1      oap1    O  -0.800
P3       2.706692044    5.330240607    2.736316724 XXXX 1      pap     P   1.000
O15      3.689514258    4.358702351    3.381282699 XXXX 1      oap1    O  -0.625
O16      1.564035366    4.584372635    2.038487245 XXXX 1      oap1    O  -0.650
Ca6      7.453346046    6.397528154   10.807255657 XXXX 1      ca+h    Ca  1.500
P4       5.310938742    4.991441373    9.116749316 XXXX 1      pap     P   1.000
O17      5.228861017    3.475480554    8.857650227 XXXX 1      oap1    O  -0.800
O18      4.207432646    5.807742283    8.281018483 XXXX 1      oap1    O  -0.800
Ca7      3.785145571    1.998577551    7.777820536 XXXX 1      ca+h    Ca  1.500
P5       8.824438966    3.114268442   11.496004821 XXXX 1      pap     P   1.000
O19      7.843131261    3.981149729   10.682391101 XXXX 1      oap1    O  -0.800
O20      9.761637604    3.990434485   12.411271992 XXXX 1      oap1    O  -0.800
H1       1.983315687    3.887369695    1.617369516 XXXX 1      hop     H   0.400
H2       3.742889667    7.005570077    2.077469692 XXXX 1      hop     H   0.400
end
O1       2.104239411    2.854553368    9.547537749 XXXX 1      oap1    O  -0.800
O2       2.985719987    7.503968728   10.241063014 XXXX 1      oap1    O  -0.800
O4       2.394442832    5.772168335   14.254355479 XXXX 1      oap1    O  -0.800
O6       5.547086449    2.240626452   16.166722629 XXXX 1      oap1    O  -0.800
O7       0.844346985    5.575626127   16.160756290 XXXX 1      oap1    O  -0.800
O9       3.994206606    2.137955304   18.104501416 XXXX 1      oap1    O  -0.800
O10      0.738739447    2.868294535   11.518064446 XXXX 1      oap1    O  -0.800
O11      1.339733961    7.429158167   12.060612615 XXXX 1      oap1    O  -0.800
Ca1      5.612686136    2.770525996   11.220486213 XXXX 1      ca+h    Ca  1.500
Ca4      3.593088258    2.683263507   14.270129237 XXXX 1      ca+h    Ca  1.500
P1       2.076634619    3.359002944   10.976460905 XXXX 1      pap     P   1.000
O13      2.049004859    4.828216496   10.967207801 XXXX 1      oap1    O  -0.800
O14      3.183272998    2.697804269   11.876112967 XXXX 1      oap1    O  -0.800
Ca6      3.674457082    6.232990133   12.189233056 XXXX 1      ca+h    Ca  1.500
P2       1.571582355    8.006329622   10.624715731 XXXX 1      pap     P   1.000
O15      0.469457721    7.376113790    9.743230675 XXXX 1      oap1    O  -0.800
O16      1.578184072    9.581045060   10.602730422 XXXX 1      oap1    O  -0.800
Ca8      3.651237272    6.308168038   16.345801037 XXXX 1      ca+h    Ca  1.500
P4       1.104748106    5.064503962   14.760814597 XXXX 1      pap     P   1.000
O19      1.374151215    3.531254355   14.738096679 XXXX 1      oap1    O  -0.800
O20     -0.056159860    5.592935986   13.879363195 XXXX 1      oap1    O  -0.800
P6       4.717183696    3.068137346   17.195763761 XXXX 1      pap     P   1.000
O23      3.644486684    3.902356621   16.426488451 XXXX 1      oap1    O  -0.800
O24      5.606971472    3.996503629   18.017739154 XXXX 1      oap1    O  -0.800
end
O1       3.700563383   10.823609883    2.786284811 XXXX 1      oap1    O  -0.625
O2       0.708035234   15.289627025    1.277640198 XXXX 1      oap1    O  -0.650
O3       3.048946540   13.266618759    5.843591234 XXXX 1      oap1    O  -0.800
O4       2.073194004    8.928933433    4.977126419 XXXX 1      oap1    O  -0.800
O5       5.764604386   10.125365443    8.048625997 XXXX 1      oap1    O  -0.800
O6       1.516504098   13.649213927    7.799768948 XXXX 1      oap1    O  -0.800
O7       0.707518981    8.922427562    7.028128856 XXXX 1      oap1    O  -0.800
O8       4.017770453   10.461007068    9.826265610 XXXX 1      oap1    O  -0.800
O9       1.786030971   11.148628747    1.181016648 XXXX 1      oap1    O  -0.650
O10      1.445293921   16.058531248    3.451317656 XXXX 1      oap1    O  -0.625
Ca1      5.999646538   10.938804856    2.770345227 XXXX 1      ca+h    Ca  1.500
Ca2      3.797416356   11.026601825    5.552614068 XXXX 1      ca+h    Ca  1.500
P1       2.229578609   10.598405705    2.485877429 XXXX 1      pap     P   1.000
O11      1.352086760   11.270059515    3.546858488 XXXX 1      oap1    O  -0.625
O12      1.954428174    9.157840333    2.538683895 XXXX 1      oap1    O  -0.650
Ca3      4.058346413   14.798063088    4.227393843 XXXX 1      ca+h    Ca  1.500
P2       1.940827996   15.629623004    2.112385103 XXXX 1      pap     P   1.000
O13      2.820291298   16.762102820    1.563547468 XXXX 1      oap1    O  -0.650
O14      2.638288603   14.270751511    2.454471208 XXXX 1      oap1    O  -0.625
Ca4      3.953575320   14.197343732    7.938818146 XXXX 1      ca+h    Ca  1.500
P3       1.611530178   13.204027896    6.279968889 XXXX 1      pap     P   1.000
O15      1.178202929   11.735983205    6.165640319 XXXX 1      oap1    O  -0.800
O16      0.734112394   14.102124954    5.338595429 XXXX 1      oap1    O  -0.800
P4       2.012017372    8.450728780    6.461413150 XXXX 1      pap     P   1.000
O17      3.073504228    9.283382230    7.225706792 XXXX 1      oap1    O  -0.800
O18      2.243841062    6.844732047    6.523332090 XXXX 1      oap1    O  -0.800
Ca5      4.621863713    8.141654109    8.759120076 XXXX 1      ca+h    Ca  1.500
P5       4.914841517   11.169592141    8.813531351 XXXX 1      pap     P   1.000
O19      3.976920081   11.776196073    7.814213549 XXXX 1      oap1    O  -0.800
O20      5.764613703   12.196477382    9.503794496 XXXX 1      oap1    O  -0.800
H1       2.847625708   17.490470476    2.187230167 XXXX 1      hop     H   0.400
H2       0.076891482   15.993685834    1.358834352 XXXX 1      hop     H   0.400
H3       2.009617634    8.848618904    3.458620670 XXXX 1      hop     H   0.400
H4       1.005540646   10.628507763    0.888376197 XXXX 1      hop     H   0.400
end
O1      17.930456598    2.891183060    3.848962596 XXXX 1      oap1    O  -0.800
O2      18.774823912    7.541296037    4.597618297 XXXX 1      oap1    O  -0.800
O3      15.195375179    7.055684667    2.363438885 XXXX 1      oap1    O  -0.650
O4      18.398654180    5.388534601    8.593799453 XXXX 1      oap1    O  -0.800
O5      21.480709330    2.058021116   10.998956510 XXXX 1      oap1    O  -0.800
O6      16.979387420    5.504236515   10.580378482 XXXX 1      oap1    O  -0.800
O7      19.524902671    2.538217180   12.544922957 XXXX 1      oap1    O  -0.800
O8      16.569456946    2.567448128    5.855802655 XXXX 1      oap1    O  -0.800
O9      17.483292618    7.629908048    6.664035358 XXXX 1      oap1    O  -0.800
O10     13.069755436    5.871869123    2.842943859 XXXX 1      oap1    O  -0.625
Ca1     21.570122748    2.864665553    5.647836837 XXXX 1      ca+h    Ca  1.500
Ca2     15.772750372    5.588665068    5.816880302 XXXX 1      ca+h    Ca  1.500
Ca3     13.592331482    5.607903723    8.527606633 XXXX 1      ca+h    Ca  1.500
Ca4     19.390849576    3.031946978    8.388630900 XXXX 1      ca+h    Ca  1.500
Ca5     15.510065699    2.411683297    3.569450756 XXXX 1      ca+h    Ca  1.500
P1      17.862855259    3.210237110    5.339411700 XXXX 1      pap     P   1.000
O11     17.933193033    4.697949673    5.565763461 XXXX 1      oap1    O  -0.800
O12     19.075954568    2.576709593    6.032630282 XXXX 1      oap1    O  -0.800
Ca6     19.394989964    6.225527742    6.642267346 XXXX 1      ca+h    Ca  1.500
P2      17.528987151    8.127189011    5.177406612 XXXX 1      pap     P   1.000
O13     16.286007404    7.597236534    4.427695183 XXXX 1      oap1    O  -0.800
O14     17.643851466    9.642269259    5.123053841 XXXX 1      oap1    O  -0.800
P3      14.532007786    5.679147454    2.518493047 XXXX 1      pap     P   1.000
O15     15.200570004    4.817736076    3.598313885 XXXX 1      oap1    O  -0.625
O16     14.621723621    4.855237677    1.268943643 XXXX 1      oap1    O  -0.650
Ca7     19.376197481    6.279736663   10.600130817 XXXX 1      ca+h    Ca  1.500
P4      17.010262586    5.026103415    9.113616906 XXXX 1      pap     P   1.000
O17     16.909159807    3.520700476    9.056721664 XXXX 1      oap1    O  -0.800
O18     15.959025830    5.725317081    8.278252433 XXXX 1      oap1    O  -0.800
Ca8     15.366048870    2.193243681    7.827455093 XXXX 1      ca+h    Ca  1.500
P5      20.578463503    3.136772573   11.607854316 XXXX 1      pap     P   1.000
O19     19.830030179    3.907331566   10.518375823 XXXX 1      oap1    O  -0.800
O20     21.473054217    4.167254403   12.325687026 XXXX 1      oap1    O  -0.800
H1      14.454830212    5.430374473    0.521172356 XXXX 1      hop     H   0.400
H2      15.638795441    7.250477835    3.169198045 XXXX 1      hop     H   0.400
end
O1      13.719194505    2.917315335    9.510680416 XXXX 1      oap1    O  -0.800
O2      14.695536913    7.653030965   10.189516833 XXXX 1      oap1    O  -0.800
O3      11.006926145    6.214332020    7.226399111 XXXX 1      oap1    O  -0.800
O4      14.411928196    5.191218471   14.076592852 XXXX 1      oap1    O  -0.800
O6      17.246511762    2.020848579   16.383186335 XXXX 1      oap1    O  -0.800
O7      12.961281933    5.493614631   16.119989921 XXXX 1      oap1    O  -0.800
O9      15.366106879    2.321352159   18.178554537 XXXX 1      oap1    O  -0.800
O10     12.438439839    3.036555361   11.583872959 XXXX 1      oap1    O  -0.800
O11     13.256068160    7.780459572   12.160641743 XXXX 1      oap1    O  -0.800
O12      9.550651146    6.214847438    9.389192768 XXXX 1      oap1    O  -0.800
Ca1     17.253129740    2.822743000   11.279788945 XXXX 1      ca+h    Ca  1.500
Ca2     11.368605493    5.440620281   11.316584030 XXXX 1      ca+h    Ca  1.500
Ca3      9.363279020    5.519221163   14.186214391 XXXX 1      ca+h    Ca  1.500
Ca4     15.291952123    2.859528058   14.192297716 XXXX 1      ca+h    Ca  1.500
Ca5     11.498703856    2.120117387    9.111656450 XXXX 1      ca+h    Ca  1.500
P1      13.772894804    3.366813192   10.971512916 XXXX 1      pap     P   1.000
O13     13.847688126    4.989161127   10.865930186 XXXX 1      oap1    O  -0.800
O14     15.021109356    2.709488706   11.686723934 XXXX 1      oap1    O  -0.800
Ca6     15.402174966    6.330839235   12.179856976 XXXX 1      ca+h    Ca  1.500
P2      13.296881461    8.115700397   10.693697712 XXXX 1      pap     P   1.000
O15     12.192960256    7.344187782    9.923391017 XXXX 1      oap1    O  -0.800
O16     13.124087560    9.608193643   10.482820496 XXXX 1      oap1    O  -0.800
Ca7     10.490726960    8.339554796    8.829391490 XXXX 1      ca+h    Ca  1.500
P3      10.265520181    5.304995273    8.282200511 XXXX 1      pap     P   1.000
O17     11.319922668    4.445317733    8.955092532 XXXX 1      oap1    O  -0.800
O18      9.206613636    4.430174126    7.520605784 XXXX 1      oap1    O  -0.800
Ca8     15.318788261    6.214895643   16.242159813 XXXX 1      ca+h    Ca  1.500
P4      12.975747697    4.960610541   14.654869483 XXXX 1      pap     P   1.000
O19     12.798505170    3.479849369   14.699758363 XXXX 1      oap1    O  -0.800
O20     11.859699095    5.685471833   13.804440552 XXXX 1      oap1    O  -0.800
Ca9     11.289242015    2.238928047   13.381033852 XXXX 1      ca+h    Ca  1.500
P6      16.389007888    3.022312228   17.253936412 XXXX 1      pap     P   1.000
O23     15.667718943    3.968148998   16.298741362 XXXX 1      oap1    O  -0.800
O24     17.418094901    3.922874807   18.009803041 XXXX 1      oap1    O  -0.800
end
O1       9.632454945    3.066959323   14.963426426 XXXX 1      oap1    O  -0.800
O2      10.562325327    7.724257457   15.637701426 XXXX 1      oap1    O  -0.800
O3       6.638341875    6.212515356   12.888934028 XXXX 1      oap1    O  -0.800
O4      10.032249621    5.232689805   19.554692843 XXXX 1      oap1    O  -0.800
O6      12.959923579    2.086246703   21.956031277 XXXX 1      oap1    O  -0.800
O7       8.755778388    5.588923224   21.563247227 XXXX 1      oap1    O  -0.800
O9      11.252830445    2.356541523   23.742367716 XXXX 1      oap1    O  -0.800
O10      8.213147452    3.157849005   17.085718641 XXXX 1      oap1    O  -0.800
O11      9.040247106    7.466338232   17.598419846 XXXX 1      oap1    O  -0.800
O12      5.533874917    6.067577737   15.060393952 XXXX 1      oap1    O  -0.800
Ca1     13.308191271    2.822012998   17.038572075 XXXX 1      ca+h    Ca  1.500
Ca2      7.401714218    5.435451264   16.964036361 XXXX 1      ca+h    Ca  1.500
Ca3      5.148907573    5.508163178   19.817680497 XXXX 1      ca+h    Ca  1.500
Ca4     10.915658986    2.796793567   19.531081792 XXXX 1      ca+h    Ca  1.500
Ca5      7.467365815    2.043537806   14.694954937 XXXX 1      ca+h    Ca  1.500
P1       9.603021615    3.438078204   16.457449983 XXXX 1      pap     P   1.000
O13      9.780729114    4.934418010   16.568076376 XXXX 1      oap1    O  -0.800
O14     10.751602469    2.723755055   17.187575425 XXXX 1      oap1    O  -0.800
Ca6     11.249687832    6.203077490   17.681929544 XXXX 1      ca+h    Ca  1.500
P2       9.173794474    8.061302170   16.141988814 XXXX 1      pap     P   1.000
O15      8.193432064    7.355690911   15.259263788 XXXX 1      oap1    O  -0.800
O16      8.954472026    9.594379396   16.244182649 XXXX 1      oap1    O  -0.800
Ca7      6.351753522    8.349186270   14.165813140 XXXX 1      ca+h    Ca  1.500
P3       6.105770575    5.204817600   14.000811783 XXXX 1      pap     P   1.000
O17      7.273071509    4.366330058   14.557423247 XXXX 1      oap1    O  -0.800
O18      5.031562935    4.344032377   13.289513541 XXXX 1      oap1    O  -0.800
Ca8     11.111514713    6.223878709   21.829366511 XXXX 1      ca+h    Ca  1.500
P4       8.694095926    4.930669118   20.160862930 XXXX 1      pap     P   1.000
O19      8.703721576    3.417565448   20.411569304 XXXX 1      oap1    O  -0.800
O20      7.524788876    5.497676923   19.383214724 XXXX 1      oap1    O  -0.800
Ca9      7.103414154    2.130149706   19.019507362 XXXX 1      ca+h    Ca  1.500
P6      12.163620986    3.118652204   22.713667786 XXXX 1      pap     P   1.000
O23     11.263380484    3.901607642   21.709479362 XXXX 1      oap1    O  -0.800
O24     13.157540601    4.030900002   23.385895820 XXXX 1      oap1    O  -0.800
end
O1       5.605947231    3.034486130   20.659444159 XXXX 1      oap1    O  -0.800
O2       6.478896503    7.369249108   21.150051006 XXXX 1      oap1    O  -0.800
O3       2.700348224    6.179701384   18.749838985 XXXX 1      oap1    O  -0.800
O4       5.807336834    5.322334441   25.149111136 XXXX 1      oap1    O  -0.800
O6       8.853214476    2.008886405   27.845609759 XXXX 1      oap1    O  -0.800
O7       4.486631288    5.367087537   27.255372007 XXXX 1      oap1    O  -0.800
O9       6.864369410    2.472066055   29.146095678 XXXX 1      oap1    O  -0.800
O10      4.279093085    2.689252555   22.640510030 XXXX 1      oap1    O  -0.800
O11      5.218171969    7.729403942   23.303193780 XXXX 1      oap1    O  -0.800
O12      1.291976372    5.969068025   20.809021721 XXXX 1      oap1    O  -0.800
Ca1      9.048800705    2.760642050   22.632305535 XXXX 1      ca+h    Ca  1.500
Ca2      3.106749289    5.562551863   22.605826652 XXXX 1      ca+h    Ca  1.500
Ca3      1.019821056    5.577484120   25.466747403 XXXX 1      ca+h    Ca  1.500
Ca4      6.523805167    2.937853540   25.186083711 XXXX 1      ca+h    Ca  1.500
Ca5      3.143705722    2.040026030   20.434856548 XXXX 1      ca+h    Ca  1.500
P1       5.534061016    3.392954713   22.154357328 XXXX 1      pap     P   1.000
O13      5.324851536    4.903333509   22.315496723 XXXX 1      oap1    O  -0.800
O14      6.758954913    2.804635110   22.845450592 XXXX 1      oap1    O  -0.800
Ca6      7.256201587    6.119811650   23.203685533 XXXX 1      ca+h    Ca  1.500
P2       5.234777459    8.021743171   21.828077868 XXXX 1      pap     P   1.000
O15      3.962433916    7.319020771   21.280885088 XXXX 1      oap1    O  -0.800
O16      5.042298028    9.565482556   21.558094792 XXXX 1      oap1    O  -0.800
Ca7      2.371011094    8.301261199   19.808212208 XXXX 1      ca+h    Ca  1.500
P3       2.048518508    5.183617881   19.725688900 XXXX 1      pap     P   1.000
O17      3.109459354    4.319507732   20.365118083 XXXX 1      oap1    O  -0.800
O18      1.044121303    4.280898809   18.956109787 XXXX 1      oap1    O  -0.800
Ca8      6.812673310    6.305178949   27.376686758 XXXX 1      ca+h    Ca  1.500
P4       4.441132455    4.973798839   25.758598959 XXXX 1      pap     P   1.000
O19      4.338562585    3.439693394   25.746444335 XXXX 1      oap1    O  -0.800
O20      3.368509315    5.662873772   24.974920825 XXXX 1      oap1    O  -0.800
Ca9      2.820452896    1.971999364   24.503730204 XXXX 1      ca+h    Ca  1.500
P6       8.031954844    3.148928848   28.432674444 XXXX 1      pap     P   1.000
O23      7.386680725    3.920825557   27.277953247 XXXX 1      oap1    O  -0.800
O24      8.881929407    4.029256671   29.367180783 XXXX 1      oap1    O  -0.800
end
O1       1.416213517    2.886897853   26.234616020 XXXX 1      oap1    O  -0.800
O2       2.235536685    7.722014803   26.705603158 XXXX 1      oap1    O  -0.800
O3       1.753034790    5.022685188   30.498247578 XXXX 1      oap1    O  -0.800
O4       6.086074666    0.881002433   33.593973960 XXXX 1      oap1    O  -0.625
O5       0.592996921    6.374634793   32.396877399 XXXX 1      oap1    O  -0.800
O6       3.619416814    0.467275661   34.032858113 XXXX 1      oap1    O  -0.650
O7      -0.007412044    2.946644644   28.205050821 XXXX 1      oap1    O  -0.800
O8       0.984676429    7.605487954   28.866202497 XXXX 1      oap1    O  -0.800
Ca1      4.829896408    2.889813289   28.052476312 XXXX 1      ca+h    Ca  1.500
Ca2      2.517487214    2.832093388   31.162399978 XXXX 1      ca+h    Ca  1.500
P1       1.366230291    3.367302716   27.706550180 XXXX 1      pap     P   1.000
O9       1.470223557    4.903005827   27.621673508 XXXX 1      oap1    O  -0.800
O10      2.530075925    2.655042978   28.478839769 XXXX 1      oap1    O  -0.800
Ca3      3.025806460    6.374749992   28.889259772 XXXX 1      ca+h    Ca  1.500
P2       0.892605844    8.113575352   27.388619313 XXXX 1      pap     P   1.000
O11     -0.190780091    7.293577223   26.728732663 XXXX 1      oap1    O  -0.800
O12      0.629402001    9.589427776   27.196148349 XXXX 1      oap1    O  -0.800
P3       0.491972964    5.107900452   31.381427810 XXXX 1      pap     P   1.000
O13      0.266147472    3.787702873   32.109922294 XXXX 1      oap1    O  -0.800
O14     -0.740466002    5.321712704   30.502406892 XXXX 1      oap1    O  -0.800
P4       4.668820191    1.527334688   33.877544852 XXXX 1      pap     P   1.000
O15      4.305409041    2.576694326   32.704630668 XXXX 1      oap1    O  -0.625
O16      4.708229562    2.340645078   35.159876115 XXXX 1      oap1    O  -0.650
H1       2.909106005    0.737109733   33.416502805 XXXX 1      hop     H   0.400
H2       4.502965069    3.203644536   34.790508312 XXXX 1      hop     H   0.400
end
O1      14.015533249   10.245422786    1.464423367 XXXX 1      oap1    O  -0.650
O2      15.485560418   16.208802197    2.070488964 XXXX 1      oap1    O  -0.650
O3      14.764455900   13.425960066    5.484444990 XXXX 1      oap1    O  -0.800
O4      13.369589828    8.452191396    4.989120948 XXXX 1      oap1    O  -0.800
O5      17.291878297   10.306225850    7.878216529 XXXX 1      oap1    O  -0.800
O6      13.119260322   13.944104720    7.342673542 XXXX 1      oap1    O  -0.800
O7      12.396400076    8.841557386    7.256527072 XXXX 1      oap1    O  -0.800
O8      15.767032778   10.463236845    9.675158719 XXXX 1      oap1    O  -0.800
O9      12.425655900   11.065674128    3.220014900 XXXX 1      oap1    O  -0.625
O10     13.410179491   15.106468296    1.226880549 XXXX 1      oap1    O  -0.625
Ca1     12.211351211   13.444664819    2.665895695 XXXX 1      ca+h    Ca  1.500
Ca2      9.956329455   13.908512558    5.589790145 XXXX 1      ca+h    Ca  1.500
Ca3     16.008431347   11.200852488    5.610957734 XXXX 1      ca+h    Ca  1.500
P1      13.935636188   10.917917464    2.823296163 XXXX 1      pap     P   1.000
O11     14.579672397   12.319037510    2.781095303 XXXX 1      oap1    O  -0.625
O12     14.641532404   10.096960301    3.960843734 XXXX 1      oap1    O  -0.650
Ca4     15.905115498   14.993191816    4.282450756 XXXX 1      ca+h    Ca  1.500
P2      13.953037919   16.203999664    2.129511710 XXXX 1      pap     P   1.000
O13     13.294207282   17.514697174    1.814976652 XXXX 1      oap1    O  -0.650
O14     13.553929293   15.795224891    3.537800549 XXXX 1      oap1    O  -0.625
Ca5     15.620947848   14.594581286    7.776766010 XXXX 1      ca+h    Ca  1.500
P3      13.329193191   13.161753449    6.032516898 XXXX 1      pap     P   1.000
O15     13.126753149   11.685164024    6.291149874 XXXX 1      oap1    O  -0.800
O16     12.247606552   13.557194533    5.020986801 XXXX 1      oap1    O  -0.800
Ca6     11.652689957   10.253886088    5.320402565 XXXX 1      ca+h    Ca  1.500
P4      13.694169573    8.413523270    6.491658078 XXXX 1      pap     P   1.000
O17     14.743645532    9.384269182    6.952623459 XXXX 1      oap1    O  -0.800
O18     14.048461709    6.987279921    6.823236417 XXXX 1      oap1    O  -0.800
Ca7     16.347797915    8.253647753    8.557921809 XXXX 1      ca+h    Ca  1.500
P5      16.677728646   11.344142594    8.784401808 XXXX 1      pap     P   1.000
O19     15.729416607   12.172789143    7.916739907 XXXX 1      oap1    O  -0.800
O20     17.762647517   12.207273313    9.466503322 XXXX 1      oap1    O  -0.800
O21     10.828623462    8.621447834    3.828304011 XXXX 1      oap2    O  -1.100
H1      11.568337805    8.587812496    3.211590580 XXXX 1      hop     H   0.200
H2      13.645676067   18.149955769    2.438936741 XXXX 1      hop     H   0.400
H3      15.758176404   16.907453854    1.463218620 XXXX 1      hop     H   0.400
H4      14.827618351    9.766512372    1.435278045 XXXX 1      hop     H   0.400
H5      14.061820065    9.430232560    4.267688882 XXXX 1      hop     H   0.400
end
O1       9.982934764   10.769517822    6.906028568 XXXX 1      oap1    O  -0.800
O2      10.978532072   15.869132501    7.371136780 XXXX 1      oap1    O  -0.800
O3       7.636931351   14.041049146    4.598852910 XXXX 1      oap1    O  -0.800
O4      10.388742153   13.564423131   11.119893593 XXXX 1      oap1    O  -0.800
O5       9.553182734    9.021101020   10.836812015 XXXX 1      oap1    O  -0.800
O6      13.214949823   10.514087196   13.187458598 XXXX 1      oap1    O  -0.800
O7       9.044701793   13.900836681   13.120129399 XXXX 1      oap1    O  -0.800
O8       8.248176082    8.920348109   12.852052106 XXXX 1      oap1    O  -0.800
O9      11.957140491   10.508369328   15.334478105 XXXX 1      oap1    O  -0.800
O10      8.463351933   11.215463054    8.748392036 XXXX 1      oap1    O  -0.800
O11      9.307863644   15.620234075    9.247902074 XXXX 1      oap1    O  -0.800
O12      5.779676510   14.458811943    6.231857743 XXXX 1      oap1    O  -0.800
Ca1     13.536594340   10.812654953    8.429526258 XXXX 1      ca+h    Ca  1.500
Ca2      7.648692247   13.721057517    8.438495798 XXXX 1      ca+h    Ca  1.500
Ca3      5.610050518   13.914659329   11.403648882 XXXX 1      ca+h    Ca  1.500
Ca4     11.456728426   11.020170749   11.389097283 XXXX 1      ca+h    Ca  1.500
Ca5      7.682667100   10.200156308    6.757038637 XXXX 1      ca+h    Ca  1.500
P1       9.900412611   11.471261508    8.240261102 XXXX 1      pap     P   1.000
O13     10.046745216   13.004747919    8.057393980 XXXX 1      oap1    O  -0.800
O14     10.971051991   10.873507971    9.133530291 XXXX 1      oap1    O  -0.800
Ca6     11.577225477   14.379007892    9.187703441 XXXX 1      ca+h    Ca  1.500
P2       9.558275708   16.238551441    7.841421326 XXXX 1      pap     P   1.000
O15      8.540329835   15.568179569    6.894983941 XXXX 1      oap1    O  -0.800
O16      9.421341128   17.796626306    7.939838202 XXXX 1      oap1    O  -0.800
Ca7      6.847560661   16.620350908    5.504938668 XXXX 1      ca+h    Ca  1.500
P3       6.564413755   13.400263762    5.425453165 XXXX 1      pap     P   1.000
O17      7.363262829   12.550647504    6.410599947 XXXX 1      oap1    O  -0.800
O18      5.571430616   12.572858651    4.596596263 XXXX 1      oap1    O  -0.800
Ca8     11.368734412   14.553298089   13.488868399 XXXX 1      ca+h    Ca  1.500
P4       9.097687342   13.144888292   11.763870165 XXXX 1      pap     P   1.000
O19      9.097030248   11.627494576   12.057841456 XXXX 1      oap1    O  -0.800
O20      7.900680855   13.649217035   10.941960916 XXXX 1      oap1    O  -0.800
Ca9      7.415316195   10.327955534   10.678781752 XXXX 1      ca+h    Ca  1.500
P5       9.550729743    8.472150583   12.267631396 XXXX 1      pap     P   1.000
O21     10.666762413    9.135991576   13.031305149 XXXX 1      oap1    O  -0.800
O22      9.653073326    6.916975734   12.242462970 XXXX 1      oap1    O  -0.800
Ca10    12.378553914    8.255019957   14.251493377 XXXX 1      ca+h    Ca  1.500
P6      12.625247051   11.405418395   14.270585880 XXXX 1      pap     P   1.000
O23     11.496283679   12.184479366   13.570846415 XXXX 1      oap1    O  -0.800
O24     13.655724006   12.337137334   14.931070227 XXXX 1      oap1    O  -0.800
O25      5.961001910    8.424780185   10.911868447 XXXX 1      oap2    O  -1.100
O26      8.154244106    8.188149573    8.073393431 XXXX 1      oap2    O  -1.100
H1       5.678991475    9.043425575   11.591449228 XXXX 1      hop     H   0.200
H2       7.841914068    7.441592608    8.474049691 XXXX 1      hop     H   0.200
end
O1       5.799585636   10.731125891   12.408642614 XXXX 1      oap1    O  -0.800
O2       6.622541819   15.787877057   12.765917678 XXXX 1      oap1    O  -0.800
O3       3.391571669   14.054105659   10.203946808 XXXX 1      oap1    O  -0.800
O4       6.396309595   13.474918140   16.900808539 XXXX 1      oap1    O  -0.800
O5       5.318474571    8.932323959   16.366892971 XXXX 1      oap1    O  -0.800
O6       9.166811494   10.476678793   18.887583475 XXXX 1      oap1    O  -0.800
O7       4.927033404   13.369078841   18.958682757 XXXX 1      oap1    O  -0.800
O8       4.378900307    8.901819333   18.761046616 XXXX 1      oap1    O  -0.800
O9       7.918895853   10.171863746   21.023253226 XXXX 1      oap1    O  -0.800
O10      4.382867191   11.202852955   14.281521054 XXXX 1      oap1    O  -0.800
O11      5.496545604   15.762575737   14.987053484 XXXX 1      oap1    O  -0.800
O12      1.707306033   14.385124163   11.967894754 XXXX 1      oap1    O  -0.800
Ca1      9.239339527   10.897332937   14.262011190 XXXX 1      ca+h    Ca  1.500
Ca2      3.464874503   13.548443216   14.356887513 XXXX 1      ca+h    Ca  1.500
Ca3      1.265670071   13.847015128   16.977362707 XXXX 1      ca+h    Ca  1.500
Ca4      7.372462071   11.037028225   17.013921650 XXXX 1      ca+h    Ca  1.500
Ca5      3.529084742   10.095418370   12.188083051 XXXX 1      ca+h    Ca  1.500
P1       5.820062078   11.432630407   13.769234040 XXXX 1      pap     P   1.000
O13      5.975825964   12.929706758   13.673546877 XXXX 1      oap1    O  -0.800
O14      6.923777208   10.777700290   14.632648194 XXXX 1      oap1    O  -0.800
Ca6      7.458914055   14.371293514   14.805162005 XXXX 1      ca+h    Ca  1.500
P2       5.347066756   16.204251925   13.469856411 XXXX 1      pap     P   1.000
O15      4.232549349   15.517011521   12.796420192 XXXX 1      oap1    O  -0.800
O16      5.221138678   17.733559634   13.264816660 XXXX 1      oap1    O  -0.800
Ca7      2.686013481   16.525062550   11.241593196 XXXX 1      ca+h    Ca  1.500
P3       2.470814736   13.292193865   11.173199029 XXXX 1      pap     P   1.000
O17      3.271080263   12.504694905   12.168517550 XXXX 1      oap1    O  -0.800
O18      1.412884414   12.467647958   10.431452670 XXXX 1      oap1    O  -0.800
Ca8      7.226689279   14.392326817   19.025917896 XXXX 1      ca+h    Ca  1.500
P4       4.992297256   13.104862064   17.430976317 XXXX 1      pap     P   1.000
O19      4.849240685   11.609252656   17.257822590 XXXX 1      oap1    O  -0.800
O20      3.880290823   13.831981735   16.585197218 XXXX 1      oap1    O  -0.800
Ca9      3.362167887   10.280213067   16.208729087 XXXX 1      ca+h    Ca  1.500
P5       5.559803767    8.475982323   17.846517146 XXXX 1      pap     P   1.000
O21      6.798380665    9.158838360   18.347809251 XXXX 1      oap1    O  -0.800
O22      5.578881794    6.931313971   17.915554976 XXXX 1      oap1    O  -0.800
Ca10     8.340574021    8.008611936   19.804185885 XXXX 1      ca+h    Ca  1.500
P6       8.524736229   11.263242142   20.063441294 XXXX 1      pap     P   1.000
O23      7.403166129   11.995393038   19.449802029 XXXX 1      oap1    O  -0.800
O24      9.549979757   12.151380906   20.823668436 XXXX 1      oap1    O  -0.800
O25      2.224620508    8.249527302   16.342170243 XXXX 1      oap2    O  -1.100
O26      4.078418640    8.160747809   13.546137047 XXXX 1      oap2    O  -1.100
H1       1.767939690    8.379882102   17.164027280 XXXX 1      hop     H   0.200
H2       3.676698361    8.267214137   14.407767214 XXXX 1      hop     H   0.200
end
O1       1.835226031   10.765787804   18.002137196 XXXX 1      oap1    O  -0.800
O2       2.593978550   15.676236286   18.448759269 XXXX 1      oap1    O  -0.800
O4       2.093664299   13.283711204   22.359688046 XXXX 1      oap1    O  -0.800
O5       1.288299801    8.962779657   22.030724013 XXXX 1      oap1    O  -0.800
O6       4.918253191   10.361427984   24.498718369 XXXX 1      oap1    O  -0.800
O7       0.722553572   13.443404061   24.424464207 XXXX 1      oap1    O  -0.800
O8      -0.096950296    9.086513759   23.949169349 XXXX 1      oap1    O  -0.800
O9       3.316505036   10.481003537   26.366044362 XXXX 1      oap1    O  -0.800
O10      0.275630054   11.260827767   19.977555675 XXXX 1      oap1    O  -0.800
O11      1.031955013   15.658551028   20.482187443 XXXX 1      oap1    O  -0.800
Ca1      5.162383272   10.975819945   19.713099096 XXXX 1      ca+h    Ca  1.500
Ca4      3.220268511   10.922384956   22.531949506 XXXX 1      ca+h    Ca  1.500
P1       1.648221803   11.503926997   19.358652625 XXXX 1      pap     P   1.000
O13      1.686087382   13.019830767   19.158777657 XXXX 1      oap1    O  -0.800
O14      2.790617126   11.009132462   20.290428078 XXXX 1      oap1    O  -0.800
Ca6      3.337023156   14.191165532   20.347607915 XXXX 1      ca+h    Ca  1.500
P2       1.224788322   16.182466930   19.035451599 XXXX 1      pap     P   1.000
O15      0.178086091   15.392437911   18.242296161 XXXX 1      oap1    O  -0.800
O16      1.127131536   17.745337680   18.928043861 XXXX 1      oap1    O  -0.800
Ca8      3.084628998   14.584728184   24.600261490 XXXX 1      ca+h    Ca  1.500
P4       0.718952742   12.997509368   22.953487211 XXXX 1      pap     P   1.000
O19      0.631831492   11.448337937   22.916374300 XXXX 1      oap1    O  -0.800
O20     -0.437835828   13.681062943   22.182986466 XXXX 1      oap1    O  -0.800
P5       1.218157716    8.500031086   23.413628962 XXXX 1      pap     P   1.000
O21      2.415603933    9.125343832   24.174670703 XXXX 1      oap1    O  -0.800
O22      1.278598578    6.949194502   23.458641769 XXXX 1      oap1    O  -0.800
Ca10     4.097868984    8.013278658   25.279661276 XXXX 1      ca+h    Ca  1.500
P6       4.192759911   11.330866484   25.437457626 XXXX 1      pap     P   1.000
O23      3.337237951   12.233602756   24.511828323 XXXX 1      oap1    O  -0.800
O24      5.254959983   12.155638462   26.221759831 XXXX 1      oap1    O  -0.800
O26     -0.015453605    8.285103101   19.204453276 XXXX 1      oap2    O  -1.100
H2      -0.799439714    8.362425759   19.742640365 XXXX 1      hop     H   0.200
end
O1       6.242169755   19.387333751    3.896678935 XXXX 1      oap1    O  -0.800
O2       6.994964392   23.488777713    4.324578684 XXXX 1      oap1    O  -0.800
O3       1.351086085   20.992909637    1.715049214 XXXX 1      oap1    O  -0.650
O4       6.753556370   21.716356200    8.620800296 XXXX 1      oap1    O  -0.800
O5       6.191095611   17.120957867    7.763423391 XXXX 1      oap1    O  -0.800
O6       9.592200821   18.543816467   10.682956671 XXXX 1      oap1    O  -0.800
O7       5.398217179   21.683278848   10.625925924 XXXX 1      oap1    O  -0.800
O8       4.361679605   16.995521045    9.595453957 XXXX 1      oap1    O  -0.800
O9       8.197890190   18.573371038   12.627286357 XXXX 1      oap1    O  -0.800
O10      4.951428554   19.170368894    6.038490601 XXXX 1      oap1    O  -0.800
O11      5.611250266   23.493860142    6.469063689 XXXX 1      oap1    O  -0.800
O12      2.709851742   21.435724597    3.856818426 XXXX 1      oap1    O  -0.625
Ca1      9.886499213   19.206484135    5.872064880 XXXX 1      ca+h    Ca  1.500
Ca2      4.005888730   21.820612719    5.958608660 XXXX 1      ca+h    Ca  1.500
Ca3      1.850733311   21.895559831    8.568093071 XXXX 1      ca+h    Ca  1.500
Ca4      7.521513197   19.144751407    8.453094565 XXXX 1      ca+h    Ca  1.500
P1       6.240410901   19.659709569    5.393290360 XXXX 1      pap     P   1.000
O13      6.260252456   21.202517268    5.433309794 XXXX 1      oap1    O  -0.800
O14      7.477717214   19.098789508    6.108447772 XXXX 1      oap1    O  -0.800
Ca5      7.820324247   22.537519598    6.641833814 XXXX 1      ca+h    Ca  1.500
P2       5.706449950   24.039417581    4.995749568 XXXX 1      pap     P   1.000
O15      4.567680117   23.385748679    4.143898410 XXXX 1      oap1    O  -0.800
O16      5.691405479   25.558038174    5.072763590 XXXX 1      oap1    O  -0.800
P3       2.630503016   20.697311413    2.557677578 XXXX 1      pap     P   1.000
O17      3.887850577   21.062027113    1.679410681 XXXX 1      oap1    O  -0.625
O18      2.616741008   19.177951364    2.805663733 XXXX 1      oap1    O  -0.650
Ca6      7.728012898   22.515239479   10.667006650 XXXX 1      ca+h    Ca  1.500
P4       5.346509989   21.302249345    9.120916598 XXXX 1      pap     P   1.000
O19      5.173400305   19.761559406    8.937786305 XXXX 1      oap1    O  -0.800
O20      4.293227019   22.086010759    8.301421265 XXXX 1      oap1    O  -0.800
Ca7      3.623610731   18.264821082    7.713848119 XXXX 1      ca+h    Ca  1.500
P5       5.797221694   16.632926036    9.180362323 XXXX 1      pap     P   1.000
O21      6.693706396   17.404635653   10.148412930 XXXX 1      oap1    O  -0.800
O22      6.038618347   15.101056970    9.300920592 XXXX 1      oap1    O  -0.800
Ca8      8.476499717   16.397761603   11.337628888 XXXX 1      ca+h    Ca  1.500
P6       8.821886619   19.495350201   11.583993101 XXXX 1      pap     P   1.000
O23      7.704691757   20.132830219   10.810372742 XXXX 1      oap1    O  -0.800
O24      9.825530145   20.501975816   12.369562547 XXXX 1      oap1    O  -0.800
O25      3.183150747   16.122385518    6.455918300 XXXX 1      oap2    O  -1.100
O26      5.664154684   16.113637474    3.461923472 XXXX 1      oap2    O  -1.100
H1       3.823830540   16.739555545    6.037300531 XXXX 1      hop     H   0.200
H2       5.470440966   16.373895012    2.600536593 XXXX 1      hop     H   0.200
H3       1.641710803   21.325983548    0.862724031 XXXX 1      hop     H   0.400
H4       2.218954179   19.041610783    3.648593252 XXXX 1      hop     H   0.400
end
O1       2.245669688   19.345454884    9.277609887 XXXX 1      oap1    O  -0.800
O2       2.935688280   23.902943846    9.957685596 XXXX 1      oap1    O  -0.800
O4       2.552446594   21.787077224   14.087015334 XXXX 1      oap1    O  -0.800
O5       1.731089239   17.244176856   13.423268565 XXXX 1      oap1    O  -0.800
O6       5.424243890   18.390663229   16.234475071 XXXX 1      oap1    O  -0.800
O7       1.115066300   21.755604956   16.058844276 XXXX 1      oap1    O  -0.800
O8       0.128971393   17.001210367   15.263095060 XXXX 1      oap1    O  -0.800
O9       3.866500241   18.741491550   18.121754194 XXXX 1      oap1    O  -0.800
O10      0.698327840   19.218216970   11.287326697 XXXX 1      oap1    O  -0.800
O11      1.462550916   23.862319547   11.955672159 XXXX 1      oap1    O  -0.800
Ca1      5.574200354   19.185606365   11.317006616 XXXX 1      ca+h    Ca  1.500
Ca4      3.413258960   19.165268570   14.159768080 XXXX 1      ca+h    Ca  1.500
P1       2.081571052   19.701618199   10.767916225 XXXX 1      pap     P   1.000
O13      2.050472216   21.226939499   10.908460526 XXXX 1      oap1    O  -0.800
O14      3.162810638   18.972012558   11.681137811 XXXX 1      oap1    O  -0.800
Ca6      3.609339699   22.527762806   12.048171699 XXXX 1      ca+h    Ca  1.500
P2       1.563859770   24.397638622   10.552492363 XXXX 1      pap     P   1.000
O15      0.424485813   23.781398890    9.782249094 XXXX 1      oap1    O  -0.800
O16      1.449570136   25.924252966   10.406807963 XXXX 1      oap1    O  -0.800
Ca8      3.572890850   22.625725482   16.374256034 XXXX 1      ca+h    Ca  1.500
P4       1.175429349   21.376921961   14.604554762 XXXX 1      pap     P   1.000
O19      0.966851502   19.870771010   14.530390484 XXXX 1      oap1    O  -0.800
O20      0.135359094   22.120474787   13.742637580 XXXX 1      oap1    O  -0.800
P5       1.531238931   16.727153690   14.866359492 XXXX 1      pap     P   1.000
O21      2.464133398   17.562235485   15.715532384 XXXX 1      oap1    O  -0.800
O22      1.722764288   15.182471862   14.928444053 XXXX 1      oap1    O  -0.800
Ca10     4.157969445   16.363790590   16.883192644 XXXX 1      ca+h    Ca  1.500
P6       4.703767440   19.499930054   17.143977120 XXXX 1      pap     P   1.000
O23      3.641910992   20.231422014   16.341284468 XXXX 1      oap1    O  -0.800
O24      5.741881571   20.435649627   17.846361992 XXXX 1      oap1    O  -0.800
O26      1.146176486   16.532497136    9.432789960 XXXX 1      oap2    O  -1.100
H2       1.378783577   16.180702972    8.595251252 XXXX 1      hop     H   0.200
end
O1       2.650669041   27.469529448    1.021493397 XXXX 1      oap1    O  -0.650
O2       3.282426641   31.541687661    1.410934811 XXXX 1      oap1    O  -0.650
O3       2.819930500   30.375582578    5.665734426 XXXX 1      oap1    O  -0.800
O4       2.153845580   25.064391351    4.979617273 XXXX 1      oap1    O  -0.800
O5       5.898375006   26.511986456    7.881068034 XXXX 1      oap1    O  -0.800
O6       1.583483412   29.812683871    7.819448642 XXXX 1      oap1    O  -0.800
O7       0.645789233   25.269482733    6.874883310 XXXX 1      oap1    O  -0.800
O8       4.115437822   26.858091050    9.492733714 XXXX 1      oap1    O  -0.800
O9       0.719602606   27.170452876    2.630546021 XXXX 1      oap1    O  -0.625
O10      2.113463619   32.343483229    3.326134196 XXXX 1      oap1    O  -0.625
Ca1      3.981690364   26.960716499    5.456512689 XXXX 1      ca+h    Ca  1.500
P1       2.250119550   26.977955389    2.393939248 XXXX 1      pap     P   1.000
O11      2.865087765   27.898407448    3.490191912 XXXX 1      oap1    O  -0.625
O12      2.599200851   25.513875154    2.590971725 XXXX 1      oap1    O  -0.650
Ca2      3.928972658   30.386261896    3.621611954 XXXX 1      ca+h    Ca  1.500
P2       2.329145626   32.654346084    1.824706231 XXXX 1      pap     P   1.000
O13      1.089232659   32.610171353    1.008384432 XXXX 1      oap1    O  -0.650
O14      3.029552089   34.047313684    1.715141069 XXXX 1      oap1    O  -0.625
Ca3      4.024370729   30.577441502    7.873958741 XXXX 1      ca+h    Ca  1.500
P3       1.588711402   29.626800994    6.318772490 XXXX 1      pap     P   1.000
O15      1.628042091   28.090779182    6.047859125 XXXX 1      oap1    O  -0.800
O16      0.257547961   30.268998411    5.796464762 XXXX 1      oap1    O  -0.800
P4       2.021777332   24.755311219    6.457437035 XXXX 1      pap     P   1.000
O17      3.069640531   25.535021286    7.329737016 XXXX 1      oap1    O  -0.800
O18      2.118941775   23.230854812    6.648466459 XXXX 1      oap1    O  -0.800
Ca4      4.815945602   24.421621335    8.484420463 XXXX 1      ca+h    Ca  1.500
P5       5.073721589   27.624389862    8.552064780 XXXX 1      pap     P   1.000
O19      4.168467193   28.312403143    7.566621704 XXXX 1      oap1    O  -0.800
O20      6.025210174   28.539986545    9.359541128 XXXX 1      oap1    O  -0.800
H1       0.363434649   32.973928655    1.457433192 XXXX 1      hop     H   0.400
H2       3.822145170   31.915376757    0.720205475 XXXX 1      hop     H   0.400
H3       2.599228520   26.704066757    0.460018268 XXXX 1      hop     H   0.400
H4       2.572167542   25.188149280    3.546512299 XXXX 1      hop     H   0.400
end
O1      29.629567639    2.211948662    4.277317366 XXXX 1      oap1    O  -0.800
O2      30.314845433    7.337780314    4.356123918 XXXX 1      oap1    O  -0.800
O3      25.594510596    3.843057234    1.373608138 XXXX 1      oap1    O  -0.650
O4      30.063578956    5.259598694    8.367750485 XXXX 1      oap1    O  -0.800
O5      32.978359995    2.215609102   10.841154654 XXXX 1      oap1    O  -0.800
O6      28.816192413    5.579087375   10.449454845 XXXX 1      oap1    O  -0.800
O7      31.318454191    2.434421970   12.634194063 XXXX 1      oap1    O  -0.800
O8      28.579603523    3.099094738    6.355281371 XXXX 1      oap1    O  -0.800
O9      28.907592612    7.163446453    6.349667147 XXXX 1      oap1    O  -0.800
O10     26.683280865    4.784923070    3.574726436 XXXX 1      oap1    O  -0.625
Ca1     33.265023178    2.872457759    5.864562147 XXXX 1      ca+h    Ca  1.500
Ca2     27.205377288    5.419005737    5.816580491 XXXX 1      ca+h    Ca  1.500
Ca3     25.138926100    5.804264400    8.484683463 XXXX 1      ca+h    Ca  1.500
Ca4     30.918035298    2.970695877    8.433173310 XXXX 1      ca+h    Ca  1.500
P1      29.661747016    3.351542880    5.339767182 XXXX 1      pap     P   1.000
O11     29.438826258    4.773978533    4.782468538 XXXX 1      oap1    O  -0.800
O12     31.033689631    3.266459135    6.040112286 XXXX 1      oap1    O  -0.800
Ca5     31.055100738    5.960926021    6.282527145 XXXX 1      ca+h    Ca  1.500
P2      29.013516735    7.854573251    4.977530669 XXXX 1      pap     P   1.000
O13     27.952694767    7.256319095    4.124806327 XXXX 1      oap1    O  -0.800
O14     28.964270744    9.394652696    5.103272941 XXXX 1      oap1    O  -0.800
P3      26.748181855    3.763525403    2.389838394 XXXX 1      pap     P   1.000
O15     28.123962596    3.918797011    1.636487685 XXXX 1      oap1    O  -0.625
O16     26.781756870    2.358346711    3.050658186 XXXX 1      oap1    O  -0.650
Ca6     31.094792322    6.253942344   10.696473591 XXXX 1      ca+h    Ca  1.500
P4      28.700261737    4.997967652    9.032645545 XXXX 1      pap     P   1.000
O17     28.476819264    3.498127097    9.264607503 XXXX 1      oap1    O  -0.800
O18     27.576920782    5.676484037    8.234213607 XXXX 1      oap1    O  -0.800
Ca7     27.039875483    2.262491433    7.981847961 XXXX 1      ca+h    Ca  1.500
P5      32.160885682    3.221577912   11.630914910 XXXX 1      pap     P   1.000
O19     31.187665914    3.931341587   10.723019476 XXXX 1      oap1    O  -0.800
O20     33.082516974    4.187040635   12.356188244 XXXX 1      oap1    O  -0.800
H1      26.144304816    2.299645002    3.810555302 XXXX 1      hop     H   0.400
H2      24.789243058    3.732294809    1.772452993 XXXX 1      hop     H   0.400
end
O1      25.605582045    2.833426694    9.504434508 XXXX 1      oap1    O  -0.800
O2      26.375050111    7.699191066    9.905374699 XXXX 1      oap1    O  -0.800
O3      22.823283867    6.279033415    7.313258439 XXXX 1      oap1    O  -0.800
O4      25.954272841    5.486458567   14.042790620 XXXX 1      oap1    O  -0.800
O6      28.764925401    2.279235432   16.279332779 XXXX 1      oap1    O  -0.800
O7      24.522601098    5.363978628   16.143144065 XXXX 1      oap1    O  -0.800
O9      27.133440609    2.354919712   18.126798081 XXXX 1      oap1    O  -0.800
O10     23.978921040    3.088757428   11.466941975 XXXX 1      oap1    O  -0.800
O11     25.006611766    7.561326440   12.060203438 XXXX 1      oap1    O  -0.800
O12     21.352646991    6.348315514    9.196272514 XXXX 1      oap1    O  -0.800
Ca1     28.992659499    2.853808673   11.422048797 XXXX 1      ca+h    Ca  1.500
Ca2     23.174145006    5.666525167   11.353787487 XXXX 1      ca+h    Ca  1.500
Ca3     20.985674091    5.811421805   13.917576470 XXXX 1      ca+h    Ca  1.500
Ca4     27.006251898    2.981210553   14.232554482 XXXX 1      ca+h    Ca  1.500
Ca5     23.110732818    2.226863939    9.162056619 XXXX 1      ca+h    Ca  1.500
P1      25.402530262    3.413278949   10.912406839 XXXX 1      pap     P   1.000
O13     25.543707114    4.948650103   10.790964957 XXXX 1      oap1    O  -0.800
O14     26.504052772    2.757046781   11.797337412 XXXX 1      oap1    O  -0.800
Ca6     27.063576773    6.200016913   11.995241964 XXXX 1      ca+h    Ca  1.500
P2      25.057170873    8.148089057   10.655642841 XXXX 1      pap     P   1.000
O15     23.926528079    7.437465296    9.941446463 XXXX 1      oap1    O  -0.800
O16     24.838405520    9.671814916   10.600422274 XXXX 1      oap1    O  -0.800
Ca7     22.351189750    8.492537625    8.626825027 XXXX 1      ca+h    Ca  1.500
P3      22.119571757    5.379142797    8.288148967 XXXX 1      pap     P   1.000
O17     23.167706035    4.625578068    9.124668324 XXXX 1      oap1    O  -0.800
O18     21.135310331    4.414695573    7.576899240 XXXX 1      oap1    O  -0.800
Ca8     26.817356622    6.314259771   16.274170278 XXXX 1      ca+h    Ca  1.500
P4      24.560034062    5.083566491   14.644936470 XXXX 1      pap     P   1.000
O19     24.497312485    3.539291763   14.495804767 XXXX 1      oap1    O  -0.800
O20     23.437129568    5.809480852   13.825670075 XXXX 1      oap1    O  -0.800
Ca9     22.954086912    2.265898315   13.462523668 XXXX 1      ca+h    Ca  1.500
P6      27.964698741    3.238484084   17.221252633 XXXX 1      pap     P   1.000
O23     26.944952617    4.027251958   16.322305975 XXXX 1      oap1    O  -0.800
O24     28.927564949    4.131823094   18.028019585 XXXX 1      oap1    O  -0.800
end
O1      21.317654104    2.633873023   15.151250409 XXXX 1      oap1    O  -0.800
O2      22.255124021    7.581417312   15.648242545 XXXX 1      oap1    O  -0.800
O3      18.812146301    5.988092991   12.837196497 XXXX 1      oap1    O  -0.800
O4      21.599066966    5.595678368   19.654922847 XXXX 1      oap1    O  -0.800
O6      24.583949165    2.376833718   21.734990468 XXXX 1      oap1    O  -0.800
O7      20.170104076    5.435288118   21.695246723 XXXX 1      oap1    O  -0.800
O9      23.048943511    2.235229070   23.697146193 XXXX 1      oap1    O  -0.800
O10     20.017627596    3.052007609   17.147164210 XXXX 1      oap1    O  -0.800
O11     20.728040917    7.660277355   17.616494729 XXXX 1      oap1    O  -0.800
O12     17.142662203    6.252709181   14.749611343 XXXX 1      oap1    O  -0.800
Ca1     24.800355188    2.920795210   16.821853045 XXXX 1      ca+h    Ca  1.500
Ca2     19.106066780    5.491341011   16.887857114 XXXX 1      ca+h    Ca  1.500
Ca3     16.823847998    5.536855418   19.712103228 XXXX 1      ca+h    Ca  1.500
Ca4     22.748730356    2.910394833   19.718426526 XXXX 1      ca+h    Ca  1.500
Ca5     18.972043853    2.040985887   14.818147532 XXXX 1      ca+h    Ca  1.500
P1      21.363991254    3.359129424   16.491959780 XXXX 1      pap     P   1.000
O13     21.415043606    4.900960276   16.234975563 XXXX 1      oap1    O  -0.800
O14     22.547004251    2.895809954   17.433450399 XXXX 1      oap1    O  -0.800
Ca6     22.829360136    6.164828106   17.699128959 XXXX 1      ca+h    Ca  1.500
P2      20.878350646    8.087865105   16.161579766 XXXX 1      pap     P   1.000
O15     19.799857942    7.456498642   15.304332309 XXXX 1      oap1    O  -0.800
O16     20.830139293    9.665907605   16.069987018 XXXX 1      oap1    O  -0.800
Ca7     18.047977266    8.304238857   13.952858292 XXXX 1      ca+h    Ca  1.500
P3      17.923819230    5.241080870   13.849365835 XXXX 1      pap     P   1.000
O17     18.928124398    4.524084078   14.838003780 XXXX 1      oap1    O  -0.800
O18     16.950121393    4.264761749   13.197314137 XXXX 1      oap1    O  -0.800
Ca8     22.773904457    6.373833127   21.811276982 XXXX 1      ca+h    Ca  1.500
P4      20.290175927    5.068428489   20.179303936 XXXX 1      pap     P   1.000
O19     20.363201769    3.532919814   20.130305779 XXXX 1      oap1    O  -0.800
O20     19.161982393    5.678446910   19.310348708 XXXX 1      oap1    O  -0.800
Ca9     18.820963769    2.189654829   19.039814059 XXXX 1      ca+h    Ca  1.500
P6      23.797404154    3.170595936   22.767819439 XXXX 1      pap     P   1.000
O23     22.651950459    4.010837551   21.969194312 XXXX 1      oap1    O  -0.800
O24     24.772089611    4.087282959   23.507166451 XXXX 1      oap1    O  -0.800
end
O1      17.154539876    2.679204815   20.652266641 XXXX 1      oap1    O  -0.800
O2      18.082754654    7.753852403   21.414485086 XXXX 1      oap1    O  -0.800
O3      14.540194425    6.105559247   18.560170051 XXXX 1      oap1    O  -0.800
O4      17.401950534    5.488632510   25.446782092 XXXX 1      oap1    O  -0.800
O6      20.443883614    2.005425150   27.816327442 XXXX 1      oap1    O  -0.800
O7      16.071194571    5.068678333   27.357772618 XXXX 1      oap1    O  -0.800
O9      18.710142074    2.328967150   29.610854520 XXXX 1      oap1    O  -0.800
O10     15.760920176    3.016886685   22.625631301 XXXX 1      oap1    O  -0.800
O11     16.380451120    7.418194083   23.257132519 XXXX 1      oap1    O  -0.800
O12     13.083206421    6.214297825   20.500041369 XXXX 1      oap1    O  -0.800
Ca1     20.486201285    3.037699857   22.446337852 XXXX 1      ca+h    Ca  1.500
Ca2     14.900679692    5.522562295   22.488333209 XXXX 1      ca+h    Ca  1.500
Ca3     12.598837373    5.647592148   25.257965169 XXXX 1      ca+h    Ca  1.500
Ca4     18.544727934    2.755301860   25.269370711 XXXX 1      ca+h    Ca  1.500
Ca5     14.799279780    2.125616624   20.426387689 XXXX 1      ca+h    Ca  1.500
P1      17.156307249    3.333722828   22.068281785 XXXX 1      pap     P   1.000
O13     17.263688681    4.864699934   22.035252635 XXXX 1      oap1    O  -0.800
O14     18.149548932    2.624689692   22.997903455 XXXX 1      oap1    O  -0.800
Ca6     18.625960465    6.300217534   23.324202859 XXXX 1      ca+h    Ca  1.500
P2      16.655393415    8.018450284   21.849749682 XXXX 1      pap     P   1.000
O15     15.675044821    7.275109080   20.869456172 XXXX 1      oap1    O  -0.800
O16     16.441106851    9.526886330   21.833368142 XXXX 1      oap1    O  -0.800
Ca7     13.835725335    8.354155913   19.646394866 XXXX 1      ca+h    Ca  1.500
P3      13.744733343    5.283116378   19.500990896 XXXX 1      pap     P   1.000
O17     14.739751103    4.485169126   20.347926696 XXXX 1      oap1    O  -0.800
O18     12.663632200    4.455245804   18.759101620 XXXX 1      oap1    O  -0.800
Ca8     18.346556977    6.278015907   27.565459709 XXXX 1      ca+h    Ca  1.500
P4      16.088686267    4.866594765   25.801459548 XXXX 1      pap     P   1.000
O19     16.100397410    3.386139580   25.537574435 XXXX 1      oap1    O  -0.800
O20     14.932607737    5.717769601   25.217169717 XXXX 1      oap1    O  -0.800
Ca9     14.567618442    2.026965690   24.448128048 XXXX 1      ca+h    Ca  1.500
P6      19.559403053    3.053458067   28.543298476 XXXX 1      pap     P   1.000
O23     18.614306106    3.628290210   27.444423519 XXXX 1      oap1    O  -0.800
O24     20.451221086    4.134238967   29.129774247 XXXX 1      oap1    O  -0.800
end
O1      12.955483303    2.688367444   26.191573485 XXXX 1      oap1    O  -0.800
O2      13.801468124    7.552636091   26.835967665 XXXX 1      oap1    O  -0.800
O3      10.264755373    6.051357881   24.151685603 XXXX 1      oap1    O  -0.800
O4      13.349313322    5.208644695   30.443062924 XXXX 1      oap1    O  -0.800
O5      15.521957766    2.931755214   32.782735191 XXXX 1      oap1    O  -0.625
O6      12.453946192    5.590211967   32.664558633 XXXX 1      oap1    O  -0.800
O7      16.300645586    3.164802565   35.162122576 XXXX 1      oap1    O  -0.650
O8      11.648115193    2.903450363   28.353077510 XXXX 1      oap1    O  -0.800
O9      12.499321169    7.601548462   28.845139374 XXXX 1      oap1    O  -0.800
O10      8.740851058    6.325453195   26.052562845 XXXX 1      oap1    O  -0.800
Ca1     16.500926082    2.817869234   28.206585640 XXXX 1      ca+h    Ca  1.500
Ca2     10.662087065    5.410233727   28.191879167 XXXX 1      ca+h    Ca  1.500
Ca3      8.399315443    6.284269808   30.985130287 XXXX 1      ca+h    Ca  1.500
Ca4     14.124271954    3.124357536   30.840764878 XXXX 1      ca+h    Ca  1.500
Ca5     10.588713798    1.928152610   26.084379253 XXXX 1      ca+h    Ca  1.500
P1      12.940337765    3.391750898   27.652224807 XXXX 1      pap     P   1.000
O11     12.908553330    4.858903516   27.576986652 XXXX 1      oap1    O  -0.800
O12     14.143688613    2.981118371   28.517034880 XXXX 1      oap1    O  -0.800
Ca6     14.683849354    6.314461290   28.779171263 XXXX 1      ca+h    Ca  1.500
P2      12.449621466    8.030785743   27.387890298 XXXX 1      pap     P   1.000
O13     11.382859564    7.260761159   26.682319922 XXXX 1      oap1    O  -0.800
O14     12.263210807    9.569162945   27.229468187 XXXX 1      oap1    O  -0.800
Ca7      9.655218657    8.398677732   25.221634277 XXXX 1      ca+h    Ca  1.500
P3       9.475678647    5.244981367   25.159391229 XXXX 1      pap     P   1.000
O15     10.477666391    4.472241150   25.976219357 XXXX 1      oap1    O  -0.800
O16      8.460718010    4.258527180   24.488500914 XXXX 1      oap1    O  -0.800
Ca8     14.090001838    7.295466809   32.709347487 XXXX 1      ca+h    Ca  1.500
P4      12.096607810    5.149372838   31.218383545 XXXX 1      pap     P   1.000
O17     11.691606071    3.663879036   31.400148300 XXXX 1      oap1    O  -0.800
O18     10.991910149    6.001311125   30.574223652 XXXX 1      oap1    O  -0.800
Ca9     10.270405611    2.210969015   30.167045660 XXXX 1      ca+h    Ca  1.500
P5      15.199049035    3.560532641   34.148561071 XXXX 1      pap     P   1.000
O19     13.806393474    3.032011452   34.613598879 XXXX 1      oap1    O  -0.625
O20     15.189814307    5.030416552   33.958434370 XXXX 1      oap1    O  -0.650
H1      16.427685773    3.828104481   35.884959985 XXXX 1      hop     H   0.400
H2      15.773850178    5.318681629   33.301206627 XXXX 1      hop     H   0.400
end
O1       9.348362491    3.098721591   34.753979407 XXXX 1      oap1    O  -0.625
O2       9.817362332    7.716390766   32.496690274 XXXX 1      oap1    O  -0.625
O3       6.423857729    5.855921583   29.630169488 XXXX 1      oap1    O  -0.800
O4       7.197859930    3.489679554   33.642135495 XXXX 1      oap1    O  -0.650
O5      10.550452582    6.758306731   34.736630691 XXXX 1      oap1    O  -0.650
O6       4.494389505    6.583956781   31.041226186 XXXX 1      oap1    O  -0.800
Ca1     11.576634512    3.655102273   33.749675481 XXXX 1      ca+h    Ca  1.500
Ca2      6.149482892    2.453847570   31.296106573 XXXX 1      ca+h    Ca  1.500
P1       8.428725406    4.189837114   34.088165443 XXXX 1      pap     P   1.000
O7       9.152094784    4.612543673   32.747623293 XXXX 1      oap1    O  -0.625
O8       8.158653161    5.373290547   35.004103420 XXXX 1      oap1    O  -0.650
P2      10.641330492    7.993791924   33.802913164 XXXX 1      pap     P   1.000
O9      10.080139933    9.238551034   34.495076508 XXXX 1      oap1    O  -0.650
O10     12.095828395    8.349958162   33.311980568 XXXX 1      oap1    O  -0.625
Ca3      5.301561155    8.829525679   30.540312980 XXXX 1      ca+h    Ca  1.500
P3       5.440844086    5.444639075   30.684460386 XXXX 1      pap     P   1.000
O11      6.222016654    4.893052063   31.893454777 XXXX 1      oap1    O  -0.800
O12      4.565691097    4.316624360   30.153830890 XXXX 1      oap1    O  -0.800
H1       9.786718626    6.851571293   35.239985307 XXXX 1      hop     H   0.400
H2       9.334002795    9.635369029   34.077521525 XXXX 1      hop     H   0.400
H3       6.867526765    4.100130734   33.000849610 XXXX 1      hop     H   0.400
H4       7.408992867    5.883750573   34.663170726 XXXX 1      hop     H   0.400
end
O1      22.818274099   11.833965938    1.355590988 XXXX 1      oap1    O  -0.650
O2      27.074193028   14.023454391    3.302441011 XXXX 1      oap1    O  -0.650
O3      26.438260107   13.631592747    5.616803382 XXXX 1      oap1    O  -0.800
O4      24.465412305    8.572983775    5.121092901 XXXX 1      oap1    O  -0.800
O5      29.464079120   10.249541576    7.938521913 XXXX 1      oap1    O  -0.800
O6      25.014518879   13.375663911    7.682877195 XXXX 1      oap1    O  -0.800
O7      24.408911885    8.857393259    7.557067761 XXXX 1      oap1    O  -0.800
O8      27.749079697   10.336022861    9.701517252 XXXX 1      oap1    O  -0.800
O9      22.406212105   12.431494251    3.653747595 XXXX 1      oap1    O  -0.625
O10     25.744625596   16.034305055    3.789999487 XXXX 1      oap1    O  -0.625
Ca1     21.726497454   13.887603494    5.798665375 XXXX 1      ca+h    Ca  1.500
Ca2     27.479958749   11.132392121    5.383881022 XXXX 1      ca+h    Ca  1.500
P1      22.671835519   13.015733276    2.242453753 XXXX 1      pap     P   1.000
O11     21.470434538   14.002447697    1.857049320 XXXX 1      oap1    O  -0.625
O12     23.972031763   13.818289662    2.328689110 XXXX 1      oap1    O  -0.650
P2      26.973719915   15.517821076    3.049342214 XXXX 1      pap     P   1.000
O13     26.748330333   15.866320080    1.619499469 XXXX 1      oap1    O  -0.650
O14     28.206911360   16.274254966    3.667073766 XXXX 1      oap1    O  -0.625
Ca3     27.353558122   14.220664204    7.804650229 XXXX 1      ca+h    Ca  1.500
P3      25.089719915   13.153986474    6.152482525 XXXX 1      pap     P   1.000
O15     24.922716448   11.628534274    5.896336202 XXXX 1      oap1    O  -0.800
O16     23.983216168   14.027320310    5.532911812 XXXX 1      oap1    O  -0.800
Ca4     23.093088068   10.469940315    4.736627978 XXXX 1      ca+h    Ca  1.500
P4      25.283696136    8.400964103    6.393905853 XXXX 1      pap     P   1.000
O17     26.539438134    9.282797923    6.485557797 XXXX 1      oap1    O  -0.800
O18     25.586320612    6.948661767    6.569981479 XXXX 1      oap1    O  -0.800
Ca5     28.139423224    8.244244077    8.246664106 XXXX 1      ca+h    Ca  1.500
P5      28.461614728   11.228658996    8.643045495 XXXX 1      pap     P   1.000
O19     27.409387271   11.775970669    7.694429915 XXXX 1      oap1    O  -0.800
O20     29.322327313   12.344771661    9.365784116 XXXX 1      oap1    O  -0.800
O21     21.003233245    8.306897879    6.638871565 XXXX 1      oap2    O  -1.100
H1      20.780260696    8.215891128    5.740392176 XXXX 1      hop     H   0.200
H2      26.251978307   15.164981171    1.281833489 XXXX 1      hop     H   0.400
H3      26.742210528   13.976135752    4.177455792 XXXX 1      hop     H   0.400
H4      23.997819012   14.292863877    3.189724079 XXXX 1      hop     H   0.400
H5      22.027472958   11.306921671    1.407150234 XXXX 1      hop     H   0.400
end
O1      21.729930580   11.329450408    6.513585012 XXXX 1      oap1    O  -0.800
O2      22.720423715   15.724818456    7.103015790 XXXX 1      oap1    O  -0.800
O3      19.481748261   14.187939118    4.921626413 XXXX 1      oap1    O  -0.800
O4      22.147209376   13.488222037   11.000060302 XXXX 1      oap1    O  -0.800
O5      21.273711813    9.263071340   10.525957456 XXXX 1      oap1    O  -0.800
O6      25.055912883   10.428394217   13.655717487 XXXX 1      oap1    O  -0.800
O7      20.880523757   13.816851656   13.166638019 XXXX 1      oap1    O  -0.800
O8      19.837177475    8.877557385   12.607050273 XXXX 1      oap1    O  -0.800
O9      23.468411958   10.502130244   15.504391293 XXXX 1      oap1    O  -0.800
O10     20.394081844   11.130929431    8.632499797 XXXX 1      oap1    O  -0.800
O11     21.357125598   15.901483919    9.246361575 XXXX 1      oap1    O  -0.800
O12     17.594374886   14.607568171    6.403160102 XXXX 1      oap1    O  -0.800
Ca1     25.192873810   11.017452108    8.361247308 XXXX 1      ca+h    Ca  1.500
Ca2     19.318306861   13.613766123    8.554724494 XXXX 1      ca+h    Ca  1.500
Ca3     17.299598108   13.916962834   11.184307182 XXXX 1      ca+h    Ca  1.500
Ca4     22.962387748   11.050209224   11.209950900 XXXX 1      ca+h    Ca  1.500
Ca5     19.550350727   10.253410232    6.297469220 XXXX 1      ca+h    Ca  1.500
P1      21.730506825   11.581490062    8.072262116 XXXX 1      pap     P   1.000
O13     21.791653648   13.100858141    8.225297853 XXXX 1      oap1    O  -0.800
O14     22.864013885   10.915600133    8.891124642 XXXX 1      oap1    O  -0.800
Ca6     23.479143242   14.420673394    9.199285031 XXXX 1      ca+h    Ca  1.500
P2      21.398006376   16.189816220    7.717680817 XXXX 1      pap     P   1.000
O15     20.295671577   15.320160245    7.124333457 XXXX 1      oap1    O  -0.800
O16     21.153968023   17.722832769    7.522357141 XXXX 1      oap1    O  -0.800
Ca7     18.937749462   16.766836557    5.582281522 XXXX 1      ca+h    Ca  1.500
P3      18.279247773   13.488590397    5.593252206 XXXX 1      pap     P   1.000
O17     18.778112087   12.421833473    6.592249233 XXXX 1      oap1    O  -0.800
O18     17.274273714   12.956981572    4.525720195 XXXX 1      oap1    O  -0.800
Ca8     23.163961293   14.398652056   13.479388162 XXXX 1      ca+h    Ca  1.500
P4      20.839194121   13.208179342   11.781302940 XXXX 1      pap     P   1.000
O19     20.725499788   11.696449091   11.916839053 XXXX 1      oap1    O  -0.800
O20     19.650206220   13.850361444   10.969609285 XXXX 1      oap1    O  -0.800
Ca9     19.183042832   10.376658881   10.532171329 XXXX 1      ca+h    Ca  1.500
P5      21.215961180    8.562857916   11.938399033 XXXX 1      pap     P   1.000
O21     22.329824534    9.128097554   12.758378880 XXXX 1      oap1    O  -0.800
O22     21.380348043    7.096284966   11.873791232 XXXX 1      oap1    O  -0.800
Ca10    24.052882646    8.198823490   14.135001555 XXXX 1      ca+h    Ca  1.500
P6      24.237273102   11.335344708   14.493714176 XXXX 1      pap     P   1.000
O23     23.222129155   12.070080659   13.583681242 XXXX 1      oap1    O  -0.800
O24     25.138523474   12.318471300   15.263367865 XXXX 1      oap1    O  -0.800
O25     16.457133907    8.481140347   12.325810215 XXXX 1      oap2    O  -1.100
O26     18.643521508    8.262548920    9.499602230 XXXX 1      oap2    O  -1.100
H1      16.777099735    9.183229671   11.816022919 XXXX 1      hop     H   0.200
H2      18.733935791    8.719375162    8.651726769 XXXX 1      hop     H   0.200
end
O1      17.490684867   11.061686628   12.064134516 XXXX 1      oap1    O  -0.800
O2      18.466524745   15.681970119   12.902820142 XXXX 1      oap1    O  -0.800
O3      14.938644522   14.263862404   10.064366819 XXXX 1      oap1    O  -0.800
O4      17.988017214   13.582894685   16.930611617 XXXX 1      oap1    O  -0.800
O5      17.287576231    9.002827692   16.245871012 XXXX 1      oap1    O  -0.800
O6      20.916929061   10.252330733   19.393758545 XXXX 1      oap1    O  -0.800
O7      16.543319205   13.629463181   18.857452627 XXXX 1      oap1    O  -0.800
O8      15.727045873    8.985384096   18.193842280 XXXX 1      oap1    O  -0.800
O9      19.033481334   10.570816314   21.120336287 XXXX 1      oap1    O  -0.800
O10     16.126485786   10.985510516   14.012785648 XXXX 1      oap1    O  -0.800
O11     16.961566710   15.709624291   14.868111834 XXXX 1      oap1    O  -0.800
O12     13.287068395   14.324389030   11.896996918 XXXX 1      oap1    O  -0.800
Ca1     21.035419399   10.886708339   14.139847900 XXXX 1      ca+h    Ca  1.500
Ca2     15.262518060   13.983610469   14.012116121 XXXX 1      ca+h    Ca  1.500
Ca3     13.149455841   13.715648754   16.787015758 XXXX 1      ca+h    Ca  1.500
Ca4     18.815822916   10.966601456   16.784919933 XXXX 1      ca+h    Ca  1.500
Ca5     15.067680371   10.394572519   11.930984445 XXXX 1      ca+h    Ca  1.500
P1      17.468633499   11.505297587   13.535739275 XXXX 1      pap     P   1.000
O13     17.440127480   13.047295139   13.628348579 XXXX 1      oap1    O  -0.800
O14     18.591577754   10.854608793   14.404753578 XXXX 1      oap1    O  -0.800
Ca6     19.130177042   14.317300761   14.947942444 XXXX 1      ca+h    Ca  1.500
P2      17.151199588   16.284986798   13.421449017 XXXX 1      pap     P   1.000
O15     16.031058719   15.668307999   12.592252039 XXXX 1      oap1    O  -0.800
O16     17.186826509   17.832763428   13.367020767 XXXX 1      oap1    O  -0.800
Ca7     14.327103226   16.605629972   11.134766903 XXXX 1      ca+h    Ca  1.500
P3      14.047100289   13.382909871   10.978807068 XXXX 1      pap     P   1.000
O17     15.026266319   12.676624816   12.009665572 XXXX 1      oap1    O  -0.800
O18     13.027296697   12.484039424   10.236663902 XXXX 1      oap1    O  -0.800
Ca8     18.749083958   14.490815125   19.060004435 XXXX 1      ca+h    Ca  1.500
P4      16.581263793   13.167823153   17.380406619 XXXX 1      pap     P   1.000
O19     16.477044637   11.622111629   17.388448886 XXXX 1      oap1    O  -0.800
O20     15.415378173   13.914169989   16.612666610 XXXX 1      oap1    O  -0.800
Ca9     15.006181332   10.213799317   16.056797547 XXXX 1      ca+h    Ca  1.500
P5      17.095025446    8.532347349   17.688038339 XXXX 1      pap     P   1.000
O21     18.211209565    9.248325659   18.495408266 XXXX 1      oap1    O  -0.800
O22     17.226629901    6.999099876   17.811736115 XXXX 1      oap1    O  -0.800
Ca10    19.851997928    8.073937211   19.751063099 XXXX 1      ca+h    Ca  1.500
P6      20.020743641   11.315958299   20.111728384 XXXX 1      pap     P   1.000
O23     19.134259654   12.059668718   19.079722579 XXXX 1      oap1    O  -0.800
O24     20.989774049   12.380878808   20.781702992 XXXX 1      oap1    O  -0.800
O25     12.402727169    8.240546874   17.730362290 XXXX 1      oap2    O  -1.100
O26     14.624383460    8.183430564   15.022006141 XXXX 1      oap2    O  -1.100
H1      13.007462455    7.726893384   17.264973426 XXXX 1      hop     H   0.200
H2      15.043164763    8.382210989   14.178401262 XXXX 1      hop     H   0.200
end
O1      13.415640073   11.144232768   17.761424331 XXXX 1      oap1    O  -0.800
O2      14.297155502   15.868006647   18.262787811 XXXX 1      oap1    O  -0.800
O3      10.931898678   14.230764038   15.953554283 XXXX 1      oap1    O  -0.800
O4      13.772678886   13.414494328   22.321782824 XXXX 1      oap1    O  -0.800
O5      13.256234527    9.085875832   21.886562568 XXXX 1      oap1    O  -0.800
O6      16.763195435   10.107288694   25.074843091 XXXX 1      oap1    O  -0.800
O7      12.547199920   13.587658067   24.480759237 XXXX 1      oap1    O  -0.800
O8      11.444841452    8.705245018   23.656638687 XXXX 1      oap1    O  -0.800
O9      15.008181701   10.523485963   26.729666182 XXXX 1      oap1    O  -0.800
O10     12.071575793   10.891917428   19.802051318 XXXX 1      oap1    O  -0.800
O11     12.894013898   15.849489662   20.329360736 XXXX 1      oap1    O  -0.800
O12      9.139612079   14.533896275   17.516453726 XXXX 1      oap1    O  -0.800
Ca1     16.929921118   11.016294472   19.735788159 XXXX 1      ca+h    Ca  1.500
Ca2     11.162780165   13.853961393   19.829796313 XXXX 1      ca+h    Ca  1.500
Ca3      8.984016062   13.787713757   22.570697080 XXXX 1      ca+h    Ca  1.500
Ca4     14.542057359   10.945572330   22.386557819 XXXX 1      ca+h    Ca  1.500
Ca5     11.076274066   10.172159575   17.559916818 XXXX 1      ca+h    Ca  1.500
P1      13.323063653   11.525379698   19.255232252 XXXX 1      pap     P   1.000
O13     13.300908981   13.047429439   19.401465817 XXXX 1      oap1    O  -0.800
O14     14.551621213   10.865351041   20.034001075 XXXX 1      oap1    O  -0.800
Ca6     14.966023052   14.348660738   20.439369690 XXXX 1      ca+h    Ca  1.500
P2      12.946932090   16.298138510   18.855963755 XXXX 1      pap     P   1.000
O15     11.825968428   15.573897458   18.096992976 XXXX 1      oap1    O  -0.800
O16     12.784170856   17.850325481   18.842973354 XXXX 1      oap1    O  -0.800
Ca7     10.220366553   16.662569039   16.753842284 XXXX 1      ca+h    Ca  1.500
P3       9.935984340   13.460953886   16.811640771 XXXX 1      pap     P   1.000
O17     10.639164546   12.682485565   17.852762098 XXXX 1      oap1    O  -0.800
O18      8.921194476   12.560553500   15.985727075 XXXX 1      oap1    O  -0.800
Ca8     14.842839622   14.195961693   24.612967537 XXXX 1      ca+h    Ca  1.500
P4      12.449782485   13.116475437   22.983236862 XXXX 1      pap     P   1.000
O19     12.350425431   11.606209839   22.995917971 XXXX 1      oap1    O  -0.800
O20     11.360787792   13.836335293   22.167306390 XXXX 1      oap1    O  -0.800
Ca9     10.806012244   10.281367886   21.749984065 XXXX 1      ca+h    Ca  1.500
P5      12.896031122    8.462088938   23.243174767 XXXX 1      pap     P   1.000
O21     13.811206795    9.153332135   24.260301409 XXXX 1      oap1    O  -0.800
O22     13.135426224    6.940709488   23.248853009 XXXX 1      oap1    O  -0.800
Ca10    15.671931425    8.076089885   25.485082340 XXXX 1      ca+h    Ca  1.500
P6      15.867809907   11.215003715   25.625441317 XXXX 1      pap     P   1.000
O23     14.874927198   11.836077074   24.571126237 XXXX 1      oap1    O  -0.800
O24     16.723673512   12.288898672   26.313941074 XXXX 1      oap1    O  -0.800
O25      8.176154962    8.295505646   23.106111524 XXXX 1      oap2    O  -1.100
O26     10.759692741    8.172506662   20.297869369 XXXX 1      oap2    O  -1.100
H1       8.011594820    8.759472740   22.283912368 XXXX 1      hop     H   0.200
H2      11.005930326    8.652305704   19.535239124 XXXX 1      hop     H   0.200
end
O1       9.295938701   11.032267172   23.477614505 XXXX 1      oap1    O  -0.800
O2      10.130509269   15.744260710   23.737277748 XXXX 1      oap1    O  -0.800
O3       6.312864868   14.555127101   21.279187446 XXXX 1      oap1    O  -0.800
O4       9.727229205   13.490799338   27.802594496 XXXX 1      oap1    O  -0.800
O5       9.001306085    9.145897629   27.417542293 XXXX 1      oap1    O  -0.800
O6      12.117156200   10.747699739   29.968327215 XXXX 1      oap1    O  -0.800
O7       8.399451824   13.805728578   29.838578691 XXXX 1      oap1    O  -0.800
O8       7.228747873    8.741103373   29.159688857 XXXX 1      oap1    O  -0.800
O9      10.896421235   10.447255510   32.062961738 XXXX 1      oap1    O  -0.800
O10      7.848255461   11.235057163   25.397252088 XXXX 1      oap1    O  -0.800
O11      9.026553660   15.844366917   25.973639925 XXXX 1      oap1    O  -0.800
O12      4.955333970   14.338266891   23.329260408 XXXX 1      oap1    O  -0.800
Ca1     12.755539951   10.974656947   25.328570762 XXXX 1      ca+h    Ca  1.500
Ca2      6.871530111   13.700136145   25.234441847 XXXX 1      ca+h    Ca  1.500
Ca3      4.722622578   13.814185083   27.823027488 XXXX 1      ca+h    Ca  1.500
Ca4     10.513960934   11.046522707   28.086759006 XXXX 1      ca+h    Ca  1.500
Ca5      6.900485103   10.380615153   23.188800237 XXXX 1      ca+h    Ca  1.500
P1       9.255772114   11.590294734   24.935993192 XXXX 1      pap     P   1.000
O13      9.470009082   13.145926061   24.812673537 XXXX 1      oap1    O  -0.800
O14     10.384824121   10.830508004   25.649102961 XXXX 1      oap1    O  -0.800
Ca6     10.911803229   14.424767216   25.989699993 XXXX 1      ca+h    Ca  1.500
P2       8.873929254   16.327165432   24.489232386 XXXX 1      pap     P   1.000
O15      7.666647866   15.527951029   23.928602144 XXXX 1      oap1    O  -0.800
O16      8.742542677   17.863563895   24.299603280 XXXX 1      oap1    O  -0.800
Ca7      5.941894704   16.670768463   22.517291857 XXXX 1      ca+h    Ca  1.500
P3       5.749031258   13.557485445   22.272857063 XXXX 1      pap     P   1.000
O17      6.866506701   12.841322359   23.006718474 XXXX 1      oap1    O  -0.800
O18      4.917048968   12.468424656   21.562460428 XXXX 1      oap1    O  -0.800
Ca8     10.582182844   14.546929201   30.132537161 XXXX 1      ca+h    Ca  1.500
P4       8.369393301   13.174967970   28.428138263 XXXX 1      pap     P   1.000
O19      8.219208656   11.672622809   28.607178131 XXXX 1      oap1    O  -0.800
O20      7.182015154   13.811749642   27.680756529 XXXX 1      oap1    O  -0.800
Ca9      6.762499239   10.260514911   27.248342000 XXXX 1      ca+h    Ca  1.500
P5       8.684903368    8.632635683   28.835912751 XXXX 1      pap     P   1.000
O21      9.526024673    9.466374840   29.769189949 XXXX 1      oap1    O  -0.800
O22      9.122114406    7.121883286   29.020476724 XXXX 1      oap1    O  -0.800
Ca10    11.452179024    8.443021786   30.700149552 XXXX 1      ca+h    Ca  1.500
P6      11.580002700   11.475756988   31.176069670 XXXX 1      pap     P   1.000
O23     10.479368913   12.332150108   30.575154127 XXXX 1      oap1    O  -0.800
O24     12.639379280   12.137674025   32.009299543 XXXX 1      oap1    O  -0.800
O25      4.301666124    8.480854969   28.354552720 XXXX 1      oap2    O  -1.100
O26      6.419145494    8.266150206   26.024322118 XXXX 1      oap2    O  -1.100
H1       4.787234435    8.371867039   27.563109826 XXXX 1      hop     H   0.200
H2       6.920305207    8.137718881   25.178743843 XXXX 1      hop     H   0.200
end
O1       5.053621476   11.201915239   28.832209701 XXXX 1      oap1    O  -0.800
O2       6.161975684   15.920005727   29.437982336 XXXX 1      oap1    O  -0.800
O3       2.310389308   14.400602218   26.881560498 XXXX 1      oap1    O  -0.800
O4       3.617019916   14.659114164   32.951710047 XXXX 1      oap1    O  -0.650
O5       5.084519268    8.900235072   33.077249732 XXXX 1      oap1    O  -0.625
O6       4.450173096   14.595113123   35.217409408 XXXX 1      oap1    O  -0.650
O7       6.437005661    6.860159473   33.873816500 XXXX 1      oap1    O  -0.650
O8       3.782779346   11.494018528   30.878548318 XXXX 1      oap1    O  -0.800
O9       4.854694654   15.994176598   31.508685013 XXXX 1      oap1    O  -0.800
O10      0.808836850   14.432476116   28.772531370 XXXX 1      oap1    O  -0.800
Ca1      8.512064279   11.193091646   31.076106223 XXXX 1      ca+h    Ca  1.500
Ca2      2.862999108   13.859487833   30.813273986 XXXX 1      ca+h    Ca  1.500
Ca3      2.701257126   10.251589944   28.714665656 XXXX 1      ca+h    Ca  1.500
P1       5.150797164   11.777661698   30.249671051 XXXX 1      pap     P   1.000
O11      5.190188852   13.351084085   30.229593680 XXXX 1      oap1    O  -0.800
O12      6.237685243   11.036784195   31.102011065 XXXX 1      oap1    O  -0.800
Ca4      6.843401768   14.570604143   31.421216763 XXXX 1      ca+h    Ca  1.500
P2       4.796801129   16.383244024   30.024863385 XXXX 1      pap     P   1.000
O13      3.590441784   15.660026058   29.353473615 XXXX 1      oap1    O  -0.800
O14      4.664916523   17.911024930   29.994836221 XXXX 1      oap1    O  -0.800
Ca5      1.924933614   16.484364701   28.086405550 XXXX 1      ca+h    Ca  1.500
P3       1.585206210   13.463727210   27.889893192 XXXX 1      pap     P   1.000
O15      2.591721233   12.718624686   28.748515651 XXXX 1      oap1    O  -0.800
O16      0.735810804   12.465562304   27.093593135 XXXX 1      oap1    O  -0.800
P4       4.443703981   13.808521140   33.874842203 XXXX 1      pap     P   1.000
O17      5.890285938   13.769928711   33.342937754 XXXX 1      oap1    O  -0.625
O18      3.881421278   12.371826398   33.927265928 XXXX 1      oap1    O  -0.625
Ca6      3.050011324   10.455769865   32.739816072 XXXX 1      ca+h    Ca  1.500
P5       6.491371567    8.294442794   33.283004633 XXXX 1      pap     P   1.000
O19      7.284859707    9.174186763   34.271836433 XXXX 1      oap1    O  -0.650
O20      7.193573063    8.278593072   31.877930353 XXXX 1      oap1    O  -0.625
O21      2.846117771    8.865864296   30.960434685 XXXX 1      oap2    O  -1.100
H1       3.360745963    8.208385003   31.457860699 XXXX 1      hop     H   0.200
H2       3.922191890   15.378171418   35.093450279 XXXX 1      hop     H   0.400
H3       6.640403062    9.867197940   34.471762257 XXXX 1      hop     H   0.400
H4       4.010450635   15.451891621   32.608217026 XXXX 1      hop     H   0.400
H5       5.724384305    6.487970613   33.416034564 XXXX 1      hop     H   0.400
end
O1      18.290917866   19.807205730    3.709023516 XXXX 1      oap1    O  -0.800
O2      18.880275435   24.404986726    5.226481022 XXXX 1      oap1    O  -0.800
O3      13.733180053   21.246309430    1.491613211 XXXX 1      oap1    O  -0.650
O4      18.191401934   22.144922442    8.590473212 XXXX 1      oap1    O  -0.800
O5      17.816606436   17.325623231    7.758647030 XXXX 1      oap1    O  -0.800
O6      21.058377148   18.768801336   10.304482702 XXXX 1      oap1    O  -0.800
O7      16.814553292   22.064869343   10.515098349 XXXX 1      oap1    O  -0.800
O8      16.056913198   17.088533662    9.550741695 XXXX 1      oap1    O  -0.800
O9      19.830210479   18.504068967   12.438542326 XXXX 1      oap1    O  -0.800
O10     16.816595494   19.731776276    5.840057923 XXXX 1      oap1    O  -0.800
O11     17.024415210   23.902805252    6.644183116 XXXX 1      oap1    O  -0.800
O12     14.020342350   21.788732321    3.933215315 XXXX 1      oap1    O  -0.625
Ca1     21.592285774   19.691244328    5.446218317 XXXX 1      ca+h    Ca  1.500
Ca2     15.781297051   22.030194346    5.703812692 XXXX 1      ca+h    Ca  1.500
Ca3     13.259374458   21.905283955    8.305560920 XXXX 1      ca+h    Ca  1.500
Ca4     19.421630163   19.090820577    8.448055746 XXXX 1      ca+h    Ca  1.500
P1      18.225034907   19.969226813    5.270869223 XXXX 1      pap     P   1.000
O13     18.488850330   21.460613728    5.433878057 XXXX 1      oap1    O  -0.800
O14     19.321040300   19.104860183    5.920092548 XXXX 1      oap1    O  -0.800
Ca5     19.672765257   22.979105311    6.955804582 XXXX 1      ca+h    Ca  1.500
P2      17.325509925   24.511216192    5.278329581 XXXX 1      pap     P   1.000
O15     16.758511209   23.610826128    4.184690416 XXXX 1      oap1    O  -0.800
O16     16.856692202   25.945508265    5.154140928 XXXX 1      oap1    O  -0.800
P3      14.607590719   21.004982144    2.742667853 XXXX 1      pap     P   1.000
O17     15.985858524   21.598638842    2.475327234 XXXX 1      oap1    O  -0.625
O18     14.709155783   19.508756850    2.987236192 XXXX 1      oap1    O  -0.650
Ca6     19.155356381   22.892825245   10.656089910 XXXX 1      ca+h    Ca  1.500
P4      16.903451506   21.477128059    9.086180501 XXXX 1      pap     P   1.000
O19     17.169116245   19.935005419    9.060487100 XXXX 1      oap1    O  -0.800
O20     15.660372462   21.944689138    8.262112319 XXXX 1      oap1    O  -0.800
Ca7     15.574711430   18.721696283    7.635476255 XXXX 1      ca+h    Ca  1.500
P5      17.489372856   16.690871787    9.171447063 XXXX 1      pap     P   1.000
O21     18.388321839   17.214348447   10.293459736 XXXX 1      oap1    O  -0.800
O22     17.572091857   15.111839864    9.196743582 XXXX 1      oap1    O  -0.800
Ca8     20.306512707   16.324846788   11.492836287 XXXX 1      ca+h    Ca  1.500
P6      20.490239705   19.563108698   11.545717223 XXXX 1      pap     P   1.000
O23     19.429004417   20.518981254   10.960202370 XXXX 1      oap1    O  -0.800
O24     21.564345695   20.336062090   12.369259943 XXXX 1      oap1    O  -0.800
O25     15.216535891   16.433981927    6.376783407 XXXX 1      oap2    O  -1.100
O26     17.982527801   15.866621929    3.392884734 XXXX 1      oap2    O  -1.100
H1      15.256459701   16.938025302    5.547662129 XXXX 1      hop     H   0.200
H2      17.982295491   16.639396199    2.857840867 XXXX 1      hop     H   0.200
H3      14.406298589   19.371182786    3.882830864 XXXX 1      hop     H   0.400
H4      14.181259524   21.841517399    0.909843083 XXXX 1      hop     H   0.400
end
O1      13.936303153   19.376911445    9.378006425 XXXX 1      oap1    O  -0.800
O2      14.831855589   23.910275029   10.446275029 XXXX 1      oap1    O  -0.800
O3      11.057111363   22.228932563    7.235130852 XXXX 1      oap1    O  -0.800
O4      14.327158163   21.700548777   14.274136752 XXXX 1      oap1    O  -0.800
O5      13.714905456   17.149010453   13.362969488 XXXX 1      oap1    O  -0.800
O6      16.992594935   18.710576484   16.079634553 XXXX 1      oap1    O  -0.800
O7      12.808555686   21.559606117   16.228546925 XXXX 1      oap1    O  -0.800
O8      11.899640856   17.107923126   15.247570309 XXXX 1      oap1    O  -0.800
O9      15.593500734   18.630468435   18.108674935 XXXX 1      oap1    O  -0.800
O10     12.443701067   19.087765536   11.252627232 XXXX 1      oap1    O  -0.800
O11     13.066369317   23.687904474   12.207566924 XXXX 1      oap1    O  -0.800
O12      9.526254526   22.526830991    9.143206580 XXXX 1      oap1    O  -0.800
Ca1     17.375323019   19.190741345   11.299215763 XXXX 1      ca+h    Ca  1.500
Ca2     11.612727076   21.837190496   11.527459135 XXXX 1      ca+h    Ca  1.500
Ca3      9.397515896   21.964605376   14.198079557 XXXX 1      ca+h    Ca  1.500
Ca4     15.324325480   19.190935815   14.080299518 XXXX 1      ca+h    Ca  1.500
Ca5     11.511895335   18.567945345    9.235111350 XXXX 1      ca+h    Ca  1.500
P1      13.852123995   19.694872443   10.929846593 XXXX 1      pap     P   1.000
O13     13.877969813   21.192085130   11.225929416 XXXX 1      oap1    O  -0.800
O14     15.041627053   18.979429211   11.658579481 XXXX 1      oap1    O  -0.800
Ca6     15.435731744   22.563447705   12.329756650 XXXX 1      ca+h    Ca  1.500
P2      13.352395961   24.295263838   10.782086371 XXXX 1      pap     P   1.000
O15     12.409463854   23.574906596    9.817383947 XXXX 1      oap1    O  -0.800
O16     13.219069917   25.833957961   10.685837494 XXXX 1      oap1    O  -0.800
Ca7     10.575653261   24.593092229    8.545627640 XXXX 1      ca+h    Ca  1.500
P3      10.310600292   21.457109634    8.373625136 XXXX 1      pap     P   1.000
O17     11.275456202   20.836831043    9.328653861 XXXX 1      oap1    O  -0.800
O18      9.296201731   20.457948259    7.781957873 XXXX 1      oap1    O  -0.800
Ca8     15.184202381   22.824837685   16.267945474 XXXX 1      ca+h    Ca  1.500
P4      12.946106432   21.289571365   14.672085585 XXXX 1      pap     P   1.000
O19     12.840132855   19.768906476   14.479981984 XXXX 1      oap1    O  -0.800
O20     11.844172587   22.005894232   13.860217389 XXXX 1      oap1    O  -0.800
Ca9     11.221857025   18.541368170   13.186596066 XXXX 1      ca+h    Ca  1.500
P5      13.353442143   16.749378612   14.729487473 XXXX 1      pap     P   1.000
O21     14.268075793   17.452183791   15.741283372 XXXX 1      oap1    O  -0.800
O22     13.507515958   15.286272434   14.916239861 XXXX 1      oap1    O  -0.800
Ca10    16.024378044   16.434463732   16.897333571 XXXX 1      ca+h    Ca  1.500
P6      16.377258699   19.566455387   17.164774785 XXXX 1      pap     P   1.000
O23     15.308595838   20.448703505   16.488671212 XXXX 1      oap1    O  -0.800
O24     17.417542417   20.456667826   17.909233468 XXXX 1      oap1    O  -0.800
O25     10.707974331   16.418142852   12.176163735 XXXX 1      oap2    O  -1.100
O26     12.818144328   16.416900981    9.293992833 XXXX 1      oap2    O  -1.100
H1      11.076894258   16.384120448   11.355852253 XXXX 1      hop     H   0.200
H2      12.833273360   16.155662269    8.383252955 XXXX 1      hop     H   0.200
end
O1       9.778889527   19.084456078   14.948728735 XXXX 1      oap1    O  -0.800
O2      10.629433896   23.916046825   15.840586864 XXXX 1      oap1    O  -0.800
O3       6.945865732   22.381922589   12.943934206 XXXX 1      oap1    O  -0.800
O4      10.028746987   21.618905878   19.576875094 XXXX 1      oap1    O  -0.800
O5       8.883990651   16.958220265   18.911524499 XXXX 1      oap1    O  -0.800
O6      12.867713647   18.621214780   21.704651335 XXXX 1      oap1    O  -0.800
O7       8.648679082   21.666879291   21.623570467 XXXX 1      oap1    O  -0.800
O8       7.685264505   17.199992047   21.106976015 XXXX 1      oap1    O  -0.800
O9      11.596036289   18.519752256   23.777303228 XXXX 1      oap1    O  -0.800
O10      8.319848234   19.235056501   16.959598635 XXXX 1      oap1    O  -0.800
O11      9.004330773   23.903719323   17.678562281 XXXX 1      oap1    O  -0.800
O12      5.360869754   22.427145806   14.906734475 XXXX 1      oap1    O  -0.800
Ca1     13.306707384   19.270565508   17.092507909 XXXX 1      ca+h    Ca  1.500
Ca2      7.328119031   21.921374058   16.923189160 XXXX 1      ca+h    Ca  1.500
Ca3      5.193331985   21.852862917   19.689776816 XXXX 1      ca+h    Ca  1.500
Ca4     10.930966780   19.045468190   19.592581703 XXXX 1      ca+h    Ca  1.500
Ca5      7.338525281   18.326834791   14.777028719 XXXX 1      ca+h    Ca  1.500
P1       9.689457517   19.663221009   16.392518252 XXXX 1      pap     P   1.000
O13      9.658208404   21.200843321   16.375457998 XXXX 1      oap1    O  -0.800
O14     10.870992973   19.106942274   17.252753860 XXXX 1      oap1    O  -0.800
Ca6     11.168535225   22.479444062   17.709535553 XXXX 1      ca+h    Ca  1.500
P2       9.227492893   24.436338854   16.257229075 XXXX 1      pap     P   1.000
O15      8.150892966   23.697167522   15.405312108 XXXX 1      oap1    O  -0.800
O16      9.243063661   25.967688234   16.111883510 XXXX 1      oap1    O  -0.800
Ca7      6.362327099   24.692538885   14.121253783 XXXX 1      ca+h    Ca  1.500
P3       6.109232836   21.504707204   13.965893425 XXXX 1      pap     P   1.000
O17      7.128436663   20.735768242   14.809857224 XXXX 1      oap1    O  -0.800
O18      5.184238700   20.527055694   13.306482487 XXXX 1      oap1    O  -0.800
Ca8     10.947355065   22.608224028   21.840522256 XXXX 1      ca+h    Ca  1.500
P4       8.660877471   21.312584096   20.129706220 XXXX 1      pap     P   1.000
O19      8.554981253   19.785843219   19.992993809 XXXX 1      oap1    O  -0.800
O20      7.564197724   22.054144148   19.315164516 XXXX 1      oap1    O  -0.800
Ca9      6.917592044   18.325833466   18.836800934 XXXX 1      ca+h    Ca  1.500
P5       9.010582645   16.686313994   20.442526499 XXXX 1      pap     P   1.000
O21     10.136169075   17.458679872   21.116067564 XXXX 1      oap1    O  -0.800
O22      9.234574801   15.167774150   20.602981816 XXXX 1      oap1    O  -0.800
Ca10    11.846682701   16.335978957   22.317539730 XXXX 1      ca+h    Ca  1.500
P6      12.125526345   19.497360289   22.701521443 XXXX 1      pap     P   1.000
O23     10.906141141   20.149799698   21.995239042 XXXX 1      oap1    O  -0.800
O24     13.049002817   20.543836778   23.379741665 XXXX 1      oap1    O  -0.800
O25      5.768831437   16.387853324   18.678192796 XXXX 1      oap2    O  -1.100
O26      8.701838846   16.342936487   14.905154525 XXXX 1      oap2    O  -1.100
H1       5.276886807   16.486652630   19.436181864 XXXX 1      hop     H   0.200
H2       9.241071783   16.331127329   14.154396163 XXXX 1      hop     H   0.200
end
O1       5.483834985   19.288537687   20.587963124 XXXX 1      oap1    O  -0.800
O2       6.365419460   23.891143128   21.245107401 XXXX 1      oap1    O  -0.800
O3       2.734045331   22.464051093   18.578488940 XXXX 1      oap1    O  -0.800
O4       5.761982815   22.241680755   25.292016815 XXXX 1      oap1    O  -0.800
O5       4.984488622   17.403822174   24.572920061 XXXX 1      oap1    O  -0.800
O6       8.566241209   18.706577596   27.200834578 XXXX 1      oap1    O  -0.800
O7       4.371850185   21.747621517   27.271114057 XXXX 1      oap1    O  -0.800
O8       3.758801892   17.268715216   26.757737879 XXXX 1      oap1    O  -0.800
O9       7.540334198   18.555158069   29.464097583 XXXX 1      oap1    O  -0.800
O10      4.038407670   19.343134002   22.640518121 XXXX 1      oap1    O  -0.800
O11      4.758243547   23.800834801   23.090092975 XXXX 1      oap1    O  -0.800
O12      1.180631429   22.525262249   20.505256945 XXXX 1      oap1    O  -0.800
Ca1      8.809297444   19.152108959   22.359536008 XXXX 1      ca+h    Ca  1.500
Ca2      3.117947506   21.825798603   22.596178483 XXXX 1      ca+h    Ca  1.500
Ca3      0.797232068   21.968674775   25.211060273 XXXX 1      ca+h    Ca  1.500
Ca4      7.026250622   19.081998387   25.354661920 XXXX 1      ca+h    Ca  1.500
Ca5      3.076104602   18.398921125   20.386333727 XXXX 1      ca+h    Ca  1.500
P1       5.376659123   19.714533933   22.034037570 XXXX 1      pap     P   1.000
O13      5.546893841   21.227105048   22.088060609 XXXX 1      oap1    O  -0.800
O14      6.535383562   19.048304582   22.868551894 XXXX 1      oap1    O  -0.800
Ca6      7.023155435   22.538776852   23.235538326 XXXX 1      ca+h    Ca  1.500
P2       4.998411545   24.352715713   21.695632007 XXXX 1      pap     P   1.000
O15      4.011464849   23.578221771   20.819257644 XXXX 1      oap1    O  -0.800
O16      4.790395567   25.873576794   21.586570590 XXXX 1      oap1    O  -0.800
Ca7      2.249998919   24.669117115   19.822700336 XXXX 1      ca+h    Ca  1.500
P3       1.925621146   21.559205199   19.528275106 XXXX 1      pap     P   1.000
O17      2.932341698   20.733808700   20.336707610 XXXX 1      oap1    O  -0.800
O18      0.913966371   20.701833107   18.766646988 XXXX 1      oap1    O  -0.800
Ca8      6.761893777   22.653467508   27.451919476 XXXX 1      ca+h    Ca  1.500
P4       4.527146549   21.506330768   25.771953502 XXXX 1      pap     P   1.000
O19      4.737201636   20.001266726   25.611145375 XXXX 1      oap1    O  -0.800
O20      3.318655379   22.023174009   25.079913475 XXXX 1      oap1    O  -0.800
Ca9      2.875288655   18.716186827   24.718135514 XXXX 1      ca+h    Ca  1.500
P5       4.993101892   16.735316021   26.002351211 XXXX 1      pap     P   1.000
O21      6.266062081   17.193844837   26.683271736 XXXX 1      oap1    O  -0.800
O22      4.971782677   15.180660565   26.000714227 XXXX 1      oap1    O  -0.800
Ca10     7.959818474   16.372972468   28.008315329 XXXX 1      ca+h    Ca  1.500
P6       7.883355118   19.465634741   28.300221075 XXXX 1      pap     P   1.000
O23      6.655661343   20.156915381   27.782175779 XXXX 1      oap1    O  -0.800
O24      8.857209851   20.471528766   28.997360425 XXXX 1      oap1    O  -0.800
O25      1.872117937   16.669130410   24.255887900 XXXX 1      oap2    O  -1.100
O26      3.801527675   16.380949988   21.380489270 XXXX 1      oap2    O  -1.100
H1       1.084424827   16.865337777   24.808130535 XXXX 1      hop     H   0.200
H2       3.472878661   15.886343544   22.125924226 XXXX 1      hop     H   0.200
end
O1       1.370787516   18.992016559   26.462847691 XXXX 1      oap1    O  -0.800
O2       2.087849173   23.931298276   26.771927787 XXXX 1      oap1    O  -0.800
O3       1.532227353   21.605225352   30.555917470 XXXX 1      oap1    O  -0.800
O4       1.196167527   17.383571130   30.247860077 XXXX 1      oap1    O  -0.800
O5       5.985838539   18.829909001   34.092357113 XXXX 1      oap1    O  -0.625
O6       0.179176845   22.626917788   32.365701502 XXXX 1      oap1    O  -0.800
O7      -0.492598021   17.185265838   32.054811980 XXXX 1      oap1    O  -0.800
O8       3.809814704   18.228813761   35.468826028 XXXX 1      oap1    O  -0.650
O9      -0.258577965   19.284665006   28.353853639 XXXX 1      oap1    O  -0.800
O10      0.562437444   23.926679476   28.687763347 XXXX 1      oap1    O  -0.800
Ca1      4.551157162   19.385252415   28.215630457 XXXX 1      ca+h    Ca  1.500
Ca2      2.419065575   19.311935523   31.119161842 XXXX 1      ca+h    Ca  1.500
P1       1.106423473   19.790404467   27.775722710 XXXX 1      pap     P   1.000
O11      0.945677163   21.277742949   27.413251651 XXXX 1      oap1    O  -0.800
O12      2.306000835   19.573809871   28.768361838 XXXX 1      oap1    O  -0.800
Ca3      2.675132517   22.571724761   28.657419805 XXXX 1      ca+h    Ca  1.500
P2       0.721295295   24.420267036   27.188173297 XXXX 1      pap     P   1.000
O13     -0.315184742   23.786103981   26.288185977 XXXX 1      oap1    O  -0.800
O14      0.582308876   26.001230073   27.172382919 XXXX 1      oap1    O  -0.800
P3       0.207523635   21.529392613   31.279337201 XXXX 1      pap     P   1.000
O15      0.007675590   20.045877714   31.747801891 XXXX 1      oap1    O  -0.800
O16     -0.959011164   21.945562224   30.342728057 XXXX 1      oap1    O  -0.800
P4       0.963005637   16.810484376   31.630915461 XXXX 1      pap     P   1.000
O17      1.985170065   17.435456541   32.573311368 XXXX 1      oap1    O  -0.800
O18      1.153534674   15.272447318   31.507598599 XXXX 1      oap1    O  -0.800
P5       4.415933158   19.057116130   34.283899917 XXXX 1      pap     P   1.000
O19      3.832571691   18.666699026   32.924171655 XXXX 1      oap1    O  -0.650
O20      4.368624752   20.528361862   34.499790059 XXXX 1      oap1    O  -0.625
O21      0.109845356   16.345141976   26.562485069 XXXX 1      oap2    O  -1.100
H1       0.557631256   16.349070928   25.729404815 XXXX 1      hop     H   0.200
H2       3.224764545   18.734092311   36.009917833 XXXX 1      hop     H   0.400
H3       3.108015992   18.023133419   32.938608319 XXXX 1      hop     H   0.400
end
O1      12.463313604   30.105587754    2.843848926 XXXX 1      oap1    O  -0.650
O2      15.152059490   30.480940549    3.369888822 XXXX 1      oap1    O  -0.650
O3      14.455659088   29.826318285    5.618612027 XXXX 1      oap1    O  -0.800
O4      13.799076562   25.617305804    5.384268184 XXXX 1      oap1    O  -0.800
O5      17.768856824   26.542659790    8.237069865 XXXX 1      oap1    O  -0.800
O6      13.377599488   29.894635739    7.876263727 XXXX 1      oap1    O  -0.800
O7      12.032973824   24.909011227    6.843359918 XXXX 1      oap1    O  -0.800
O8      15.710593309   26.844501335    9.721885818 XXXX 1      oap1    O  -0.800
O9      12.381440287   28.077225881    1.280676349 XXXX 1      oap1    O  -0.650
O10     13.959937943   32.788851182    3.450696219 XXXX 1      oap1    O  -0.625
Ca1      9.703800398   29.782629070    5.163550634 XXXX 1      ca+h    Ca  1.500
Ca2     15.224873538   27.573444337    5.229122908 XXXX 1      ca+h    Ca  1.500
P1      12.318889204   28.569181321    2.719383390 XXXX 1      pap     P   1.000
O11     10.991326683   28.110056539    3.426483816 XXXX 1      oap1    O  -0.625
O12     13.432392555   27.868510456    3.545437309 XXXX 1      oap1    O  -0.625
P2      15.288985371   32.009729877    3.169882059 XXXX 1      pap     P   1.000
O13     15.669404057   32.271096577    1.767491310 XXXX 1      oap1    O  -0.650
O14     16.350490784   32.691348227    4.074873005 XXXX 1      oap1    O  -0.625
Ca3     15.618429068   30.719182402    7.971129356 XXXX 1      ca+h    Ca  1.500
P3      13.173764769   29.543661763    6.415982934 XXXX 1      pap     P   1.000
O15     12.929685899   28.035196358    6.429761201 XXXX 1      oap1    O  -0.800
O16     11.933278209   30.273026623    5.739207816 XXXX 1      oap1    O  -0.800
Ca4     11.715990066   26.578159805    5.262523746 XXXX 1      ca+h    Ca  1.500
P4      13.521532576   24.701699483    6.578135278 XXXX 1      pap     P   1.000
O17     14.316374037   25.218486363    7.813220820 XXXX 1      oap1    O  -0.800
O18     13.891059885   23.175571529    6.306745459 XXXX 1      oap1    O  -0.800
Ca5     16.497386568   24.576567317    8.846746472 XXXX 1      ca+h    Ca  1.500
P5      16.700377814   27.593357906    8.742786206 XXXX 1      pap     P   1.000
O19     15.844765513   28.168706640    7.636062659 XXXX 1      oap1    O  -0.800
O20     17.501956531   28.719368162    9.473566930 XXXX 1      oap1    O  -0.800
O21      8.951258935   24.671661952    6.829530805 XXXX 1      oap2    O  -1.100
H1       9.362258492   24.833090128    5.981681745 XXXX 1      hop     H   0.200
H2      15.747941627   31.403462007    1.369451088 XXXX 1      hop     H   0.400
H3      14.984628292   30.361120515    4.287769645 XXXX 1      hop     H   0.400
H4      13.225945511   27.613426971    1.199126592 XXXX 1      hop     H   0.400
H5      11.558768107   30.497885334    2.891552449 XXXX 1      hop     H   0.400
end
O1       9.913073947   27.591465858    6.436702597 XXXX 1      oap1    O  -0.800
O2      11.009910873   32.276487996    7.306946048 XXXX 1      oap1    O  -0.800
O3       7.429998745   30.617041976    4.477778546 XXXX 1      oap1    O  -0.800
O4      10.453262547   29.826495339   11.074107769 XXXX 1      oap1    O  -0.800
O5       9.773912368   25.451761597   10.616289282 XXXX 1      oap1    O  -0.800
O6      13.407154274   26.512989371   13.573351056 XXXX 1      oap1    O  -0.800
O7       9.116645252   29.976073176   13.256712850 XXXX 1      oap1    O  -0.800
O8       8.084634464   25.134105440   12.505564410 XXXX 1      oap1    O  -0.800
O9      11.690279397   27.067664145   15.355931851 XXXX 1      oap1    O  -0.800
O10      8.684536090   27.118403869    8.442813822 XXXX 1      oap1    O  -0.800
O11      9.289183275   31.912108089    9.102570686 XXXX 1      oap1    O  -0.800
O12      5.961886080   30.745321389    6.585341495 XXXX 1      oap1    O  -0.800
Ca1     13.608155753   27.302377592    8.615026178 XXXX 1      ca+h    Ca  1.500
Ca2      7.776455946   30.133291691    8.392919796 XXXX 1      ca+h    Ca  1.500
Ca3      5.637029017   29.832893097   11.322083345 XXXX 1      ca+h    Ca  1.500
Ca4     11.395614962   27.350142637   11.230412669 XXXX 1      ca+h    Ca  1.500
Ca5      7.621345047   26.507675892    6.228350155 XXXX 1      ca+h    Ca  1.500
P1       9.969134907   27.770361527    7.965532372 XXXX 1      pap     P   1.000
O13      9.974391483   29.314515093    8.126749452 XXXX 1      oap1    O  -0.800
O14     11.120810207   27.055731688    8.686981160 XXXX 1      oap1    O  -0.800
Ca6     11.579807030   30.701427624    9.159618167 XXXX 1      ca+h    Ca  1.500
P2       9.535297752   32.625674042    7.718907935 XXXX 1      pap     P   1.000
O15      8.581012083   32.057894451    6.624634019 XXXX 1      oap1    O  -0.800
O16      9.504281658   34.196355984    7.768181959 XXXX 1      oap1    O  -0.800
Ca7      6.718707811   32.905382868    5.725356012 XXXX 1      ca+h    Ca  1.500
P3       6.495471459   29.773480178    5.499537636 XXXX 1      pap     P   1.000
O17      7.525951551   28.836856987    6.146260947 XXXX 1      oap1    O  -0.800
O18      5.376631414   28.973163677    4.848090217 XXXX 1      oap1    O  -0.800
Ca8     11.524790021   30.696703402   13.406319447 XXXX 1      ca+h    Ca  1.500
P4       9.145442795   29.542104097   11.770412821 XXXX 1      pap     P   1.000
O19      8.956264959   28.027107304   11.763440227 XXXX 1      oap1    O  -0.800
O20      7.984246807   30.187784890   11.035818624 XXXX 1      oap1    O  -0.800
Ca9      7.578938165   26.551057667   10.475383405 XXXX 1      ca+h    Ca  1.500
P5       9.566258801   24.807570388   12.041716700 XXXX 1      pap     P   1.000
O21     10.538748682   25.634549322   12.973160822 XXXX 1      oap1    O  -0.800
O22      9.882865807   23.356228213   12.159399445 XXXX 1      oap1    O  -0.800
Ca10    12.127632813   24.502017425   14.095312270 XXXX 1      ca+h    Ca  1.500
P6      12.637648506   27.644480664   14.332828568 XXXX 1      pap     P   1.000
O23     11.736273851   28.386594568   13.354151517 XXXX 1      oap1    O  -0.800
O24     13.664136135   28.602838107   15.081451944 XXXX 1      oap1    O  -0.800
O25      4.882257347   24.645252084   12.245603118 XXXX 1      oap2    O  -1.100
O26      6.916378384   24.445074187    9.655808689 XXXX 1      oap2    O  -1.100
H1       5.331929937   24.543322991   11.465925984 XXXX 1      hop     H   0.200
H2       7.659862117   24.468186497    9.084437095 XXXX 1      hop     H   0.200
end
O1       6.089619795   27.391419129   12.145298362 XXXX 1      oap1    O  -0.800
O2       6.813295490   31.884884997   12.890065036 XXXX 1      oap1    O  -0.800
O3       3.236335200   30.383313837   10.130439542 XXXX 1      oap1    O  -0.800
O4       6.433929612   29.691101654   16.813651588 XXXX 1      oap1    O  -0.800
O5       5.727693535   25.335939874   16.285477375 XXXX 1      oap1    O  -0.800
O6       9.147592299   26.585728586   18.941159571 XXXX 1      oap1    O  -0.800
O7       5.084657751   29.936908790   18.807003435 XXXX 1      oap1    O  -0.800
O8       3.975086004   25.130376648   18.052112915 XXXX 1      oap1    O  -0.800
O9       7.601113609   26.658384134   20.915281484 XXXX 1      oap1    O  -0.800
O10      4.524318814   27.113902510   14.217518940 XXXX 1      oap1    O  -0.800
O11      5.093068307   32.016311011   14.725022840 XXXX 1      oap1    O  -0.800
O12      1.777515034   30.730042161   12.096902842 XXXX 1      oap1    O  -0.800
Ca1      9.459273384   27.436658618   14.099682304 XXXX 1      ca+h    Ca  1.500
Ca2      3.564861294   30.143624703   14.102667198 XXXX 1      ca+h    Ca  1.500
Ca3      1.465384679   29.790016592   16.939409847 XXXX 1      ca+h    Ca  1.500
Ca4      7.301869062   27.079668748   16.857103724 XXXX 1      ca+h    Ca  1.500
Ca5      3.626819695   26.593631476   11.937977465 XXXX 1      ca+h    Ca  1.500
P1       5.859978927   27.658042418   13.680408593 XXXX 1      pap     P   1.000
O13      5.863761528   29.189538211   13.817399754 XXXX 1      oap1    O  -0.800
O14      7.033297832   27.108587920   14.494579544 XXXX 1      oap1    O  -0.800
Ca6      7.507620691   30.493448731   14.843587504 XXXX 1      ca+h    Ca  1.500
P2       5.471491248   32.501728497   13.313844032 XXXX 1      pap     P   1.000
O15      4.316297800   31.831542855   12.483432006 XXXX 1      oap1    O  -0.800
O16      5.461015221   34.080004247   13.281461643 XXXX 1      oap1    O  -0.800
Ca7      2.587579678   32.858247344   11.369878219 XXXX 1      ca+h    Ca  1.500
P3       2.470483300   29.661384726   11.149391985 XXXX 1      pap     P   1.000
O17      3.517570395   28.923391650   12.005386491 XXXX 1      oap1    O  -0.800
O18      1.525829219   28.621973439   10.520439258 XXXX 1      oap1    O  -0.800
Ca8      7.230639063   30.760280135   19.086870042 XXXX 1      ca+h    Ca  1.500
P4       5.073653629   29.369975870   17.357789385 XXXX 1      pap     P   1.000
O19      4.894761930   27.863082474   17.528942594 XXXX 1      oap1    O  -0.800
O20      3.874258780   29.979457917   16.552547159 XXXX 1      oap1    O  -0.800
Ca9      3.326358273   26.571960335   16.159743676 XXXX 1      ca+h    Ca  1.500
P5       5.392390300   24.780707784   17.687070519 XXXX 1      pap     P   1.000
O21      6.416109996   25.482597257   18.598247093 XXXX 1      oap1    O  -0.800
O22      5.596846429   23.225809770   17.627970474 XXXX 1      oap1    O  -0.800
Ca10     8.149313798   24.498853820   19.789554070 XXXX 1      ca+h    Ca  1.500
P6       8.423761697   27.505279997   19.892226606 XXXX 1      pap     P   1.000
O23      7.450029655   28.397987775   19.120629649 XXXX 1      oap1    O  -0.800
O24      9.435528667   28.435956915   20.657878744 XXXX 1      oap1    O  -0.800
O25      0.697306950   24.556009902   17.992241675 XXXX 1      oap2    O  -1.100
O26      2.961505226   24.565938579   15.014073944 XXXX 1      oap2    O  -1.100
H1       1.199442426   24.526784440   17.237861368 XXXX 1      hop     H   0.200
H2       3.426979776   24.550556007   14.227804398 XXXX 1      hop     H   0.200
end
O1       1.808830387   27.432679862   17.752440099 XXXX 1      oap1    O  -0.800
O2       2.643934545   32.141718469   18.372877029 XXXX 1      oap1    O  -0.800
O4       2.078182325   29.628076812   22.031222335 XXXX 1      oap1    O  -0.800
O5       1.445996296   25.487066088   21.798173107 XXXX 1      oap1    O  -0.800
O6       5.101802826   26.541857170   24.748431121 XXXX 1      oap1    O  -0.800
O7       0.836485569   30.316798248   24.142971070 XXXX 1      oap1    O  -0.800
O8      -0.281065409   25.348868663   23.677933271 XXXX 1      oap1    O  -0.800
O9       3.346017537   26.928881947   26.534136048 XXXX 1      oap1    O  -0.800
O10      0.397744436   27.171882875   19.786154874 XXXX 1      oap1    O  -0.800
O11      1.248290711   31.971475585   20.415988964 XXXX 1      oap1    O  -0.800
Ca1      5.287838634   27.318939975   19.722023159 XXXX 1      ca+h    Ca  1.500
Ca4      2.989936515   27.514133177   22.333591006 XXXX 1      ca+h    Ca  1.500
P1       1.673339234   27.725237752   19.236706371 XXXX 1      pap     P   1.000
O13      1.514775009   29.281625810   19.334197933 XXXX 1      oap1    O  -0.800
O14      2.960344476   27.236216754   19.988089347 XXXX 1      oap1    O  -0.800
Ca6      3.314169754   30.598076972   20.293366485 XXXX 1      ca+h    Ca  1.500
P2       1.256213255   32.476546427   18.926986506 XXXX 1      pap     P   1.000
O15      0.262892289   31.645328881   18.115718563 XXXX 1      oap1    O  -0.800
O16      1.037943240   33.938466639   18.818946319 XXXX 1      oap1    O  -0.800
Ca8      3.206632214   30.968310482   24.828484456 XXXX 1      ca+h    Ca  1.500
P4       0.760743494   29.484831377   22.839604475 XXXX 1      pap     P   1.000
O19      0.577515635   28.009531612   23.148629651 XXXX 1      oap1    O  -0.800
O20     -0.363900185   30.003998826   21.951237993 XXXX 1      oap1    O  -0.800
P5       1.178165422   24.929950785   23.182583488 XXXX 1      pap     P   1.000
O21      2.196964787   25.611031647   24.103011755 XXXX 1      oap1    O  -0.800
O22      1.484961522   23.412818033   23.189880132 XXXX 1      oap1    O  -0.800
Ca10     3.934419312   24.463870198   25.267006156 XXXX 1      ca+h    Ca  1.500
P6       4.349561768   27.651291860   25.563236906 XXXX 1      pap     P   1.000
O23      3.525624436   28.417866312   24.593209147 XXXX 1      oap1    O  -0.800
O24      5.300006953   28.541668368   26.357726267 XXXX 1      oap1    O  -0.800
O26     -1.318347760   24.835903413   20.541549770 XXXX 1      oap2    O  -1.100
H2      -0.971325592   24.751046137   19.684062691 XXXX 1      hop     H   0.200
end
O1      32.974171786    2.983030041   15.122462698 XXXX 1      oap1    O  -0.800
O2      33.820979517    7.766518039   15.890623394 XXXX 1      oap1    O  -0.800
O3      30.300275958    6.273108653   13.067580003 XXXX 1      oap1    O  -0.800
O4      33.416654334    5.636605549   19.757135141 XXXX 1      oap1    O  -0.800
O7      31.913592531    5.358828531   21.728079041 XXXX 1      oap1    O  -0.800
O10     31.424215306    3.173521861   17.061815181 XXXX 1      oap1    O  -0.800
O11     32.317602725    7.521454525   17.866806291 XXXX 1      oap1    O  -0.800
O12     28.823591251    6.141013347   15.057343089 XXXX 1      oap1    O  -0.800
Ca2     30.545875215    5.486373612   16.892149150 XXXX 1      ca+h    Ca  1.500
Ca3     28.506146060    5.668701991   19.778324544 XXXX 1      ca+h    Ca  1.500
Ca4     34.399868951    2.708122188   19.837219142 XXXX 1      ca+h    Ca  1.500
Ca5     30.610614999    2.093002033   14.913809863 XXXX 1      ca+h    Ca  1.500
P1      32.810578988    3.502685261   16.553349211 XXXX 1      pap     P   1.000
O13     32.933122204    5.043181619   16.476371509 XXXX 1      oap1    O  -0.800
O14     33.943958440    2.915587872   17.419357423 XXXX 1      oap1    O  -0.800
Ca6     34.475069005    6.192640658   17.807995247 XXXX 1      ca+h    Ca  1.500
P2      32.411712766    8.091918627   16.458586874 XXXX 1      pap     P   1.000
O15     31.454930840    7.335206593   15.522567334 XXXX 1      oap1    O  -0.800
O16     32.284794219    9.663803532   16.380042397 XXXX 1      oap1    O  -0.800
Ca7     29.860226940    8.361647206   14.176486496 XXXX 1      ca+h    Ca  1.500
P3      29.514572878    5.270810766   13.953530787 XXXX 1      pap     P   1.000
O17     30.464996644    4.400913724   14.708785993 XXXX 1      oap1    O  -0.800
O18     28.516479603    4.446837585   13.123865470 XXXX 1      oap1    O  -0.800
Ca8     34.308884369    6.254085293   22.018583647 XXXX 1      ca+h    Ca  1.500
P4      32.074812133    5.050923658   20.230771200 XXXX 1      pap     P   1.000
O19     32.197271878    3.556308195   20.067310091 XXXX 1      oap1    O  -0.800
O20     30.909955902    5.674538328   19.429311869 XXXX 1      oap1    O  -0.800
Ca9     30.397524908    2.347727886   19.123604837 XXXX 1      ca+h    Ca  1.500
end
O1      28.795664802    3.187213750   20.767007651 XXXX 1      oap1    O  -0.800
O2      29.733028843    7.562786141   21.567467882 XXXX 1      oap1    O  -0.800
O3      26.152666420    6.094297035   18.483090335 XXXX 1      oap1    O  -0.800
O4      29.322912232    5.531488326   25.361106742 XXXX 1      oap1    O  -0.800
O6      31.979245843    2.293048213   27.322682196 XXXX 1      oap1    O  -0.800
O7      27.811563424    5.376347752   27.330047014 XXXX 1      oap1    O  -0.800
O9      30.657916549    2.216941836   29.429876403 XXXX 1      oap1    O  -0.800
O10     27.367546162    2.785885498   22.767802181 XXXX 1      oap1    O  -0.800
O11     28.062238705    7.660389119   23.274897659 XXXX 1      oap1    O  -0.800
O12     24.520352732    6.198863771   20.376567629 XXXX 1      oap1    O  -0.800
Ca1     32.358960850    2.853697070   22.783384452 XXXX 1      ca+h    Ca  1.500
Ca2     26.399614155    5.611458587   22.627554580 XXXX 1      ca+h    Ca  1.500
Ca3     24.469141646    5.673451367   25.417282672 XXXX 1      ca+h    Ca  1.500
Ca4     30.269200249    2.906593404   25.522857429 XXXX 1      ca+h    Ca  1.500
Ca5     26.455159094    2.267955784   20.404301885 XXXX 1      ca+h    Ca  1.500
P1      28.663771401    3.433019595   22.300207762 XXXX 1      pap     P   1.000
O13     28.554199438    4.906624754   22.683193023 XXXX 1      oap1    O  -0.800
O14     29.811009477    2.716741700   23.053393810 XXXX 1      oap1    O  -0.800
Ca6     30.372242355    6.141003462   23.452125599 XXXX 1      ca+h    Ca  1.500
P2      28.321106271    8.088821954   21.864509754 XXXX 1      pap     P   1.000
O15     27.311727033    7.322026167   20.972242731 XXXX 1      oap1    O  -0.800
O16     28.257732925    9.638654413   21.737379387 XXXX 1      oap1    O  -0.800
Ca7     25.619691475    8.391276652   19.830213383 XXXX 1      ca+h    Ca  1.500
P3      25.413001568    5.255036149   19.535928013 XXXX 1      pap     P   1.000
O17     26.417131591    4.552864020   20.474212698 XXXX 1      oap1    O  -0.800
O18     24.504173390    4.168261033   18.876722488 XXXX 1      oap1    O  -0.800
Ca8     30.192018306    6.287419321   27.578680194 XXXX 1      ca+h    Ca  1.500
P4      27.978946434    5.021601401   25.853935319 XXXX 1      pap     P   1.000
O19     27.882091585    3.542911191   25.809201372 XXXX 1      oap1    O  -0.800
O20     26.802417173    5.663341630   25.057036817 XXXX 1      oap1    O  -0.800
Ca9     26.309072301    2.219743930   24.681412561 XXXX 1      ca+h    Ca  1.500
P6      31.259986198    3.138608774   28.408924975 XXXX 1      pap     P   1.000
O23     30.115187131    3.875996542   27.749300396 XXXX 1      oap1    O  -0.800
O24     32.161478726    4.208426509   29.106636271 XXXX 1      oap1    O  -0.800
end
O1      24.699374888    2.929327990   26.202715344 XXXX 1      oap1    O  -0.800
O2      25.531520722    7.491248547   26.878422524 XXXX 1      oap1    O  -0.800
O3      21.601260825    6.166067705   23.922061871 XXXX 1      oap1    O  -0.800
O4      25.102639541    4.842680051   30.655811023 XXXX 1      oap1    O  -0.800
O5      27.761885153    2.686289535   32.807969801 XXXX 1      oap1    O  -0.625
O6      24.177402514    6.460796091   32.354014081 XXXX 1      oap1    O  -0.800
O7      27.486361057    2.618394427   35.313820092 XXXX 1      oap1    O  -0.650
O8      23.112950676    3.135100941   28.097018755 XXXX 1      oap1    O  -0.800
O9      24.044856168    7.446923414   28.800909724 XXXX 1      oap1    O  -0.800
O10     20.348826958    6.122660125   26.081792215 XXXX 1      oap1    O  -0.800
Ca1     28.005144947    2.829710580   28.054860946 XXXX 1      ca+h    Ca  1.500
Ca2     22.311796267    5.582684791   28.119106804 XXXX 1      ca+h    Ca  1.500
Ca3     20.466423682    5.504516253   31.125604361 XXXX 1      ca+h    Ca  1.500
Ca4     26.084280323    2.643954827   31.009346352 XXXX 1      ca+h    Ca  1.500
Ca5     22.318805180    2.079961479   25.868496949 XXXX 1      ca+h    Ca  1.500
P1      24.548135248    3.388346552   27.670129806 XXXX 1      pap     P   1.000
O11     24.632241383    4.936826025   27.640200514 XXXX 1      oap1    O  -0.800
O12     25.605543920    2.721754446   28.598677803 XXXX 1      oap1    O  -0.800
Ca6     26.280085992    6.186367521   29.074951142 XXXX 1      ca+h    Ca  1.500
P2      24.164801561    7.978311031   27.381457797 XXXX 1      pap     P   1.000
O13     23.028596702    7.329830744   26.556405964 XXXX 1      oap1    O  -0.800
O14     24.023546743    9.519246237   27.298503855 XXXX 1      oap1    O  -0.800
Ca7     21.239156349    8.436717529   25.288796616 XXXX 1      ca+h    Ca  1.500
P3      21.079773398    5.240626370   25.046393131 XXXX 1      pap     P   1.000
O15     22.315055095    4.617996811   25.782021867 XXXX 1      oap1    O  -0.800
O16     20.073669270    4.219071062   24.494991867 XXXX 1      oap1    O  -0.800
Ca8     26.382468723    6.536415234   33.316036724 XXXX 1      ca+h    Ca  1.500
P4      23.820117749    5.258048954   31.378288548 XXXX 1      pap     P   1.000
O17     23.356925139    4.002862112   32.142184734 XXXX 1      oap1    O  -0.800
O18     22.735369503    5.675511423   30.368358397 XXXX 1      oap1    O  -0.800
Ca9     21.927864308    1.881928912   29.850113024 XXXX 1      ca+h    Ca  1.500
P5      27.534710010    3.549930380   34.062705543 XXXX 1      pap     P   1.000
O19     26.130636162    4.258500260   33.869705847 XXXX 1      oap1    O  -0.625
O20     28.755495337    4.523594300   34.035666807 XXXX 1      oap1    O  -0.650
H1      27.980546874    1.858832816   34.991705635 XXXX 1      hop     H   0.400
H2      29.069848431    4.651274495   33.118495261 XXXX 1      hop     H   0.400
end
O1      20.514545361    3.039175639   32.038714764 XXXX 1      oap1    O  -0.625
O2      21.047735017    7.242997122   32.468927397 XXXX 1      oap1    O  -0.625
O3      17.378459852    6.431285979   29.952047025 XXXX 1      oap1    O  -0.800
O4      19.061937208    2.586747567   33.981227638 XXXX 1      oap1    O  -0.650
O5      21.157802861    9.278478421   33.883769906 XXXX 1      oap1    O  -0.650
O6      15.968548339    6.095727828   32.036325124 XXXX 1      oap1    O  -0.800
Ca1     23.976643761    2.801193977   33.977102906 XXXX 1      ca+h    Ca  1.500
Ca2     17.785729854    2.621441910   31.780143281 XXXX 1      ca+h    Ca  1.500
P1      20.425476062    2.232618664   33.385229587 XXXX 1      pap     P   1.000
O7      21.521076208    2.640296522   34.352772738 XXXX 1      oap1    O  -0.625
O8      20.563216170    0.752511074   33.006682503 XXXX 1      oap1    O  -0.650
P2      20.256298912    8.176301201   33.338605303 XXXX 1      pap     P   1.000
O9      19.599391499    7.458659909   34.506515803 XXXX 1      oap1    O  -0.650
O10     19.138795891    8.827919618   32.391769202 XXXX 1      oap1    O  -0.625
Ca3     17.098366587    8.569961027   31.005802230 XXXX 1      ca+h    Ca  1.500
P3      16.973543954    5.410238787   31.011147185 XXXX 1      pap     P   1.000
O11     18.230023268    4.948537938   31.812152719 XXXX 1      oap1    O  -0.800
O12     16.269556890    4.239246572   30.353229186 XXXX 1      oap1    O  -0.800
H1      21.728969159    9.794472913   33.243126041 XXXX 1      hop     H   0.400
H2      19.619105143    8.114969015   35.196347780 XXXX 1      hop     H   0.400
H3      19.292687306    2.911069576   34.854169668 XXXX 1      hop     H   0.400
H4      21.452860547    0.688280204   32.545940509 XXXX 1      hop     H   0.400
end
O1      33.380205653   10.753086679    6.917407541 XXXX 1      oap1    O  -0.800
O2      34.136490675   15.819293590    7.226716769 XXXX 1      oap1    O  -0.800
O3      30.971410127   14.077084531    4.408807425 XXXX 1      oap1    O  -0.800
O4      33.804489274   13.347950270   11.290463782 XXXX 1      oap1    O  -0.800
O5      33.015947687    9.133659089   10.706310472 XXXX 1      oap1    O  -0.800
O7      32.438210698   13.798925203   13.295018437 XXXX 1      oap1    O  -0.800
O8      31.623358342    9.104951207   12.859700674 XXXX 1      oap1    O  -0.800
O10     31.986339253   11.301204804    8.933779876 XXXX 1      oap1    O  -0.800
O11     32.636223969   15.732932155    9.285522758 XXXX 1      oap1    O  -0.800
O12     29.240385761   14.216870325    6.342045201 XXXX 1      oap1    O  -0.800
Ca2     31.135209141   13.912667105    8.567737022 XXXX 1      ca+h    Ca  1.500
Ca3     28.854382162   13.599551398   11.262191090 XXXX 1      ca+h    Ca  1.500
Ca4     34.768182504   10.981526911   11.331041672 XXXX 1      ca+h    Ca  1.500
Ca5     31.077441559   10.347784855    6.110406362 XXXX 1      ca+h    Ca  1.500
P1      33.308141111   11.591945153    8.220252451 XXXX 1      pap     P   1.000
O13     33.388493503   13.100978551    7.949624687 XXXX 1      oap1    O  -0.800
O14     34.453905908   11.070757597    9.050064927 XXXX 1      oap1    O  -0.800
Ca6     34.828981416   14.397823397    9.415155330 XXXX 1      ca+h    Ca  1.500
P2      32.827446556   16.342073375    7.846281199 XXXX 1      pap     P   1.000
O15     31.737790038   15.699040360    7.003123614 XXXX 1      oap1    O  -0.800
O16     32.855960444   17.896736851    7.831798977 XXXX 1      oap1    O  -0.800
Ca7     29.570885482   16.457988401    5.645335274 XXXX 1      ca+h    Ca  1.500
P3      30.199364414   13.283034002    5.492538524 XXXX 1      pap     P   1.000
O17     31.244976403   12.770862305    6.412704996 XXXX 1      oap1    O  -0.800
O18     29.533361269   12.144781460    4.858791953 XXXX 1      oap1    O  -0.800
Ca8     34.740028713   14.460168931   13.518146358 XXXX 1      ca+h    Ca  1.500
P4      32.423788986   13.158752905   11.893367343 XXXX 1      pap     P   1.000
O19     32.289909601   11.658460112   12.081535429 XXXX 1      oap1    O  -0.800
O20     31.296717914   13.831200456   11.064489009 XXXX 1      oap1    O  -0.800
Ca9     30.767976528   10.302689822   10.608929151 XXXX 1      ca+h    Ca  1.500
P5      32.932424353    8.591770996   12.117165552 XXXX 1      pap     P   1.000
O21     34.128892203    9.149147961   12.929775097 XXXX 1      oap1    O  -0.800
O22     32.942012001    7.068031029   12.030144099 XXXX 1      oap1    O  -0.800
O25     30.211979586    8.224612278    9.642861682 XXXX 1      oap2    O  -1.100
O26     32.187936144    8.185556088    6.614149707 XXXX 1      oap2    O  -1.100
H1      30.710705001    8.447423346    8.873291517 XXXX 1      hop     H   0.200
H2      32.535349212    7.911353866    5.769091673 XXXX 1      hop     H   0.200
end
O1      29.314093997   11.317950905   12.206814022 XXXX 1      oap1    O  -0.800
O2      30.313133712   15.854199712   13.068587606 XXXX 1      oap1    O  -0.800
O3      26.661049215   14.206144484   10.038725042 XXXX 1      oap1    O  -0.800
O4      29.535682704   13.716898868   16.862698635 XXXX 1      oap1    O  -0.800
O5      28.900149970    9.075343799   16.389893942 XXXX 1      oap1    O  -0.800
O6      32.550743950   10.100792477   19.336571540 XXXX 1      oap1    O  -0.800
O7      28.170943830   13.645782640   18.897625886 XXXX 1      oap1    O  -0.800
O8      27.284797811    9.040288883   18.271167152 XXXX 1      oap1    O  -0.800
O9      30.777771146   10.629492323   21.005132889 XXXX 1      oap1    O  -0.800
O10     27.748177606   11.166387854   14.241353454 XXXX 1      oap1    O  -0.800
O11     28.592018413   15.792073119   14.867588337 XXXX 1      oap1    O  -0.800
O12     24.842819234   14.466242890   11.818637630 XXXX 1      oap1    O  -0.800
Ca1     32.739236452   10.998506497   14.288678171 XXXX 1      ca+h    Ca  1.500
Ca2     26.880038931   13.606882486   14.207058072 XXXX 1      ca+h    Ca  1.500
Ca3     24.816478313   13.826715922   16.976241284 XXXX 1      ca+h    Ca  1.500
Ca4     30.455204842   11.039582136   16.888606846 XXXX 1      ca+h    Ca  1.500
Ca5     26.968670461   10.317462397   11.993625580 XXXX 1      ca+h    Ca  1.500
P1      29.131776934   11.571776115   13.753567954 XXXX 1      pap     P   1.000
O13     29.176177203   13.125098133   13.880947266 XXXX 1      oap1    O  -0.800
O14     30.254204478   10.859255556   14.507759924 XXXX 1      oap1    O  -0.800
Ca6     30.760325608   14.418469803   14.926399479 XXXX 1      ca+h    Ca  1.500
P2      28.806141973   16.167846589   13.448044167 XXXX 1      pap     P   1.000
O15     27.826050187   15.350949732   12.646619371 XXXX 1      oap1    O  -0.800
O16     28.600933540   17.716608208   13.376270269 XXXX 1      oap1    O  -0.800
Ca7     25.984658758   16.590951873   11.326322824 XXXX 1      ca+h    Ca  1.500
P3      25.710371703   13.434484887   11.056886729 XXXX 1      pap     P   1.000
O17     26.650310002   12.654595652   11.985687357 XXXX 1      oap1    O  -0.800
O18     24.815868155   12.410354023   10.296828635 XXXX 1      oap1    O  -0.800
Ca8     30.534200865   14.414206294   19.198864061 XXXX 1      ca+h    Ca  1.500
P4      28.223707329   13.273589272   17.440126976 XXXX 1      pap     P   1.000
O19     28.199105492   11.715645522   17.274893419 XXXX 1      oap1    O  -0.800
O20     27.022468926   13.880689656   16.576870771 XXXX 1      oap1    O  -0.800
Ca9     26.581406364   10.386097445   16.270507827 XXXX 1      ca+h    Ca  1.500
P5      28.645106251    8.537067833   17.786270904 XXXX 1      pap     P   1.000
O21     29.662492143    9.165117622   18.751157706 XXXX 1      oap1    O  -0.800
O22     28.681041805    7.012268370   17.784139651 XXXX 1      oap1    O  -0.800
Ca10    31.453618202    8.126346098   19.994374961 XXXX 1      ca+h    Ca  1.500
P6      31.771693636   11.280535693   19.989460836 XXXX 1      pap     P   1.000
O23     30.862291089   12.039423424   18.950706436 XXXX 1      oap1    O  -0.800
O24     32.704818777   12.218023469   20.748067007 XXXX 1      oap1    O  -0.800
O25     26.006706603    8.296270992   15.341365116 XXXX 1      oap2    O  -1.100
O26     27.769961480    8.254214932   12.987011865 XXXX 1      oap2    O  -1.100
H1      26.568947258    8.576604943   14.624714378 XXXX 1      hop     H   0.200
H2      27.113608435    8.141874853   13.651869217 XXXX 1      hop     H   0.200
end
O1      25.085947954   10.960723264   17.999555324 XXXX 1      oap1    O  -0.800
O2      25.976841414   15.851743005   18.594550723 XXXX 1      oap1    O  -0.800
O3      22.486402765   14.262987876   15.791975241 XXXX 1      oap1    O  -0.800
O4      25.404078618   13.844764242   22.602101412 XXXX 1      oap1    O  -0.800
O5      24.390662253    8.839713371   21.791697114 XXXX 1      oap1    O  -0.800
O6      28.435547852   10.200094949   24.761239079 XXXX 1      oap1    O  -0.800
O7      23.907499685   13.556440002   24.546099232 XXXX 1      oap1    O  -0.800
O8      23.117640269    9.149770129   23.908497619 XXXX 1      oap1    O  -0.800
O9      26.761896259   10.310538473   26.636505725 XXXX 1      oap1    O  -0.800
O10     23.562883523   11.119008057   19.858665856 XXXX 1      oap1    O  -0.800
O11     24.416257799   15.769126013   20.525974441 XXXX 1      oap1    O  -0.800
O12     20.851597455   14.508062577   17.645562729 XXXX 1      oap1    O  -0.800
Ca1     28.627429927   11.090274236   19.817622249 XXXX 1      ca+h    Ca  1.500
Ca2     22.537717260   13.869249668   19.696451548 XXXX 1      ca+h    Ca  1.500
Ca3     20.484606646   13.980194629   22.477805007 XXXX 1      ca+h    Ca  1.500
Ca4     26.526454910   11.056227066   22.557045569 XXXX 1      ca+h    Ca  1.500
Ca5     22.726935543   10.271686022   17.733241377 XXXX 1      ca+h    Ca  1.500
P1      25.011156604   11.539293217   19.415979331 XXXX 1      pap     P   1.000
O13     24.972304206   13.050809987   19.402957875 XXXX 1      oap1    O  -0.800
O14     26.157179318   10.917838403   20.261864461 XXXX 1      oap1    O  -0.800
Ca6     26.600528984   14.350328250   20.634233730 XXXX 1      ca+h    Ca  1.500
P2      24.633456563   16.276781343   19.125983462 XXXX 1      pap     P   1.000
O15     23.506543143   15.664861150   18.348239049 XXXX 1      oap1    O  -0.800
O16     24.571068413   17.810340598   19.065106653 XXXX 1      oap1    O  -0.800
Ca7     21.788017942   16.642396521   16.972608015 XXXX 1      ca+h    Ca  1.500
P3      21.562672833   13.480608096   16.712004414 XXXX 1      pap     P   1.000
O17     22.423456717   12.629941299   17.622768831 XXXX 1      oap1    O  -0.800
O18     20.440602195   12.699031244   15.988448974 XXXX 1      oap1    O  -0.800
Ca8     26.336063096   14.580620581   24.797107222 XXXX 1      ca+h    Ca  1.500
P4      24.100241542   13.195843278   23.049790890 XXXX 1      pap     P   1.000
O19     24.157096697   11.632089038   22.907986813 XXXX 1      oap1    O  -0.800
O20     23.001805561   13.952225083   22.228275744 XXXX 1      oap1    O  -0.800
Ca9     22.472103802   10.389510519   21.703229653 XXXX 1      ca+h    Ca  1.500
P5      24.398542297    8.535273036   23.274221399 XXXX 1      pap     P   1.000
O21     25.624039519    9.235782548   23.952883912 XXXX 1      oap1    O  -0.800
O22     24.544179004    7.012610191   23.506404136 XXXX 1      oap1    O  -0.800
Ca10    27.363164143    8.236376495   25.500304078 XXXX 1      ca+h    Ca  1.500
P6      27.553049459   11.197241272   25.611356246 XXXX 1      pap     P   1.000
O23     26.477350279   11.913399104   24.722577952 XXXX 1      oap1    O  -0.800
O24     28.527713955   12.167202330   26.287716461 XXXX 1      oap1    O  -0.800
O25     21.207988632    8.225841144   21.798629614 XXXX 1      oap2    O  -1.100
O26     23.901952037    8.261153622   18.314584565 XXXX 1      oap2    O  -1.100
H1      20.721909191    8.725701510   22.465982298 XXXX 1      hop     H   0.200
H2      24.685530410    8.049802041   17.737978859 XXXX 1      hop     H   0.200
end
O1      20.728669160   10.667344389   23.647579306 XXXX 1      oap1    O  -0.800
O2      21.581483892   15.679923124   23.975398226 XXXX 1      oap1    O  -0.800
O3      18.346344634   14.291664462   21.408347908 XXXX 1      oap1    O  -0.800
O4      21.217950617   13.396955645   28.099582559 XXXX 1      oap1    O  -0.800
O5      20.335926098    8.826062714   27.336447208 XXXX 1      oap1    O  -0.800
O6      24.016888759   10.479839465   30.169568733 XXXX 1      oap1    O  -0.800
O7      19.663313676   13.327998816   30.162230260 XXXX 1      oap1    O  -0.800
O8      18.965987824    8.800494016   29.366855461 XXXX 1      oap1    O  -0.800
O9      22.394262979   10.374777904   32.157717941 XXXX 1      oap1    O  -0.800
O10     19.444452285   11.274157924   25.693118701 XXXX 1      oap1    O  -0.800
O11     20.362749463   15.804873927   26.085164714 XXXX 1      oap1    O  -0.800
O12     16.520354477   14.438747432   22.983857267 XXXX 1      oap1    O  -0.800
Ca1     24.321583005   10.847746341   25.362950769 XXXX 1      ca+h    Ca  1.500
Ca2     18.497823604   13.655050568   25.299913144 XXXX 1      ca+h    Ca  1.500
Ca3     16.336375155   13.724140167   28.111928289 XXXX 1      ca+h    Ca  1.500
Ca4     22.052125109   10.919896867   27.976738475 XXXX 1      ca+h    Ca  1.500
Ca5     18.458757265   10.186440242   23.376674923 XXXX 1      ca+h    Ca  1.500
P1      20.779827865   11.517216183   24.896934513 XXXX 1      pap     P   1.000
O13     20.793996920   13.054497834   24.651913139 XXXX 1      oap1    O  -0.800
O14     22.031076594   11.081567564   25.740816714 XXXX 1      oap1    O  -0.800
Ca6     22.404547614   14.257173331   26.132819885 XXXX 1      ca+h    Ca  1.500
P2      20.305373752   16.203543622   24.604834589 XXXX 1      pap     P   1.000
O15     19.145660480   15.472247784   23.945463324 XXXX 1      oap1    O  -0.800
O16     20.280456676   17.736992661   24.407237192 XXXX 1      oap1    O  -0.800
Ca7     17.555884241   16.707006932   22.498028357 XXXX 1      ca+h    Ca  1.500
P3      17.360343583   13.420940268   22.257950418 XXXX 1      pap     P   1.000
O17     18.148400794   12.584462341   23.252663983 XXXX 1      oap1    O  -0.800
O18     16.420572573   12.572149339   21.394985135 XXXX 1      oap1    O  -0.800
Ca8     22.427171948   14.286167944   30.445170921 XXXX 1      ca+h    Ca  1.500
P4      19.782555542   13.043681463   28.641021193 XXXX 1      pap     P   1.000
O19     19.731061114   11.484940098   28.428986271 XXXX 1      oap1    O  -0.800
O20     18.656940890   13.757000853   27.837096490 XXXX 1      oap1    O  -0.800
Ca9     18.207296482   10.085423215   27.383512964 XXXX 1      ca+h    Ca  1.500
P5      20.259030675    8.289346833   28.765541992 XXXX 1      pap     P   1.000
O21     21.355394189    8.938940922   29.656817773 XXXX 1      oap1    O  -0.800
O22     20.295965777    6.758543898   28.997532297 XXXX 1      oap1    O  -0.800
Ca10    23.421301509    8.346197414   31.029985122 XXXX 1      ca+h    Ca  1.500
P6      23.057751677   11.303970973   31.122187800 XXXX 1      pap     P   1.000
O23     21.992169477   11.804803163   30.202007341 XXXX 1      oap1    O  -0.800
O24     23.732917832   12.606942260   31.663459365 XXXX 1      oap1    O  -0.800
O25     16.741245449    8.107405574   27.667354440 XXXX 1      oap2    O  -1.100
O26     18.937261719    8.293537691   24.763632672 XXXX 1      oap2    O  -1.100
H1      16.239902802    8.628514812   28.292956360 XXXX 1      hop     H   0.200
H2      18.095297458    7.940640470   25.109077871 XXXX 1      hop     H   0.200
end
O1      16.605786799   11.113039804   29.060471373 XXXX 1      oap1    O  -0.800
O2      17.580528533   15.871176385   29.648162911 XXXX 1      oap1    O  -0.800
O3      14.180270401   14.134807053   26.937434171 XXXX 1      oap1    O  -0.800
O4      12.302649600   13.382127552   34.849829625 XXXX 1      oap1    O  -0.625
O5      15.839928341    8.929151135   33.042900624 XXXX 1      oap1    O  -0.625
O6      13.674206996   14.863143756   36.183918753 XXXX 1      oap1    O  -0.650
O7      15.380075387   11.456856292   33.276937238 XXXX 1      oap1    O  -0.650
O8      15.290063463   10.800404748   31.121410993 XXXX 1      oap1    O  -0.800
O9      16.066990652   15.574423314   31.586092213 XXXX 1      oap1    O  -0.800
O10     12.465732686   14.521008044   28.707778344 XXXX 1      oap1    O  -0.800
Ca1     20.073093065   10.720129220   30.884815560 XXXX 1      ca+h    Ca  1.500
Ca2     14.286063100   13.786653872   31.286661996 XXXX 1      ca+h    Ca  1.500
Ca3      9.968996356   16.775429834   33.895624536 XXXX 1      ca+h    Ca  1.500
Ca4     14.303423571   10.474514490   28.917185782 XXXX 1      ca+h    Ca  1.500
P1      16.527370577   11.547153957   30.513728414 XXXX 1      pap     P   1.000
O11     16.393405491   13.091397735   30.542632160 XXXX 1      oap1    O  -0.800
O12     17.769450003   11.060154378   31.166591981 XXXX 1      oap1    O  -0.800
Ca5     18.010589128   14.313737673   31.713702658 XXXX 1      ca+h    Ca  1.500
P2      16.146927497   16.115597826   30.125995295 XXXX 1      pap     P   1.000
O13     15.100051976   15.388581382   29.261551092 XXXX 1      oap1    O  -0.800
O14     15.888218023   17.611595491   30.003228194 XXXX 1      oap1    O  -0.800
Ca6     13.389825966   16.691596336   28.151215071 XXXX 1      ca+h    Ca  1.500
P3      13.254738419   13.453867791   27.959183446 XXXX 1      pap     P   1.000
O15     14.193455247   12.753091513   28.959278615 XXXX 1      oap1    O  -0.800
O16     12.410180335   12.317560676   27.291660704 XXXX 1      oap1    O  -0.800
P4      12.916025201   14.804140306   34.872536489 XXXX 1      pap     P   1.000
O17     11.719864641   15.748765929   34.925148736 XXXX 1      oap1    O  -0.625
O18     13.804251081   15.016193912   33.615929857 XXXX 1      oap1    O  -0.650
P5      15.384778815   10.092597827   33.990710805 XXXX 1      pap     P   1.000
O19     16.190597854   10.106750704   35.302184261 XXXX 1      oap1    O  -0.650
O20     13.949724451    9.755145318   34.406716348 XXXX 1      oap1    O  -0.625
O21     14.655028785    8.325155660   30.459089583 XXXX 1      oap2    O  -1.100
H1      14.614166849    9.154428912   30.973973659 XXXX 1      hop     H   0.200
H2      13.361901073   15.490477320   36.767305830 XXXX 1      hop     H   0.400
H3      13.694188837   15.887904397   33.205582544 XXXX 1      hop     H   0.400
H4      15.348343533   11.162016717   32.299427449 XXXX 1      hop     H   0.400
H5      15.699190190   10.489466812   35.970508549 XXXX 1      hop     H   0.400
end
O1      29.554120584   19.670584115    3.771211895 XXXX 1      oap1    O  -0.800
O2      30.330755007   23.677391265    4.446915243 XXXX 1      oap1    O  -0.800
O3      26.869490449   22.859087047    1.998526664 XXXX 1      oap1    O  -0.650
O4      30.109646715   21.676704152    8.392280751 XXXX 1      oap1    O  -0.800
O5      29.287414609   17.253706537    7.932333696 XXXX 1      oap1    O  -0.800
O6      32.985637543   18.730941384   10.663512239 XXXX 1      oap1    O  -0.800
O7      28.603904177   21.803551145   10.449956279 XXXX 1      oap1    O  -0.800
O8      27.730575741   17.264784363    9.835863884 XXXX 1      oap1    O  -0.800
O9      31.520339103   18.608225753   12.612603190 XXXX 1      oap1    O  -0.800
O10     28.303258468   18.745540865    5.750716818 XXXX 1      oap1    O  -0.800
O11     28.834043680   23.794179948    6.357190148 XXXX 1      oap1    O  -0.800
O12     24.649826593   22.300538650    3.149837026 XXXX 1      oap1    O  -0.625
Ca1     33.158197016   19.282869069    5.586591919 XXXX 1      ca+h    Ca  1.500
Ca2     27.344723681   21.949006061    5.783589048 XXXX 1      ca+h    Ca  1.500
Ca3     25.110006213   21.829234294    8.522511183 XXXX 1      ca+h    Ca  1.500
Ca4     30.944253552   19.374011669    8.295543825 XXXX 1      ca+h    Ca  1.500
P1      29.499141135   19.585042453    5.308678459 XXXX 1      pap     P   1.000
O13     29.463818571   20.946281644    5.889085324 XXXX 1      oap1    O  -0.800
O14     30.742022304   18.859872735    5.907604675 XXXX 1      oap1    O  -0.800
Ca5     30.984586003   22.520925518    6.332725130 XXXX 1      ca+h    Ca  1.500
P2      28.997266686   24.279234514    4.899348977 XXXX 1      pap     P   1.000
O15     27.925656497   23.588764456    4.029907016 XXXX 1      oap1    O  -0.800
O16     29.001655825   25.814522318    4.844180881 XXXX 1      oap1    O  -0.800
P3      26.014484566   21.707857180    2.578531044 XXXX 1      pap     P   1.000
O17     26.632709210   20.917098074    3.717410794 XXXX 1      oap1    O  -0.625
O18     25.649831875   20.678472312    1.429286501 XXXX 1      oap1    O  -0.650
Ca6     30.979425431   22.574911215   10.756501241 XXXX 1      ca+h    Ca  1.500
P4      28.721592453   21.345565407    9.000443832 XXXX 1      pap     P   1.000
O19     28.586388791   19.831439354    9.038351991 XXXX 1      oap1    O  -0.800
O20     27.604702754   22.027548411    8.159334712 XXXX 1      oap1    O  -0.800
Ca7     27.013208475   18.414780489    7.903199448 XXXX 1      ca+h    Ca  1.500
P5      29.111807122   16.735759323    9.347352237 XXXX 1      pap     P   1.000
O21     30.162197563   17.416609082   10.198876677 XXXX 1      oap1    O  -0.800
O22     29.182322667   15.209803771    9.405257448 XXXX 1      oap1    O  -0.800
Ca8     31.885080235   16.321960668   11.320252240 XXXX 1      ca+h    Ca  1.500
P6      32.114099247   19.576183089   11.639798349 XXXX 1      pap     P   1.000
O23     31.035683662   20.223293150   10.794531366 XXXX 1      oap1    O  -0.800
O24     33.118989946   20.584674068   12.288263394 XXXX 1      oap1    O  -0.800
O25     24.641280138   16.540060555    9.252596970 XXXX 1      oap2    O  -1.100
O26     26.635584576   16.377829660    6.815414723 XXXX 1      oap2    O  -1.100
H1      24.994919655   16.317288306    8.373707260 XXXX 1      hop     H   0.200
H2      26.746947564   16.500278049    5.884914815 XXXX 1      hop     H   0.200
H3      24.738052940   20.562881580    1.341469950 XXXX 1      hop     H   0.400
H4      27.379952422   23.193309146    2.737263438 XXXX 1      hop     H   0.400
end
O1      25.590694755   19.530937007    9.379881816 XXXX 1      oap1    O  -0.800
O2      26.249398662   23.773950239   10.000584772 XXXX 1      oap1    O  -0.800
O3      22.975043575   22.411670426    7.473639790 XXXX 1      oap1    O  -0.800
O4      25.952122491   21.810402123   14.174824173 XXXX 1      oap1    O  -0.800
O5      25.185354919   17.266698579   13.452231812 XXXX 1      oap1    O  -0.800
O6      28.792224715   18.498738756   16.268522507 XXXX 1      oap1    O  -0.800
O7      24.271616005   21.833651690   16.066289161 XXXX 1      oap1    O  -0.800
O8      23.575999504   17.075522539   15.346746878 XXXX 1      oap1    O  -0.800
O9      27.130830355   18.575235881   18.037850238 XXXX 1      oap1    O  -0.800
O10     24.051121693   19.019877449   11.285829360 XXXX 1      oap1    O  -0.800
O11     24.920567899   24.072310378   12.124828063 XXXX 1      oap1    O  -0.800
O12     21.202778176   22.542308420    9.247884960 XXXX 1      oap1    O  -0.800
Ca1     28.911429763   19.122904136   11.328396294 XXXX 1      ca+h    Ca  1.500
Ca2     22.941933032   21.876744312   11.189300823 XXXX 1      ca+h    Ca  1.500
Ca3     21.044393958   21.894168739   14.017976676 XXXX 1      ca+h    Ca  1.500
Ca4     26.873568767   19.126670188   13.988893375 XXXX 1      ca+h    Ca  1.500
Ca5     23.066730717   18.332664795    9.069335504 XXXX 1      ca+h    Ca  1.500
P1      25.399530895   19.697555909   10.898954310 XXXX 1      pap     P   1.000
O13     25.273491211   21.208467876   11.138340687 XXXX 1      oap1    O  -0.800
O14     26.519182660   19.033475208   11.704817600 XXXX 1      oap1    O  -0.800
Ca6     27.067645536   22.471742256   11.999722367 XXXX 1      ca+h    Ca  1.500
P2      24.989060266   24.387547294   10.610700118 XXXX 1      pap     P   1.000
O15     23.884810324   23.606117946    9.920220920 XXXX 1      oap1    O  -0.800
O16     24.925430825   25.922050044   10.309674444 XXXX 1      oap1    O  -0.800
Ca7     22.204638523   24.712004592    8.554439451 XXXX 1      ca+h    Ca  1.500
P3      21.948967965   21.572049629    8.318794048 XXXX 1      pap     P   1.000
O17     22.810438876   20.612197032    9.151250552 XXXX 1      oap1    O  -0.800
O18     20.872618675   20.850922287    7.508787901 XXXX 1      oap1    O  -0.800
Ca8     26.860868663   22.615122669   16.223285587 XXXX 1      ca+h    Ca  1.500
P4      24.515056071   21.368479709   14.606720827 XXXX 1      pap     P   1.000
O19     24.577388955   19.854000022   14.628542899 XXXX 1      oap1    O  -0.800
O20     23.472703297   21.865498256   13.579829935 XXXX 1      oap1    O  -0.800
Ca9     22.937979597   18.420395678   13.312661465 XXXX 1      ca+h    Ca  1.500
P5      24.975946850   16.669068347   14.889347943 XXXX 1      pap     P   1.000
O21     25.998474095   17.275409374   15.808472384 XXXX 1      oap1    O  -0.800
O22     25.158564073   15.164351202   14.845796435 XXXX 1      oap1    O  -0.800
Ca10    27.776351442   16.420573559   17.020261666 XXXX 1      ca+h    Ca  1.500
P6      28.083681563   19.475268034   17.168092481 XXXX 1      pap     P   1.000
O23     27.141373695   20.283509549   16.212830338 XXXX 1      oap1    O  -0.800
O24     29.046593961   20.381160454   17.986397665 XXXX 1      oap1    O  -0.800
O25     20.368621539   16.427493892   15.079079519 XXXX 1      oap2    O  -1.100
O26     22.748962002   16.281615871   12.014166830 XXXX 1      oap2    O  -1.100
H1      21.254042889   16.631860903   14.801669514 XXXX 1      hop     H   0.200
H2      23.148090998   15.842453797   11.234645932 XXXX 1      hop     H   0.200
end
O1      21.415674554   19.352699856   14.985923991 XXXX 1      oap1    O  -0.800
O2      22.136299675   23.919583426   15.729914504 XXXX 1      oap1    O  -0.800
O3      18.647641417   22.567677113   12.857940950 XXXX 1      oap1    O  -0.800
O4      21.639909479   22.063798447   19.761713686 XXXX 1      oap1    O  -0.800
O5      20.927220401   17.188874180   19.091655173 XXXX 1      oap1    O  -0.800
O6      24.503317231   18.511394483   21.912054085 XXXX 1      oap1    O  -0.800
O7      20.163723011   21.687363858   21.812396486 XXXX 1      oap1    O  -0.800
O8      19.383812718   17.300198303   20.947745110 XXXX 1      oap1    O  -0.800
O9      22.783174906   18.679469215   23.597380034 XXXX 1      oap1    O  -0.800
O10     19.848785897   19.191320284   16.971063704 XXXX 1      oap1    O  -0.800
O11     20.425505347   23.957410892   17.592220277 XXXX 1      oap1    O  -0.800
O12     17.194788040   22.430883115   14.868145995 XXXX 1      oap1    O  -0.800
Ca1     24.897439472   19.339122880   16.978656295 XXXX 1      ca+h    Ca  1.500
Ca2     18.849303554   21.907641279   16.848442864 XXXX 1      ca+h    Ca  1.500
Ca3     16.808851572   21.924568922   19.667536422 XXXX 1      ca+h    Ca  1.500
Ca4     22.602972031   19.025395669   19.656080064 XXXX 1      ca+h    Ca  1.500
Ca5     19.073929378   18.443780827   14.686772252 XXXX 1      ca+h    Ca  1.500
P1      21.216763803   19.701205222   16.477778486 XXXX 1      pap     P   1.000
O13     21.232926284   21.255274419   16.636500302 XXXX 1      oap1    O  -0.800
O14     22.443104071   19.006071552   17.237213675 XXXX 1      oap1    O  -0.800
Ca6     22.730418256   22.570889293   17.745972672 XXXX 1      ca+h    Ca  1.500
P2      20.763459348   24.457361552   16.165247223 XXXX 1      pap     P   1.000
O15     19.773719553   23.730205046   15.264555828 XXXX 1      oap1    O  -0.800
O16     20.754147163   25.950591350   15.983263051 XXXX 1      oap1    O  -0.800
Ca7     17.995343079   24.808462521   14.074131783 XXXX 1      ca+h    Ca  1.500
P3      17.953755159   21.647089811   13.839365283 XXXX 1      pap     P   1.000
O17     19.062200657   20.867451788   14.595456184 XXXX 1      oap1    O  -0.800
O18     16.963554203   20.704736975   13.109662664 XXXX 1      oap1    O  -0.800
Ca8     22.621266767   22.607206409   22.021771891 XXXX 1      ca+h    Ca  1.500
P4      20.370723394   21.469515565   20.297808494 XXXX 1      pap     P   1.000
O19     20.403269148   19.932616048   20.055221144 XXXX 1      oap1    O  -0.800
O20     19.142347998   22.035105820   19.504684851 XXXX 1      oap1    O  -0.800
Ca9     18.707519459   18.609771237   18.919906449 XXXX 1      ca+h    Ca  1.500
P5      20.707889692   16.720184635   20.511915085 XXXX 1      pap     P   1.000
O21     21.780680926   17.382813562   21.378629560 XXXX 1      oap1    O  -0.800
O22     20.723334891   15.201743922   20.548845996 XXXX 1      oap1    O  -0.800
Ca10    23.494134191   16.288138525   22.655332334 XXXX 1      ca+h    Ca  1.500
P6      23.623551443   19.482612212   22.662303563 XXXX 1      pap     P   1.000
O23     22.670943888   20.201857183   21.739274676 XXXX 1      oap1    O  -0.800
O24     24.519506392   20.494655612   23.437608273 XXXX 1      oap1    O  -0.800
O25     16.129486726   16.426763897   20.486438338 XXXX 1      oap2    O  -1.100
O26     18.128366617   16.474853415   17.883958587 XXXX 1      oap2    O  -1.100
H1      16.381699926   16.552725907   19.584120104 XXXX 1      hop     H   0.200
H2      18.510486756   16.139542056   17.115386259 XXXX 1      hop     H   0.200
end
O1      17.216760253   19.226514701   20.601937564 XXXX 1      oap1    O  -0.800
O2      18.266704672   24.044741810   21.479790872 XXXX 1      oap1    O  -0.800
O3      14.365315059   22.573627454   18.590056291 XXXX 1      oap1    O  -0.800
O4      17.532591262   21.848357370   25.261763597 XXXX 1      oap1    O  -0.800
O5      16.620685546   17.223927641   24.667923680 XXXX 1      oap1    O  -0.800
O6      20.369450521   18.467443226   27.493535944 XXXX 1      oap1    O  -0.800
O7      16.018664089   21.740603384   27.274539157 XXXX 1      oap1    O  -0.800
O8      15.093107118   17.087275198   26.625901830 XXXX 1      oap1    O  -0.800
O9      18.661238320   18.581482040   29.190814913 XXXX 1      oap1    O  -0.800
O10     15.598375639   19.237976936   22.529360019 XXXX 1      oap1    O  -0.800
O11     16.508766925   23.842933861   23.186054269 XXXX 1      oap1    O  -0.800
O12     12.964736306   22.474856006   20.678826002 XXXX 1      oap1    O  -0.800
Ca1     20.377314111   19.281494983   22.479867156 XXXX 1      ca+h    Ca  1.500
Ca2     14.787620324   21.811868800   22.555170155 XXXX 1      ca+h    Ca  1.500
Ca3     12.758182311   21.966336533   25.341320480 XXXX 1      ca+h    Ca  1.500
Ca4     18.402905250   18.944161893   25.287592157 XXXX 1      ca+h    Ca  1.500
Ca5     14.742992530   18.433636121   20.410469113 XXXX 1      ca+h    Ca  1.500
P1      17.019817964   19.727036588   22.015166757 XXXX 1      pap     P   1.000
O13     17.033742429   21.281404344   22.061635575 XXXX 1      oap1    O  -0.800
O14     18.119651468   19.137656852   22.857150866 XXXX 1      oap1    O  -0.800
Ca6     18.560148361   22.488933497   23.337986932 XXXX 1      ca+h    Ca  1.500
P2      16.825049278   24.415368300   21.785500287 XXXX 1      pap     P   1.000
O15     15.820689471   23.760840591   20.813240646 XXXX 1      oap1    O  -0.800
O16     16.593132508   25.966710409   21.723901715 XXXX 1      oap1    O  -0.800
Ca7     14.007571906   24.742800616   19.745087879 XXXX 1      ca+h    Ca  1.500
P3      13.707395248   21.645248438   19.574723498 XXXX 1      pap     P   1.000
O17     14.817614364   20.838122413   20.259369725 XXXX 1      oap1    O  -0.800
O18     12.698017874   20.679039861   18.886505200 XXXX 1      oap1    O  -0.800
Ca8     18.480555976   22.569961614   27.453638340 XXXX 1      ca+h    Ca  1.500
P4      16.116472437   21.425792663   25.802491206 XXXX 1      pap     P   1.000
O19     15.989955252   19.897600032   25.636922314 XXXX 1      oap1    O  -0.800
O20     15.000292578   22.151118107   25.016132923 XXXX 1      oap1    O  -0.800
Ca9     14.268591613   18.351439991   24.576166768 XXXX 1      ca+h    Ca  1.500
P5      16.469516174   16.669952088   26.079068862 XXXX 1      pap     P   1.000
O21     17.624860672   17.322514787   26.890176637 XXXX 1      oap1    O  -0.800
O22     16.565512336   15.126046648   26.100331640 XXXX 1      oap1    O  -0.800
Ca10    19.371566155   16.385120864   28.170619230 XXXX 1      ca+h    Ca  1.500
P6      19.592739643   19.420825643   28.332691687 XXXX 1      pap     P   1.000
O23     18.639022859   20.199125717   27.398673795 XXXX 1      oap1    O  -0.800
O24     20.573666688   20.345916648   29.164622572 XXXX 1      oap1    O  -0.800
O25     11.987263832   16.487815291   26.055536830 XXXX 1      oap2    O  -1.100
O26     13.909268998   16.242512628   23.414481717 XXXX 1      oap2    O  -1.100
H1      12.421178465   16.357094500   25.189662641 XXXX 1      hop     H   0.200
H2      14.737279979   15.863594149   23.114141728 XXXX 1      hop     H   0.200
end
O1      13.042274104   19.597796155   26.130526752 XXXX 1      oap1    O  -0.800
O2      13.976822215   24.020769507   27.068253142 XXXX 1      oap1    O  -0.800
O3      10.013599745   22.787001602   24.003851713 XXXX 1      oap1    O  -0.800
O4      13.296925192   21.787701312   30.726626937 XXXX 1      oap1    O  -0.800
O5      12.610808972   17.409103093   30.242340013 XXXX 1      oap1    O  -0.800
O6      15.847272915   18.914174651   32.655360403 XXXX 1      oap1    O  -0.625
O7      11.839512965   22.322337907   32.589473312 XXXX 1      oap1    O  -0.800
O8      10.819934995   17.218100840   31.882167910 XXXX 1      oap1    O  -0.800
O9      14.524157523   18.319251784   34.616506939 XXXX 1      oap1    O  -0.650
O10     11.428950329   19.383965712   28.085418668 XXXX 1      oap1    O  -0.800
O11     12.437182297   24.067849029   28.986039336 XXXX 1      oap1    O  -0.800
O12      8.875434657   22.620611318   26.286694304 XXXX 1      oap1    O  -0.800
Ca1     16.246473731   19.105320520   27.936772345 XXXX 1      ca+h    Ca  1.500
Ca2     10.534693575   21.979162983   27.946564903 XXXX 1      ca+h    Ca  1.500
Ca3      8.452167727   21.778433874   30.908532171 XXXX 1      ca+h    Ca  1.500
Ca4     14.060848563   19.151054240   30.888855407 XXXX 1      ca+h    Ca  1.500
Ca5     10.663324951   18.510606471   25.908173332 XXXX 1      ca+h    Ca  1.500
P1      12.820202184   19.895888452   27.623504809 XXXX 1      pap     P   1.000
O13     12.920546672   21.401271013   27.849529744 XXXX 1      oap1    O  -0.800
O14     13.853199361   19.155382676   28.478641086 XXXX 1      oap1    O  -0.800
Ca6     14.590079767   22.610883304   29.015289882 XXXX 1      ca+h    Ca  1.500
P2      12.561375281   24.427609818   27.471623432 XXXX 1      pap     P   1.000
O15     11.523633247   23.634332371   26.558933058 XXXX 1      oap1    O  -0.800
O16     12.394941710   25.968554523   27.306892089 XXXX 1      oap1    O  -0.800
Ca7      9.626017588   24.800112735   25.247925879 XXXX 1      ca+h    Ca  1.500
P3       9.413059409   21.829557068   25.086193741 XXXX 1      pap     P   1.000
O17     10.537808918   20.950366147   25.740193713 XXXX 1      oap1    O  -0.800
O18      8.417815129   20.806672417   24.494040089 XXXX 1      oap1    O  -0.800
Ca8     14.245250008   22.677916567   32.753552418 XXXX 1      ca+h    Ca  1.500
P4      11.868735092   21.487434184   31.195104638 XXXX 1      pap     P   1.000
O19     11.811271679   19.979154741   31.360549273 XXXX 1      oap1    O  -0.800
O20     10.780828108   21.984294680   30.266055069 XXXX 1      oap1    O  -0.800
Ca9     10.325756143   18.678989718   30.065930551 XXXX 1      ca+h    Ca  1.500
P5      12.277635659   16.787846466   31.628956547 XXXX 1      pap     P   1.000
O21     13.203939730   17.338954196   32.681898071 XXXX 1      oap1    O  -0.800
O22     12.350926444   15.274013692   31.548763373 XXXX 1      oap1    O  -0.800
P6      15.152548744   19.448464518   33.927627555 XXXX 1      pap     P   1.000
O23     14.182855086   20.577308527   33.499755799 XXXX 1      oap1    O  -0.625
O24     16.234555270   20.129141509   34.787302086 XXXX 1      oap1    O  -0.650
O25      7.900493482   16.417649621   32.528310314 XXXX 1      oap2    O  -1.100
O26     10.111407887   16.556123267   28.906420977 XXXX 1      oap2    O  -1.100
H1       7.169651673   16.533623809   33.061565157 XXXX 1      hop     H   0.200
H2      10.668129017   16.788446077   28.151895393 XXXX 1      hop     H   0.200
H3      14.033752580   17.955376258   33.937339313 XXXX 1      hop     H   0.400
H4      16.641498600   19.359230629   35.070731318 XXXX 1      hop     H   0.400
end
O1       8.900172942   19.669186537   31.946892990 XXXX 1      oap1    O  -0.625
O2      10.745254470   24.195944023   34.304356500 XXXX 1      oap1    O  -0.650
O3       6.221686957   22.207106827   29.771979176 XXXX 1      oap1    O  -0.800
O4       8.387575907   18.701095114   34.223779112 XXXX 1      oap1    O  -0.650
O5       8.270905125   23.848820407   34.730976620 XXXX 1      oap1    O  -0.650
O6       4.874337382   22.697128021   31.828831166 XXXX 1      oap1    O  -0.800
Ca1      5.880109925   22.296786469   33.901388301 XXXX 1      ca+h    Ca  1.500
Ca2      6.505574931   18.340654983   31.626662750 XXXX 1      ca+h    Ca  1.500
P1       8.986363932   19.944417296   33.520842938 XXXX 1      pap     P   1.000
O7       8.026632302   21.169669013   33.893050758 XXXX 1      oap1    O  -0.625
O8      10.502945633   20.112127790   33.886780823 XXXX 1      oap1    O  -0.650
P2       9.291923388   24.475624157   33.793671300 XXXX 1      pap     P   1.000
O9       9.237454485   23.850180667   32.387912638 XXXX 1      oap1    O  -0.625
O10      9.033618623   25.961179792   33.589283842 XXXX 1      oap1    O  -0.625
Ca3      5.435797813   24.704791469   30.262289996 XXXX 1      ca+h    Ca  1.500
P3       5.403141637   21.600788630   30.896767912 XXXX 1      pap     P   1.000
O11      6.312224527   20.735180253   31.760628203 XXXX 1      oap1    O  -0.800
O12      4.273843195   20.768614837   30.227201428 XXXX 1      oap1    O  -0.800
H1       7.642701120   24.567214924   34.806850365 XXXX 1      hop     H   0.400
H2      11.126343114   23.429470786   33.813200287 XXXX 1      hop     H   0.400
H3       7.403705517   18.812796977   34.343358482 XXXX 1      hop     H   0.400
H4      11.125626938   20.232195579   33.153534121 XXXX 1      hop     H   0.400
end
O1      25.703249708   25.939679536    1.476672964 XXXX 1      oap1    O  -0.650
O2      26.932571328   31.915725670    1.556008795 XXXX 1      oap1    O  -0.650
O3      26.224522503   29.615957106    5.234493476 XXXX 1      oap1    O  -0.800
O4      24.788201951   25.089744316    5.129128225 XXXX 1      oap1    O  -0.800
O5      29.092859625   26.827796080    7.595798651 XXXX 1      oap1    O  -0.800
O6      24.922677095   29.783251730    7.436413628 XXXX 1      oap1    O  -0.800
O7      24.162457849   25.408250082    7.441233076 XXXX 1      oap1    O  -0.800
O8      27.648161871   26.599651842    9.630349747 XXXX 1      oap1    O  -0.800
O9      23.657519267   26.308301001    2.879948140 XXXX 1      oap1    O  -0.625
O10     27.839765775   32.643602984    3.687810530 XXXX 1      oap1    O  -0.625
Ca1     32.168336096   24.254584821    3.204999832 XXXX 1      ca+h    Ca  1.500
Ca2     23.842397294   30.228163254    2.846653411 XXXX 1      ca+h    Ca  1.500
Ca3     21.429210868   30.301793770    5.569336883 XXXX 1      ca+h    Ca  1.500
Ca4     27.412499695   27.382610769    5.512770266 XXXX 1      ca+h    Ca  1.500
P1      25.134061839   26.836771352    2.568166138 XXXX 1      pap     P   1.000
O11     25.164949429   28.333048209    2.188365721 XXXX 1      oap1    O  -0.625
O12     25.908391886   26.651777662    3.863125113 XXXX 1      oap1    O  -0.650
P2      26.757474687   31.763574978    3.020072398 XXXX 1      pap     P   1.000
O13     27.116501181   30.307962811    3.341503295 XXXX 1      oap1    O  -0.650
O14     25.309286826   31.993958569    3.529851077 XXXX 1      oap1    O  -0.625
Ca5     27.079324445   30.717869868    7.798607182 XXXX 1      ca+h    Ca  1.500
P3      24.842551330   29.487314414    5.906844949 XXXX 1      pap     P   1.000
O15     24.295889969   28.020114247    5.773532643 XXXX 1      oap1    O  -0.800
O16     23.914631429   30.486532258    5.238646070 XXXX 1      oap1    O  -0.800
Ca6     22.697901782   26.427299046    5.143422313 XXXX 1      ca+h    Ca  1.500
P4      25.292711274   24.925193029    6.568199421 XXXX 1      pap     P   1.000
O17     26.493139176   25.819678304    6.965085586 XXXX 1      oap1    O  -0.800
O18     25.533633930   23.384089668    6.747175290 XXXX 1      oap1    O  -0.800
Ca7     27.925682271   24.513471165    8.413668785 XXXX 1      ca+h    Ca  1.500
P5      28.265343275   27.614052310    8.607599050 XXXX 1      pap     P   1.000
O19     27.195077484   28.396686797    7.924685856 XXXX 1      oap1    O  -0.800
O20     29.239704441   28.617993066    9.354549524 XXXX 1      oap1    O  -0.800
O21     21.633459901   24.305321616    5.994603947 XXXX 1      oap2    O  -1.100
H1      21.116586010   24.411906854    5.206816421 XXXX 1      hop     H   0.200
H2      26.630352925   30.016903029    4.161643288 XXXX 1      hop     H   0.400
H3      27.912101249   31.783865034    1.343113417 XXXX 1      hop     H   0.400
H4      25.905345907   25.115228541    1.812744213 XXXX 1      hop     H   0.400
H5      25.362902510   25.968860786    4.375782307 XXXX 1      hop     H   0.400
end
O1      21.351806796   27.147590855    6.851979108 XXXX 1      oap1    O  -0.800
O2      22.616902032   32.165702524    7.055459244 XXXX 1      oap1    O  -0.800
O3      18.857834171   30.702924488    4.506237938 XXXX 1      oap1    O  -0.800
O4      22.078597445   30.116923930   11.354637878 XXXX 1      oap1    O  -0.800
O5      21.547710860   25.375143392   10.777074671 XXXX 1      oap1    O  -0.800
O6      24.976396996   26.750691649   13.272187117 XXXX 1      oap1    O  -0.800
O7      20.627770743   29.789011342   13.335925320 XXXX 1      oap1    O  -0.800
O8      19.945367443   25.393682840   12.633803605 XXXX 1      oap1    O  -0.800
O9      23.624517191   26.759977329   15.438149947 XXXX 1      oap1    O  -0.800
O10     20.228062489   27.921547282    8.996206780 XXXX 1      oap1    O  -0.800
O11     21.353951531   32.099869651    9.224564558 XXXX 1      oap1    O  -0.800
O12     17.507995934   30.609461601    6.585289822 XXXX 1      oap1    O  -0.800
Ca1     25.023758789   27.406186680    8.398866254 XXXX 1      ca+h    Ca  1.500
Ca2     19.286874930   30.207728186    8.516896305 XXXX 1      ca+h    Ca  1.500
Ca3     17.323777113   29.943431886   11.399119560 XXXX 1      ca+h    Ca  1.500
Ca4     23.108782703   27.237777339   11.269724019 XXXX 1      ca+h    Ca  1.500
Ca5     18.900809639   26.790606363    6.048220237 XXXX 1      ca+h    Ca  1.500
P1      21.491277342   28.012007535    8.134842141 XXXX 1      pap     P   1.000
O13     21.604975210   29.499794963    7.743282862 XXXX 1      oap1    O  -0.800
O14     22.757166201   27.532679973    8.938714469 XXXX 1      oap1    O  -0.800
Ca6     23.146174916   30.615340987    9.230066797 XXXX 1      ca+h    Ca  1.500
P2      21.305070217   32.657582770    7.741547009 XXXX 1      pap     P   1.000
O15     20.139978505   32.027855317    6.959779252 XXXX 1      oap1    O  -0.800
O16     21.185639645   34.248234534    7.673240824 XXXX 1      oap1    O  -0.800
Ca7     18.019805120   32.748315998    5.783081250 XXXX 1      ca+h    Ca  1.500
P3      18.224722163   29.753601649    5.527198283 XXXX 1      pap     P   1.000
O17     19.414410583   29.141406875    6.316850711 XXXX 1      oap1    O  -0.800
O18     17.350400615   28.638950441    4.921552163 XXXX 1      oap1    O  -0.800
Ca8     23.099133684   30.737281714   13.458578218 XXXX 1      ca+h    Ca  1.500
P4      20.735236013   29.527927452   11.823862228 XXXX 1      pap     P   1.000
O19     20.767118890   28.002350960   11.660896533 XXXX 1      oap1    O  -0.800
O20     19.630350671   30.075744484   11.028708966 XXXX 1      oap1    O  -0.800
Ca9     19.221585235   26.524771145   10.519075575 XXXX 1      ca+h    Ca  1.500
P5      21.316650167   24.821218553   12.172088941 XXXX 1      pap     P   1.000
O21     22.421036359   25.532559976   12.937796183 XXXX 1      oap1    O  -0.800
O22     21.391573103   23.306997736   12.195254754 XXXX 1      oap1    O  -0.800
Ca10    23.932268735   24.476099768   14.287519075 XXXX 1      ca+h    Ca  1.500
P6      24.226689375   27.644076016   14.318708466 XXXX 1      pap     P   1.000
O23     23.004550552   28.285020272   13.539733829 XXXX 1      oap1    O  -0.800
O24     25.184776085   28.744486686   14.879056964 XXXX 1      oap1    O  -0.800
O25     17.540357281   24.777143804   11.200856456 XXXX 1      oap2    O  -1.100
O26     19.566812038   24.695548897    8.732442006 XXXX 1      oap2    O  -1.100
H1      17.027733327   23.955213271   11.374860988 XXXX 1      hop     H   0.200
H2      19.042243080   25.349333741    8.201676984 XXXX 1      hop     H   0.200
end
O1      17.649800856   27.506750641   12.188237243 XXXX 1      oap1    O  -0.800
O2      18.548468311   32.146446549   13.109514625 XXXX 1      oap1    O  -0.800
O3      15.008275002   30.334297063   10.298763769 XXXX 1      oap1    O  -0.800
O4      17.837962741   30.428924522   16.972832516 XXXX 1      oap1    O  -0.800
O5      17.178105484   25.319732210   16.272754167 XXXX 1      oap1    O  -0.800
O6      20.939502955   26.711349400   19.212084605 XXXX 1      oap1    O  -0.800
O7      16.276463249   29.712402020   18.879610481 XXXX 1      oap1    O  -0.800
O8      15.650399286   25.331723722   18.277650301 XXXX 1      oap1    O  -0.800
O9      19.182957277   26.756689363   21.001422335 XXXX 1      oap1    O  -0.800
O10     16.294421177   27.459995559   14.276967719 XXXX 1      oap1    O  -0.800
O11     16.824022564   32.032334656   14.867460356 XXXX 1      oap1    O  -0.800
O12     13.371925010   30.744775273   12.060297180 XXXX 1      oap1    O  -0.800
Ca1     20.998931210   27.288792149   13.928277195 XXXX 1      ca+h    Ca  1.500
Ca2     15.361582913   29.956544231   14.176581294 XXXX 1      ca+h    Ca  1.500
Ca3     12.984987755   29.874715987   16.941850238 XXXX 1      ca+h    Ca  1.500
Ca4     18.843372468   27.150911685   16.866431484 XXXX 1      ca+h    Ca  1.500
Ca5     15.384726248   26.417713714   12.048720294 XXXX 1      ca+h    Ca  1.500
P1      17.613751819   27.876880339   13.655264344 XXXX 1      pap     P   1.000
O13     17.658085141   29.396583901   13.769831167 XXXX 1      oap1    O  -0.800
O14     18.751955439   27.158346517   14.498575957 XXXX 1      oap1    O  -0.800
Ca6     19.113194749   30.688149537   14.939986050 XXXX 1      ca+h    Ca  1.500
P2      17.106315980   32.546452808   13.460370923 XXXX 1      pap     P   1.000
O15     16.182078264   31.798892420   12.491849737 XXXX 1      oap1    O  -0.800
O16     16.980206725   34.073022909   13.318612466 XXXX 1      oap1    O  -0.800
Ca7     14.389171874   32.943038599   11.427467281 XXXX 1      ca+h    Ca  1.500
P3      13.997760237   29.633441835   11.197195826 XXXX 1      pap     P   1.000
O17     14.831322351   28.724678768   12.125739914 XXXX 1      oap1    O  -0.800
O18     12.963522650   28.767498320   10.383082264 XXXX 1      oap1    O  -0.800
Ca8     18.867341267   30.771812394   19.159122605 XXXX 1      ca+h    Ca  1.500
P4      16.522724202   29.594513861   17.367224883 XXXX 1      pap     P   1.000
O19     16.691208118   28.027311668   17.175028415 XXXX 1      oap1    O  -0.800
O20     15.381514690   30.235074623   16.572179520 XXXX 1      oap1    O  -0.800
Ca9     14.919340167   26.596602271   16.077346117 XXXX 1      ca+h    Ca  1.500
P5      17.037116614   24.809274521   17.749951783 XXXX 1      pap     P   1.000
O21     18.166826079   25.462986170   18.593819901 XXXX 1      oap1    O  -0.800
O22     17.110705126   23.318026845   17.739001490 XXXX 1      oap1    O  -0.800
Ca10    19.856211281   24.458415403   19.762555521 XXXX 1      ca+h    Ca  1.500
P6      20.047800480   27.635775458   20.046393872 XXXX 1      pap     P   1.000
O23     19.003700326   28.340428556   19.119204176 XXXX 1      oap1    O  -0.800
O24     20.966219436   28.626221213   20.780086920 XXXX 1      oap1    O  -0.800
O25     13.437421079   24.632557195   16.272755228 XXXX 1      oap2    O  -1.100
O26     15.591477385   24.758705953   13.932429219 XXXX 1      oap2    O  -1.100
H1      12.975693025   24.639464798   17.086769483 XXXX 1      hop     H   0.200
H2      14.786271180   24.933295973   14.484933669 XXXX 1      hop     H   0.200
end
O1      13.470122150   27.461483381   17.817817110 XXXX 1      oap1    O  -0.800
O2      14.443634485   32.169764282   18.822166241 XXXX 1      oap1    O  -0.800
O3      10.819064794   30.300305281   15.718266281 XXXX 1      oap1    O  -0.800
O4      13.567874296   30.285004425   22.598198709 XXXX 1      oap1    O  -0.800
O5      13.245168836   25.272626291   21.921644973 XXXX 1      oap1    O  -0.800
O6      16.652637904   26.585241225   24.854953765 XXXX 1      oap1    O  -0.800
O7      12.221348790   29.782406566   24.605071277 XXXX 1      oap1    O  -0.800
O8      11.582427420   25.397209341   23.814168375 XXXX 1      oap1    O  -0.800
O9      15.085162702   27.030679889   26.762040316 XXXX 1      oap1    O  -0.800
O10     12.042803615   27.395006645   19.886901841 XXXX 1      oap1    O  -0.800
O11     12.563370871   32.015289684   20.431857453 XXXX 1      oap1    O  -0.800
O12      9.212349827   30.612019737   17.765415924 XXXX 1      oap1    O  -0.800
Ca1     16.924923426   27.308682257   19.764738959 XXXX 1      ca+h    Ca  1.500
Ca2     11.070386493   29.997226661   19.826894164 XXXX 1      ca+h    Ca  1.500
Ca3      8.795317187   30.040505485   22.435754806 XXXX 1      ca+h    Ca  1.500
Ca4     14.817303467   27.259848813   22.607255874 XXXX 1      ca+h    Ca  1.500
Ca5     11.184395166   26.466053241   17.663195360 XXXX 1      ca+h    Ca  1.500
P1      13.342820901   27.839270076   19.314343670 XXXX 1      pap     P   1.000
O13     13.377690446   29.324635893   19.501774441 XXXX 1      oap1    O  -0.800
O14     14.487451009   27.265796370   20.247693084 XXXX 1      oap1    O  -0.800
Ca6     14.970285725   30.636364607   20.564545279 XXXX 1      ca+h    Ca  1.500
P2      12.993557185   32.598334659   19.032710015 XXXX 1      pap     P   1.000
O15     12.108569098   31.859681834   18.001209716 XXXX 1      oap1    O  -0.800
O16     12.838721225   34.131352994   18.978845797 XXXX 1      oap1    O  -0.800
Ca7     10.297423518   32.749716772   16.873472248 XXXX 1      ca+h    Ca  1.500
P3       9.851910918   29.610261423   16.729169748 XXXX 1      pap     P   1.000
O17     10.814632574   28.911794278   17.744714860 XXXX 1      oap1    O  -0.800
O18      8.890032469   28.726553151   16.045307616 XXXX 1      oap1    O  -0.800
Ca8     14.889080769   30.865703666   24.690787997 XXXX 1      ca+h    Ca  1.500
P4      12.373352039   29.495420317   23.100963963 XXXX 1      pap     P   1.000
O19     12.566311508   27.983740859   22.860884486 XXXX 1      oap1    O  -0.800
O20     11.113737694   29.978561241   22.371025972 XXXX 1      oap1    O  -0.800
Ca9     10.885296587   26.642837081   21.835332922 XXXX 1      ca+h    Ca  1.500
P5      12.934915231   24.835735660   23.362101196 XXXX 1      pap     P   1.000
O21     14.121884127   25.493585401   24.228172859 XXXX 1      oap1    O  -0.800
O22     12.940505891   23.306995624   23.322015350 XXXX 1      oap1    O  -0.800
Ca10    15.791792479   24.400676884   25.364277586 XXXX 1      ca+h    Ca  1.500
P6      15.959261304   27.628626505   25.672688979 XXXX 1      pap     P   1.000
O23     14.966464780   28.418550792   24.809903705 XXXX 1      oap1    O  -0.800
O24     17.059661033   28.472742669   26.359756722 XXXX 1      oap1    O  -0.800
O25      9.523642731   24.648658322   21.768479209 XXXX 1      oap2    O  -1.100
O26     11.619304896   24.536042642   19.021016500 XXXX 1      oap2    O  -1.100
H1       8.597784423   24.640661002   21.990144175 XXXX 1      hop     H   0.200
H2      10.665747620   24.566019939   19.341942278 XXXX 1      hop     H   0.200
end
O1       9.092931569   27.282357549   23.544968608 XXXX 1      oap1    O  -0.800
O2      10.247036616   32.333525404   24.535793164 XXXX 1      oap1    O  -0.800
O3       6.573203717   30.595025457   21.361048378 XXXX 1      oap1    O  -0.800
O4       9.570741527   29.669433496   28.081130265 XXXX 1      oap1    O  -0.800
O5       8.901696450   25.387035898   27.456391911 XXXX 1      oap1    O  -0.800
O6      12.413634092   27.319012460   29.957761905 XXXX 1      oap1    O  -0.800
O7       8.159729257   30.369186610   30.050759269 XXXX 1      oap1    O  -0.800
O8       7.545841625   25.430188782   29.566523377 XXXX 1      oap1    O  -0.800
O9      11.440223195   26.809369743   32.297805527 XXXX 1      oap1    O  -0.800
O10      7.777446676   27.461445199   25.567821892 XXXX 1      oap1    O  -0.800
O11      8.443015754   31.894539714   26.176231118 XXXX 1      oap1    O  -0.800
O12      5.117406679   30.739991351   23.340410764 XXXX 1      oap1    O  -0.800
Ca1     12.689379480   27.348447209   25.359485882 XXXX 1      ca+h    Ca  1.500
Ca2      6.977648407   30.052311310   25.379216239 XXXX 1      ca+h    Ca  1.500
Ca3      4.685398379   30.194022065   28.046755658 XXXX 1      ca+h    Ca  1.500
Ca4     10.495088615   27.213256359   28.236501754 XXXX 1      ca+h    Ca  1.500
Ca5      6.850243336   26.659829656   23.120756415 XXXX 1      ca+h    Ca  1.500
P1       9.100870911   27.929930320   24.937946185 XXXX 1      pap     P   1.000
O13      9.180607240   29.449051130   24.743737205 XXXX 1      oap1    O  -0.800
O14     10.309822678   27.304028640   25.754176791 XXXX 1      oap1    O  -0.800
Ca6     10.750945917   30.593547962   26.293916114 XXXX 1      ca+h    Ca  1.500
P2       8.709385320   32.547304920   24.784761114 XXXX 1      pap     P   1.000
O15      7.821783100   31.885526430   23.754107384 XXXX 1      oap1    O  -0.800
O16      8.502892197   34.044404988   24.856072125 XXXX 1      oap1    O  -0.800
Ca7      5.883968372   32.770594157   22.321578593 XXXX 1      ca+h    Ca  1.500
P3       5.841339504   29.746864422   22.377731524 XXXX 1      pap     P   1.000
O17      6.831367254   28.962874312   23.250748120 XXXX 1      oap1    O  -0.800
O18      4.832949568   28.851070609   21.646853930 XXXX 1      oap1    O  -0.800
Ca8     10.600290397   30.632523320   30.245591404 XXXX 1      ca+h    Ca  1.500
P4       8.122191326   29.621557329   28.661329704 XXXX 1      pap     P   1.000
O19      7.881052171   28.094056062   28.808992081 XXXX 1      oap1    O  -0.800
O20      7.085964980   30.240408443   27.756573149 XXXX 1      oap1    O  -0.800
Ca9      6.536044531   26.735545369   27.413490638 XXXX 1      ca+h    Ca  1.500
P5       8.794898369   24.864176892   28.920524612 XXXX 1      pap     P   1.000
O21      9.986228740   25.519681560   29.697268224 XXXX 1      oap1    O  -0.800
O22      8.756768783   23.334107137   29.056650337 XXXX 1      oap1    O  -0.800
Ca10    11.612373074   24.653942113   31.156598943 XXXX 1      ca+h    Ca  1.500
P6      11.691058012   27.893133393   31.219179027 XXXX 1      pap     P   1.000
O23     10.323756946   28.341023769   30.702313842 XXXX 1      oap1    O  -0.800
O24     12.430766949   29.086081537   31.820523511 XXXX 1      oap1    O  -0.800
O25      5.248589156   24.587595857   27.686627925 XXXX 1      oap2    O  -1.100
O26      7.372297876   24.627860748   24.509136986 XXXX 1      oap2    O  -1.100
H1       4.307419087   24.564291799   28.000669507 XXXX 1      hop     H   0.200
H2       6.511721768   24.776928499   24.800893696 XXXX 1      hop     H   0.200
end
O1       5.038876520   27.060465015   29.236522253 XXXX 1      oap1    O  -0.800
O2       5.999300190   32.193057322   29.811495041 XXXX 1      oap1    O  -0.800
O3       2.340272157   30.663280993   26.931765781 XXXX 1      oap1    O  -0.800
O4       5.313938207   30.059837515   33.803399354 XXXX 1      oap1    O  -0.625
O5       6.435993500   25.461887328   32.400352267 XXXX 1      oap1    O  -0.625
O6       3.775789865   30.714695397   35.597112241 XXXX 1      oap1    O  -0.650
O7       4.047751165   25.953929599   33.129597692 XXXX 1      oap1    O  -0.650
O8       3.838569982   27.501919480   31.534228161 XXXX 1      oap1    O  -0.800
O9       4.240884167   31.789409824   31.501330436 XXXX 1      oap1    O  -0.800
O10      0.755573437   30.789657499   28.862746766 XXXX 1      oap1    O  -0.800
Ca1      8.375111749   26.812539125   31.318702194 XXXX 1      ca+h    Ca  1.500
Ca2      2.528402115   30.131373258   30.775503090 XXXX 1      ca+h    Ca  1.500
Ca3      1.570771851   27.317320790   33.549749615 XXXX 1      ca+h    Ca  1.500
Ca4      2.511710575   26.553015936   28.624537186 XXXX 1      ca+h    Ca  1.500
P1       4.976380542   27.900608763   30.554006298 XXXX 1      pap     P   1.000
O11      4.761144566   29.393974092   30.188257138 XXXX 1      oap1    O  -0.800
O12      6.362724725   27.846873248   31.301791627 XXXX 1      oap1    O  -0.800
Ca5      6.367370369   30.501692371   31.554437944 XXXX 1      ca+h    Ca  1.500
P2       4.526594358   32.558741301   30.163104943 XXXX 1      pap     P   1.000
O13      3.622916591   31.939932084   29.135191865 XXXX 1      oap1    O  -0.800
O14      4.331743448   34.098859254   30.143651459 XXXX 1      oap1    O  -0.800
Ca6      1.620709251   32.928406632   28.123146401 XXXX 1      ca+h    Ca  1.500
P3       1.490573670   29.809719381   27.885924600 XXXX 1      pap     P   1.000
O15      2.502778207   28.980447920   28.708107931 XXXX 1      oap1    O  -0.800
O16      0.487309611   28.907790490   27.153950962 XXXX 1      oap1    O  -0.800
P4       3.861665059   30.001887748   34.303829439 XXXX 1      pap     P   1.000
O17      3.445728434   28.494267644   34.582965498 XXXX 1      oap1    O  -0.625
O18      3.010800391   30.602096095   33.272810228 XXXX 1      oap1    O  -0.650
P5       5.502891709   25.705682116   33.649042857 XXXX 1      pap     P   1.000
O19      5.994042129   26.997932565   34.362132352 XXXX 1      oap1    O  -0.650
O20      5.603988331   24.532422233   34.580219935 XXXX 1      oap1    O  -0.625
O21      3.063582771   24.539158482   29.807930898 XXXX 1      oap2    O  -1.100
H1       2.532796916   24.216166512   30.551210955 XXXX 1      hop     H   0.200
H2       3.847633502   31.664192958   35.441660854 XXXX 1      hop     H   0.400
H3       5.301439215   27.621403392   34.507115605 XXXX 1      hop     H   0.400
H4       3.270689055   31.499559935   33.140559922 XXXX 1      hop     H   0.400
H5       4.008258233   26.568415547   32.358132678 XXXX 1      hop     H   0.400
end
O1      31.326349034    2.316942942   33.745458225 XXXX 1      oap1    O  -0.625
O2      31.030423922    7.704014910   32.187691477 XXXX 1      oap1    O  -0.625
O3      29.712737972    6.124518741   29.954727079 XXXX 1      oap1    O  -0.800
O4      31.772245491    4.755949432   33.880761202 XXXX 1      oap1    O  -0.650
O5      33.486582598    7.666253864   32.544604872 XXXX 1      oap1    O  -0.650
O6      27.692295107    6.049651060   31.361309046 XXXX 1      oap1    O  -0.800
Ca1     29.999579401    2.045127379   31.686002532 XXXX 1      ca+h    Ca  1.500
P1      32.355872212    3.426883630   33.377856492 XXXX 1      pap     P   1.000
O7      32.322720586    3.381848230   31.833608541 XXXX 1      oap1    O  -0.625
O8      33.730626817    2.998980003   33.909522676 XXXX 1      oap1    O  -0.650
P2      32.175635076    8.276516420   33.073544268 XXXX 1      pap     P   1.000
O9      31.958597320    7.809521980   34.499141101 XXXX 1      oap1    O  -0.650
O10     32.298572974    9.868580088   32.911751101 XXXX 1      oap1    O  -0.625
Ca2     28.831546111    8.290297280   30.915767498 XXXX 1      ca+h    Ca  1.500
P3      28.760826689    5.210441992   30.796805030 XXXX 1      pap     P   1.000
O11     29.674495896    4.538739363   31.872553882 XXXX 1      oap1    O  -0.800
O12     27.998768133    4.156769129   29.990200328 XXXX 1      oap1    O  -0.800
H1      34.095167256    7.285727140   33.201883177 XXXX 1      hop     H   0.400
H2      31.028043817    7.799015630   34.639273224 XXXX 1      hop     H   0.400
H3      34.492801207    3.272959327   33.327665841 XXXX 1      hop     H   0.400
H4      30.931383199    4.437315524   34.146029501 XXXX 1      hop     H   0.400
end
O1      32.553166844   10.958175776   23.538165220 XXXX 1      oap1    O  -0.800
O2      33.387208503   15.771067685   23.992138112 XXXX 1      oap1    O  -0.800
O3      29.861378321   14.270532142   21.495473211 XXXX 1      oap1    O  -0.800
O4      33.122940489   13.580960151   28.084959220 XXXX 1      oap1    O  -0.800
O5      32.375980827    9.082148682   27.461207060 XXXX 1      oap1    O  -0.800
O7      31.790598605   13.433049997   30.203814662 XXXX 1      oap1    O  -0.800
O8      30.708744180    8.990064323   29.470789564 XXXX 1      oap1    O  -0.800
O10     31.190002623   11.041791768   25.582879209 XXXX 1      oap1    O  -0.800
O11     32.055454102   15.690067872   26.078600905 XXXX 1      oap1    O  -0.800
O12     28.395850655   14.310033754   23.461885204 XXXX 1      oap1    O  -0.800
Ca2     30.015798535   13.781742131   25.443227109 XXXX 1      ca+h    Ca  1.500
Ca3     28.116502824   13.602610909   28.357664067 XXXX 1      ca+h    Ca  1.500
Ca4     34.023159267   11.043759270   28.157657185 XXXX 1      ca+h    Ca  1.500
Ca5     30.293442727   10.056439744   23.236028624 XXXX 1      ca+h    Ca  1.500
P1      32.489817949   11.498655244   24.969747235 XXXX 1      pap     P   1.000
O13     32.461262883   13.054292749   24.933124414 XXXX 1      oap1    O  -0.800
O14     33.672766933   11.011579104   25.799157630 XXXX 1      oap1    O  -0.800
Ca6     34.087374385   14.209822350   26.090138442 XXXX 1      ca+h    Ca  1.500
P2      32.043598191   16.162365805   24.592663321 XXXX 1      pap     P   1.000
O15     30.974760578   15.344560784   23.888411581 XXXX 1      oap1    O  -0.800
O16     31.914363157   17.722238229   24.418366614 XXXX 1      oap1    O  -0.800
Ca7     29.477606675   16.498094352   22.517450327 XXXX 1      ca+h    Ca  1.500
P3      29.063097461   13.383449393   22.469556822 XXXX 1      pap     P   1.000
O17     30.099482228   12.548456978   23.180527022 XXXX 1      oap1    O  -0.800
O18     28.056229175   12.525223372   21.616560306 XXXX 1      oap1    O  -0.800
Ca8     34.109073286   14.533849152   30.440211226 XXXX 1      ca+h    Ca  1.500
P4      31.784335756   13.106874061   28.712413187 XXXX 1      pap     P   1.000
O19     31.694063007   11.588576417   28.643576588 XXXX 1      oap1    O  -0.800
O20     30.499150051   13.707174103   27.990564399 XXXX 1      oap1    O  -0.800
Ca9     30.004783189   10.342122893   27.431685973 XXXX 1      ca+h    Ca  1.500
P5      32.120078047    8.580601568   28.954446059 XXXX 1      pap     P   1.000
O21     33.206912526    9.235731047   29.865193442 XXXX 1      oap1    O  -0.800
O22     32.272709990    7.045964783   29.027710703 XXXX 1      oap1    O  -0.800
O25     28.729716367    8.251420101   27.586472800 XXXX 1      oap2    O  -1.100
O26     30.851849576    8.204312452   24.665548097 XXXX 1      oap2    O  -1.100
H1      28.338964397    8.439722001   28.414546021 XXXX 1      hop     H   0.200
H2      30.424989196    8.457224496   25.494711642 XXXX 1      hop     H   0.200
end
O1      28.406813638   11.105834422   29.077627439 XXXX 1      oap1    O  -0.800
O2      29.195692076   15.667847965   29.596429102 XXXX 1      oap1    O  -0.800
O3      25.742384078   14.284510488   27.061443294 XXXX 1      oap1    O  -0.800
O4      31.151579143   12.339045012   32.586319557 XXXX 1      oap1    O  -0.625
O5      28.040120562    8.348407395   33.297514278 XXXX 1      oap1    O  -0.625
O6      29.512109769   13.641750830   33.913048226 XXXX 1      oap1    O  -0.650
O7      28.006880581    9.821383310   35.289171155 XXXX 1      oap1    O  -0.650
O8      27.027900842   11.356411641   31.048998444 XXXX 1      oap1    O  -0.800
O9      28.201821849   15.939780240   31.781259932 XXXX 1      oap1    O  -0.800
O10     24.236010292   14.231241858   29.016879417 XXXX 1      oap1    O  -0.800
Ca1     31.644765683   10.844773181   30.915726137 XXXX 1      ca+h    Ca  1.500
Ca2     25.899999108   13.521797985   31.205978045 XXXX 1      ca+h    Ca  1.500
Ca3     25.961768179   10.260737538   28.902124126 XXXX 1      ca+h    Ca  1.500
P1      28.465886130   11.467129094   30.569140941 XXXX 1      pap     P   1.000
O11     28.976817860   12.921734772   30.728798498 XXXX 1      oap1    O  -0.800
O12     29.423981281   10.485820514   31.411598773 XXXX 1      oap1    O  -0.800
Ca4     30.365765338   14.624218105   31.463977154 XXXX 1      ca+h    Ca  1.500
P2      27.911930426   16.226441409   30.316511715 XXXX 1      pap     P   1.000
O13     26.813755764   15.347999137   29.739570621 XXXX 1      oap1    O  -0.800
O14     27.575928892   17.682108247   30.075619707 XXXX 1      oap1    O  -0.800
Ca5     25.156064960   16.448858486   28.274825007 XXXX 1      ca+h    Ca  1.500
P3      24.918399844   13.332701890   27.971259004 XXXX 1      pap     P   1.000
O15     25.988912832   12.509157090   28.804695978 XXXX 1      oap1    O  -0.800
O16     23.803530878   12.540028231   27.254006467 XXXX 1      oap1    O  -0.800
P4      30.300203727   12.387491940   33.876950530 XXXX 1      pap     P   1.000
O17     31.319213197   12.305266212   35.088025631 XXXX 1      oap1    O  -0.625
O18     29.363530893   11.152432181   33.798644303 XXXX 1      oap1    O  -0.650
P5      28.185526333    8.371656658   34.820021295 XXXX 1      pap     P   1.000
O19     29.605634290    7.961381540   35.227114970 XXXX 1      oap1    O  -0.650
O20     27.134443968    7.450225321   35.429988838 XXXX 1      oap1    O  -0.625
O21     26.362348235    8.344784037   30.344611422 XXXX 1      oap2    O  -1.100
H1      26.203129278    8.873257507   31.125895169 XXXX 1      hop     H   0.200
H2      29.723112064   14.033799116   34.734626735 XXXX 1      hop     H   0.400
H3      29.376224798   10.926001668   32.833744531 XXXX 1      hop     H   0.400
H4      28.594033145   10.341971695   34.686455688 XXXX 1      hop     H   0.400
H5      29.534760016    7.465829456   35.976915958 XXXX 1      hop     H   0.400
end
O1      33.085005810   19.059895645   15.049598303 XXXX 1      oap1    O  -0.800
O2      33.842270686   23.904215010   15.508603718 XXXX 1      oap1    O  -0.800
O3      30.303451056   22.451608375   12.969661645 XXXX 1      oap1    O  -0.800
O4      33.398834450   21.857145512   19.692602165 XXXX 1      oap1    O  -0.800
O5      32.347655372   17.111371439   19.003347004 XXXX 1      oap1    O  -0.800
O7      31.869481757   21.984856976   21.542409478 XXXX 1      oap1    O  -0.800
O8      31.242878085   17.226178642   21.236750268 XXXX 1      oap1    O  -0.800
O10     31.550835341   19.229868334   16.994879645 XXXX 1      oap1    O  -0.800
O11     32.467406606   23.936394529   17.631086474 XXXX 1      oap1    O  -0.800
O12     28.783562351   22.337267028   14.992201066 XXXX 1      oap1    O  -0.800
Ca2     30.563742730   21.806233857   16.894277714 XXXX 1      ca+h    Ca  1.500
Ca3     28.475094214   21.816412391   19.807722949 XXXX 1      ca+h    Ca  1.500
Ca4     34.547404601   19.152882603   19.845225649 XXXX 1      ca+h    Ca  1.500
Ca5     30.710041143   18.331279398   14.744560463 XXXX 1      ca+h    Ca  1.500
P1      32.928696859   19.660832753   16.454642493 XXXX 1      pap     P   1.000
O13     32.895869898   21.193224724   16.297467431 XXXX 1      oap1    O  -0.800
O14     34.030528615   19.232922512   17.440635567 XXXX 1      oap1    O  -0.800
Ca6     34.538933247   22.501587327   17.663391803 XXXX 1      ca+h    Ca  1.500
P2      32.523872028   24.357524841   16.163212039 XXXX 1      pap     P   1.000
O15     31.318046477   23.638119620   15.499304331 XXXX 1      oap1    O  -0.800
O16     32.445657879   25.909562147   16.070642295 XXXX 1      oap1    O  -0.800
Ca7     29.687339720   24.649079812   14.194644279 XXXX 1      ca+h    Ca  1.500
P3      29.514063953   21.521927260   13.903440045 XXXX 1      pap     P   1.000
O17     30.552847766   20.721553046   14.687811805 XXXX 1      oap1    O  -0.800
O18     28.512332017   20.648945895   13.092159286 XXXX 1      oap1    O  -0.800
Ca8     34.166231202   22.764239944   21.744823517 XXXX 1      ca+h    Ca  1.500
P4      32.019136256   21.363529658   20.124541675 XXXX 1      pap     P   1.000
O19     32.035819730   19.832262065   20.100377566 XXXX 1      oap1    O  -0.800
O20     30.854823695   21.847105637   19.232950546 XXXX 1      oap1    O  -0.800
Ca9     30.448724085   18.435231564   18.890570139 XXXX 1      ca+h    Ca  1.500
P5      32.417647645   16.660695846   20.521021418 XXXX 1      pap     P   1.000
O21     33.606381404   17.395860214   21.117032684 XXXX 1      oap1    O  -0.800
O22     32.539767786   15.123125844   20.637901074 XXXX 1      oap1    O  -0.800
O25     29.186532067   16.402768968   19.097905241 XXXX 1      oap2    O  -1.100
O26     31.160763042   16.477583861   16.250383410 XXXX 1      oap2    O  -1.100
H1      28.498950419   16.480597327   19.777677402 XXXX 1      hop     H   0.200
H2      30.696134793   16.447841242   17.047841946 XXXX 1      hop     H   0.200
end
O1      28.706872455   19.042280099   20.717862166 XXXX 1      oap1    O  -0.800
O2      29.594665941   23.842137916   21.120192979 XXXX 1      oap1    O  -0.800
O3      25.841764519   22.601768285   18.537230522 XXXX 1      oap1    O  -0.800
O4      29.118788765   21.639795067   25.057290422 XXXX 1      oap1    O  -0.800
O5      28.314014208   17.149919401   24.675695737 XXXX 1      oap1    O  -0.800
O6      32.049643133   18.434892304   27.499179712 XXXX 1      oap1    O  -0.800
O7      27.704445439   22.213393863   27.045649629 XXXX 1      oap1    O  -0.800
O8      27.012587950   17.212410159   26.849197701 XXXX 1      oap1    O  -0.800
O9      30.124694730   18.611605781   29.077330553 XXXX 1      oap1    O  -0.800
O10     27.272781919   19.469168674   22.660017707 XXXX 1      oap1    O  -0.800
O11     28.291218750   23.847490394   23.160619606 XXXX 1      oap1    O  -0.800
O12     24.635782463   22.304007113   20.708299697 XXXX 1      oap1    O  -0.800
Ca1     32.200124313   19.198151649   22.354458418 XXXX 1      ca+h    Ca  1.500
Ca2     26.327006108   21.882910352   22.447846192 XXXX 1      ca+h    Ca  1.500
Ca3     24.359224051   21.902920337   25.373253264 XXXX 1      ca+h    Ca  1.500
Ca4     29.985796032   19.166421677   25.224557485 XXXX 1      ca+h    Ca  1.500
Ca5     26.512877417   18.225824179   20.313562768 XXXX 1      ca+h    Ca  1.500
P1      28.697458814   19.668927279   22.080250234 XXXX 1      pap     P   1.000
O13     28.918008060   21.173115338   22.057989019 XXXX 1      oap1    O  -0.800
O14     29.676992876   18.958070075   22.925447047 XXXX 1      oap1    O  -0.800
Ca6     30.324162791   22.567464815   23.270959762 XXXX 1      ca+h    Ca  1.500
P2      28.323469111   24.339997603   21.705012700 XXXX 1      pap     P   1.000
O15     27.222898093   23.644494447   20.935443414 XXXX 1      oap1    O  -0.800
O16     28.241499405   25.870253617   21.608192630 XXXX 1      oap1    O  -0.800
Ca7     25.437027450   24.691078839   19.822016993 XXXX 1      ca+h    Ca  1.500
P3      25.304358921   21.555355118   19.523130520 XXXX 1      pap     P   1.000
O17     26.409793522   20.662657760   20.081336945 XXXX 1      oap1    O  -0.800
O18     24.163533661   20.702411887   18.815407445 XXXX 1      oap1    O  -0.800
Ca8     30.074793483   22.765827156   27.355151133 XXXX 1      ca+h    Ca  1.500
P4      27.714057624   21.406964996   25.687576148 XXXX 1      pap     P   1.000
O19     27.637618122   19.913051716   25.962282419 XXXX 1      oap1    O  -0.800
O20     26.641772516   21.969866743   24.711822129 XXXX 1      oap1    O  -0.800
Ca9     26.201331012   18.547009374   24.592207014 XXXX 1      ca+h    Ca  1.500
P5      28.293094267   16.709433125   26.185411271 XXXX 1      pap     P   1.000
O21     29.448023546   17.492886805   26.839234629 XXXX 1      oap1    O  -0.800
O22     28.503869323   15.177495397   26.376619439 XXXX 1      oap1    O  -0.800
Ca10    31.044206887   16.343318912   28.158158723 XXXX 1      ca+h    Ca  1.500
P6      31.178425898   19.431592700   28.292100652 XXXX 1      pap     P   1.000
O23     30.552589130   20.434964419   27.275669153 XXXX 1      oap1    O  -0.800
O24     31.991325014   20.248639994   29.328739002 XXXX 1      oap1    O  -0.800
O25     24.809155957   16.530359413   24.744873654 XXXX 1      oap2    O  -1.100
O26     27.279616712   16.339662269   21.743709104 XXXX 1      oap2    O  -1.100
H1      24.142197573   16.483773125   25.418582807 XXXX 1      hop     H   0.200
H2      26.913422783   16.494414295   22.584306069 XXXX 1      hop     H   0.200
end
O1      24.758904348   19.492845227   26.170921270 XXXX 1      oap1    O  -0.800
O2      25.562456592   23.841605282   26.890635328 XXXX 1      oap1    O  -0.800
O3      21.727560790   22.507477463   24.084911754 XXXX 1      oap1    O  -0.800
O4      25.080879449   21.563927694   30.703077855 XXXX 1      oap1    O  -0.800
O5      24.262966770   17.243395799   30.340831639 XXXX 1      oap1    O  -0.800
O6      27.959001729   18.847303678   32.746947413 XXXX 1      oap1    O  -0.625
O7      23.920929705   21.601949937   32.889045857 XXXX 1      oap1    O  -0.800
O8      22.683581921   17.109166991   32.268987947 XXXX 1      oap1    O  -0.800
O9      27.302557377   18.778029015   35.150561032 XXXX 1      oap1    O  -0.650
O10     23.125901979   19.424086999   28.042298967 XXXX 1      oap1    O  -0.800
O11     23.940063969   23.902469428   28.688445522 XXXX 1      oap1    O  -0.800
O12     20.419355828   22.570492774   26.159527706 XXXX 1      oap1    O  -0.800
Ca1     27.956716424   19.015645139   28.186364075 XXXX 1      ca+h    Ca  1.500
Ca2     22.338951273   21.898832777   28.191725492 XXXX 1      ca+h    Ca  1.500
Ca3     20.058945753   21.881573708   30.978513876 XXXX 1      ca+h    Ca  1.500
Ca4     25.984282179   19.168361613   30.872843610 XXXX 1      ca+h    Ca  1.500
Ca5     22.343708690   18.389071726   25.985501584 XXXX 1      ca+h    Ca  1.500
P1      24.610707340   19.807764190   27.630270431 XXXX 1      pap     P   1.000
O13     24.641353789   21.318905695   27.812874662 XXXX 1      oap1    O  -0.800
O14     25.649392388   19.076090529   28.547940736 XXXX 1      oap1    O  -0.800
Ca6     26.132087110   22.637221092   28.882208415 XXXX 1      ca+h    Ca  1.500
P2      24.164267954   24.357924937   27.303360134 XXXX 1      pap     P   1.000
O15     23.127827579   23.732100351   26.438275955 XXXX 1      oap1    O  -0.800
O16     24.202657490   25.859321507   27.150795248 XXXX 1      oap1    O  -0.800
Ca7     21.321130759   24.809799779   25.086823000 XXXX 1      ca+h    Ca  1.500
P3      21.115519601   21.627111648   25.143491395 XXXX 1      pap     P   1.000
O17     22.174344291   20.769897732   25.857546021 XXXX 1      oap1    O  -0.800
O18     20.019721920   20.653780641   24.459140123 XXXX 1      oap1    O  -0.800
Ca8     25.996083131   22.735790012   32.765879369 XXXX 1      ca+h    Ca  1.500
P4      23.683472903   21.369614177   31.425115634 XXXX 1      pap     P   1.000
O19     23.396985294   19.843268439   31.323601065 XXXX 1      oap1    O  -0.800
O20     22.576145801   22.228130841   30.762570904 XXXX 1      oap1    O  -0.800
Ca9     21.977664779   18.371798035   29.971878277 XXXX 1      ca+h    Ca  1.500
P5      24.085215390   16.758731654   31.769745895 XXXX 1      pap     P   1.000
O21     25.129714785   17.598706344   32.577875643 XXXX 1      oap1    O  -0.800
O22     24.308431330   15.270300904   31.758244057 XXXX 1      oap1    O  -0.800
P6      27.439357089   19.671420140   33.946512531 XXXX 1      pap     P   1.000
O23     26.033951237   20.227061109   33.540929723 XXXX 1      oap1    O  -0.625
O24     28.388919859   20.861103959   34.187011501 XXXX 1      oap1    O  -0.650
O25     21.028468363   16.193973426   29.855426925 XXXX 1      oap2    O  -1.100
O26     22.966555567   16.443589948   27.224288125 XXXX 1      oap2    O  -1.100
H1      20.737827938   15.988991627   30.779718747 XXXX 1      hop     H   0.200
H2      22.275886799   16.412689725   27.907652791 XXXX 1      hop     H   0.200
H3      27.736675291   17.904887227   34.955891130 XXXX 1      hop     H   0.400
H4      29.214025566   20.725066650   33.673855639 XXXX 1      hop     H   0.400
end
O1      20.410980716   19.030082886   31.863249281 XXXX 1      oap1    O  -0.625
O2      21.606780911   24.420980678   32.854901764 XXXX 1      oap1    O  -0.650
O3      17.753142811   22.320274094   29.687747746 XXXX 1      oap1    O  -0.800
O4      19.019645134   19.437490045   33.892549545 XXXX 1      oap1    O  -0.650
O5      19.955980669   23.348677696   34.379614559 XXXX 1      oap1    O  -0.650
O6      16.312519477   22.517930486   31.593015769 XXXX 1      oap1    O  -0.800
Ca1     23.865057653   19.271324749   33.644181255 XXXX 1      ca+h    Ca  1.500
Ca2     17.880029014   18.350994020   31.456976640 XXXX 1      ca+h    Ca  1.500
P1      20.404794182   19.615309606   33.279767074 XXXX 1      pap     P   1.000
O7      20.604548214   21.144717542   33.201010328 XXXX 1      oap1    O  -0.625
O8      21.475352522   18.957424872   34.160891225 XXXX 1      oap1    O  -0.650
P2      20.131600209   24.321350874   33.243376538 XXXX 1      pap     P   1.000
O9      19.234562436   23.834524978   32.002374645 XXXX 1      oap1    O  -0.625
O10     19.593897900   25.691946654   33.627990889 XXXX 1      oap1    O  -0.625
Ca3     17.349938295   24.482428348   30.627453707 XXXX 1      ca+h    Ca  1.500
P3      17.004301068   21.454715253   30.716882777 XXXX 1      pap     P   1.000
O11     18.065404658   20.648700419   31.514143291 XXXX 1      oap1    O  -0.800
O12     15.923701032   20.496200479   30.090213076 XXXX 1      oap1    O  -0.800
H1      20.367581467   22.559143049   34.150616783 XXXX 1      hop     H   0.400
H2      21.903552853   25.310499883   32.904816577 XXXX 1      hop     H   0.400
H3      18.673198603   20.291664426   34.172059882 XXXX 1      hop     H   0.400
H4      21.081240444   18.120685209   34.345338126 XXXX 1      hop     H   0.400
end
O1      33.396190271   27.335982694    6.499272242 XXXX 1      oap1    O  -0.800
O2      34.182527791   32.327692123    7.243404872 XXXX 1      oap1    O  -0.800
O3      30.340031910   30.876984084    4.450930834 XXXX 1      oap1    O  -0.800
O4      33.724328696   29.827151220   11.308808015 XXXX 1      oap1    O  -0.800
O5      33.086394124   25.183092936   10.675987685 XXXX 1      oap1    O  -0.800
O7      32.098433459   29.888385116   13.212770599 XXXX 1      oap1    O  -0.800
O8      31.392291809   25.088193457   12.546665097 XXXX 1      oap1    O  -0.800
O10     31.891420605   27.166880977    8.468247199 XXXX 1      oap1    O  -0.800
O11     32.739297419   32.123425984    9.205582327 XXXX 1      oap1    O  -0.800
O12     29.118023435   30.497241481    6.569521201 XXXX 1      oap1    O  -0.800
Ca2     30.920985815   30.222871343    8.462230281 XXXX 1      ca+h    Ca  1.500
Ca3     28.807733327   30.152361299   11.309615756 XXXX 1      ca+h    Ca  1.500
Ca4     34.721270938   27.359425282   11.331904965 XXXX 1      ca+h    Ca  1.500
Ca5     31.003882953   26.557067628    6.233205058 XXXX 1      ca+h    Ca  1.500
P1      33.169734285   27.800114108    7.936063928 XXXX 1      pap     P   1.000
O13     33.042593118   29.254394919    7.958883573 XXXX 1      oap1    O  -0.800
O14     34.354127560   27.271442867    8.756705314 XXXX 1      oap1    O  -0.800
Ca6     34.809466301   30.660351883    9.156861164 XXXX 1      ca+h    Ca  1.500
P2      32.792733262   32.660343615    7.761179860 XXXX 1      pap     P   1.000
O15     31.740125544   31.871357538    6.950653730 XXXX 1      oap1    O  -0.800
O16     32.535730463   34.167247480    7.670310681 XXXX 1      oap1    O  -0.800
Ca7     29.216507309   32.804910079    5.633204917 XXXX 1      ca+h    Ca  1.500
P3      29.914558186   29.789163934    5.460118773 XXXX 1      pap     P   1.000
O17     31.047294256   28.989280596    6.001440242 XXXX 1      oap1    O  -0.800
O18     29.024720945   28.826167004    4.675519874 XXXX 1      oap1    O  -0.800
Ca8     34.720342860   30.813527531   13.405753349 XXXX 1      ca+h    Ca  1.500
P4      32.293439415   29.399148043   11.782011958 XXXX 1      pap     P   1.000
O19     32.372722828   27.859856437   11.760846179 XXXX 1      oap1    O  -0.800
O20     31.210365811   30.024517091   10.880430394 XXXX 1      oap1    O  -0.800
Ca9     30.845539935   26.561287553   10.653342163 XXXX 1      ca+h    Ca  1.500
P5      32.872160146   24.796076113   12.135330666 XXXX 1      pap     P   1.000
O21     33.854419774   25.612566362   12.977574055 XXXX 1      oap1    O  -0.800
O22     33.051416631   23.313582640   12.337795080 XXXX 1      oap1    O  -0.800
O25     30.165028689   24.453429820    9.612572082 XXXX 1      oap2    O  -1.100
O26     32.272639488   24.527872390    6.371857008 XXXX 1      oap2    O  -1.100
H1      30.607663532   24.096429875    8.841643898 XXXX 1      hop     H   0.200
H2      33.213598873   24.541611037    6.055463701 XXXX 1      hop     H   0.200
end
O1      29.208268748   27.427671146   12.158065515 XXXX 1      oap1    O  -0.800
O2      30.128346374   32.131291242   12.839710612 XXXX 1      oap1    O  -0.800
O3      26.368337283   30.825262030   10.056930863 XXXX 1      oap1    O  -0.800
O4      29.739578329   29.956572202   16.968389182 XXXX 1      oap1    O  -0.800
O5      28.449246114   25.091504182   16.191882242 XXXX 1      oap1    O  -0.800
O6      32.477411841   26.802026075   18.880476220 XXXX 1      oap1    O  -0.800
O7      27.992908897   29.721308498   18.833196958 XXXX 1      oap1    O  -0.800
O8      27.210578784   25.218912514   18.285034876 XXXX 1      oap1    O  -0.800
O9      31.090376138   26.413725035   20.907299307 XXXX 1      oap1    O  -0.800
O10     27.723810333   27.302056865   14.151870732 XXXX 1      oap1    O  -0.800
O11     28.672690841   32.055207955   14.779946097 XXXX 1      oap1    O  -0.800
O12     25.110041692   30.719602633   12.264621639 XXXX 1      oap1    O  -0.800
Ca1     32.746190780   27.293671999   14.174248006 XXXX 1      ca+h    Ca  1.500
Ca2     26.799990465   30.241095430   14.060891355 XXXX 1      ca+h    Ca  1.500
Ca3     24.821652695   30.033709725   16.919446666 XXXX 1      ca+h    Ca  1.500
Ca4     30.621247228   27.220366994   17.060338515 XXXX 1      ca+h    Ca  1.500
Ca5     26.928527957   26.595387845   11.912981544 XXXX 1      ca+h    Ca  1.500
P1      29.063101357   27.798449104   13.643470798 XXXX 1      pap     P   1.000
O13     29.047462298   29.310920314   13.815247047 XXXX 1      oap1    O  -0.800
O14     30.200944961   27.143769965   14.493292270 XXXX 1      oap1    O  -0.800
Ca6     30.665819872   30.759153015   14.869989930 XXXX 1      ca+h    Ca  1.500
P2      28.784783655   32.625447485   13.395715901 XXXX 1      pap     P   1.000
O15     27.703812759   31.951376558   12.548755566 XXXX 1      oap1    O  -0.800
O16     28.653992878   34.225478688   13.424738801 XXXX 1      oap1    O  -0.800
Ca7     25.982587493   33.007145370   11.349721450 XXXX 1      ca+h    Ca  1.500
P3      25.754515496   29.891369233   11.105194188 XXXX 1      pap     P   1.000
O17     26.854678519   29.059599878   11.773293225 XXXX 1      oap1    O  -0.800
O18     24.689117818   28.973775986   10.394467254 XXXX 1      oap1    O  -0.800
Ca8     30.365809962   30.616225054   19.161890672 XXXX 1      ca+h    Ca  1.500
P4      28.306645111   29.442248782   17.359825295 XXXX 1      pap     P   1.000
O19     28.243074674   27.873241390   17.275383520 XXXX 1      oap1    O  -0.800
O20     27.183103052   30.056652247   16.459337050 XXXX 1      oap1    O  -0.800
Ca9     26.498787554   26.626383290   16.097878188 XXXX 1      ca+h    Ca  1.500
P5      28.508738273   24.669116381   17.663475409 XXXX 1      pap     P   1.000
O21     29.688648972   25.392802157   18.243272879 XXXX 1      oap1    O  -0.800
O22     28.612957373   23.111752093   17.828004166 XXXX 1      oap1    O  -0.800
Ca10    31.460680620   24.381109343   19.782892136 XXXX 1      ca+h    Ca  1.500
P6      31.640610554   27.441763294   19.959161721 XXXX 1      pap     P   1.000
O23     30.464795208   28.237289240   19.282773087 XXXX 1      oap1    O  -0.800
O24     32.608975833   28.429273816   20.728928383 XXXX 1      oap1    O  -0.800
O25     25.215554516   24.583466749   16.242021146 XXXX 1      oap2    O  -1.100
O26     27.996677293   24.552374026   12.504632828 XXXX 1      oap2    O  -1.100
H1      24.516791774   24.190409317   16.782831120 XXXX 1      hop     H   0.200
H2      28.410450203   24.431759876   11.623691658 XXXX 1      hop     H   0.200
end
O1      25.117536968   27.515215680   17.770891140 XXXX 1      oap1    O  -0.800
O2      25.921871980   31.956935714   18.261694953 XXXX 1      oap1    O  -0.800
O3      21.968905639   30.850292722   15.785992960 XXXX 1      oap1    O  -0.800
O4      25.557210478   29.911209840   22.420649292 XXXX 1      oap1    O  -0.800
O5      24.691976738   25.292277999   21.926323762 XXXX 1      oap1    O  -0.800
O6      28.259980440   26.576627120   24.497808006 XXXX 1      oap1    O  -0.800
O7      24.067266306   29.929135255   24.414227000 XXXX 1      oap1    O  -0.800
O8      23.283743146   25.497608600   23.857054786 XXXX 1      oap1    O  -0.800
O9      26.669780746   26.619250192   26.477983984 XXXX 1      oap1    O  -0.800
O10     23.445374141   27.474554259   19.627013877 XXXX 1      oap1    O  -0.800
O11     24.696535962   32.152560323   20.442179429 XXXX 1      oap1    O  -0.800
O12     20.794317422   30.364197496   17.997483149 XXXX 1      oap1    O  -0.800
Ca1     28.254437301   27.201920028   19.621684409 XXXX 1      ca+h    Ca  1.500
Ca2     22.642026581   30.034814132   19.653847771 XXXX 1      ca+h    Ca  1.500
Ca3     20.680036101   30.105092122   22.612540931 XXXX 1      ca+h    Ca  1.500
Ca4     26.352858827   27.273960795   22.489990938 XXXX 1      ca+h    Ca  1.500
Ca5     22.697159862   26.533775509   17.489667762 XXXX 1      ca+h    Ca  1.500
P1      24.905187119   27.872860750   19.241280663 XXXX 1      pap     P   1.000
O13     24.955935495   29.403378329   19.404757706 XXXX 1      oap1    O  -0.800
O14     25.994162623   27.161739563   20.131797569 XXXX 1      oap1    O  -0.800
Ca6     26.591980790   30.668146207   20.448621448 XXXX 1      ca+h    Ca  1.500
P2      24.655710023   32.500331283   18.983114508 XXXX 1      pap     P   1.000
O15     23.442226759   31.790824580   18.328493532 XXXX 1      oap1    O  -0.800
O16     24.521271555   34.042218516   18.767784438 XXXX 1      oap1    O  -0.800
Ca7     21.909968352   32.961540617   17.027397758 XXXX 1      ca+h    Ca  1.500
P3      21.456054489   29.721110490   16.747052174 XXXX 1      pap     P   1.000
O17     22.673764829   28.917462885   17.303701271 XXXX 1      oap1    O  -0.800
O18     20.504563214   28.724367041   15.993445728 XXXX 1      oap1    O  -0.800
Ca8     26.430008493   30.766423894   24.775160892 XXXX 1      ca+h    Ca  1.500
P4      24.153504972   29.515441660   22.918513710 XXXX 1      pap     P   1.000
O19     24.109720728   27.955972778   22.786240392 XXXX 1      oap1    O  -0.800
O20     23.080700659   30.321471880   22.101631646 XXXX 1      oap1    O  -0.800
Ca9     22.478331976   26.524422045   21.629651378 XXXX 1      ca+h    Ca  1.500
P5      24.519496326   24.840388284   23.372832571 XXXX 1      pap     P   1.000
O21     25.687423807   25.448060488   24.161399875 XXXX 1      oap1    O  -0.800
O22     24.568636427   23.305736635   23.478806727 XXXX 1      oap1    O  -0.800
Ca10    27.399067031   24.461888238   25.551889600 XXXX 1      ca+h    Ca  1.500
P6      27.466896082   27.518583296   25.477924607 XXXX 1      pap     P   1.000
O23     26.512863451   28.375224265   24.653147330 XXXX 1      oap1    O  -0.800
O24     28.452362001   28.397449902   26.250590543 XXXX 1      oap1    O  -0.800
O25     21.004784388   24.586213422   21.962696471 XXXX 1      oap2    O  -1.100
O26     23.110135137   24.586184428   19.082799530 XXXX 1      oap2    O  -1.100
H1      20.170719878   24.991555986   22.134192886 XXXX 1      hop     H   0.200
H2      23.074751863   23.682069295   19.392104177 XXXX 1      hop     H   0.200
end
O1      21.048749450   27.389281664   23.418561139 XXXX 1      oap1    O  -0.800
O2      21.929664269   32.069433082   24.112102936 XXXX 1      oap1    O  -0.800
O3      18.300248220   30.461660207   21.374064881 XXXX 1      oap1    O  -0.800
O4      21.314603201   30.180810483   28.037196814 XXXX 1      oap1    O  -0.800
O5      20.436480788   25.211081545   27.387532804 XXXX 1      oap1    O  -0.800
O6      23.902500447   26.883547626   30.115834672 XXXX 1      oap1    O  -0.800
O7      19.829364083   29.707704883   30.035890493 XXXX 1      oap1    O  -0.800
O8      19.151713973   25.431591343   29.418177476 XXXX 1      oap1    O  -0.800
O9      22.290309325   26.575257445   32.098829171 XXXX 1      oap1    O  -0.800
O10     19.592586971   27.355576416   25.376186657 XXXX 1      oap1    O  -0.800
O11     20.206818817   32.183415122   25.931428821 XXXX 1      oap1    O  -0.800
O12     16.668151831   30.562484854   23.248628622 XXXX 1      oap1    O  -0.800
Ca1     24.444256997   27.286482895   25.250238102 XXXX 1      ca+h    Ca  1.500
Ca2     18.626337929   29.932379818   25.401576033 XXXX 1      ca+h    Ca  1.500
Ca3     16.514093225   29.927968588   28.231467867 XXXX 1      ca+h    Ca  1.500
Ca4     22.322749989   27.186895801   28.133222606 XXXX 1      ca+h    Ca  1.500
Ca5     18.557783391   26.493515651   23.276967131 XXXX 1      ca+h    Ca  1.500
P1      20.969497909   27.887761606   24.892651648 XXXX 1      pap     P   1.000
O13     20.951375383   29.423325474   24.935748183 XXXX 1      oap1    O  -0.800
O14     21.999948070   27.186527940   25.750020736 XXXX 1      oap1    O  -0.800
Ca6     22.520705252   30.701862553   26.207684412 XXXX 1      ca+h    Ca  1.500
P2      20.443029162   32.531457346   24.467984901 XXXX 1      pap     P   1.000
O15     19.408780915   31.747526546   23.716612753 XXXX 1      oap1    O  -0.800
O16     20.260293054   34.040371381   24.245154371 XXXX 1      oap1    O  -0.800
Ca7     17.745463980   32.780489535   22.301233311 XXXX 1      ca+h    Ca  1.500
P3      17.519909637   29.598131217   22.363562594 XXXX 1      pap     P   1.000
O17     18.464292172   28.797983432   23.291665047 XXXX 1      oap1    O  -0.800
O18     16.518499584   28.678199323   21.594640853 XXXX 1      oap1    O  -0.800
Ca8     22.287379950   30.653345313   30.429264354 XXXX 1      ca+h    Ca  1.500
P4      20.009981626   29.562806961   28.511517382 XXXX 1      pap     P   1.000
O19     20.095795757   28.046191018   28.217162452 XXXX 1      oap1    O  -0.800
O20     18.902759915   30.245297318   27.740545526 XXXX 1      oap1    O  -0.800
Ca9     18.445625382   26.513107229   27.304167867 XXXX 1      ca+h    Ca  1.500
P5      20.410056342   24.772056483   28.881794895 XXXX 1      pap     P   1.000
O21     21.619202346   25.397253425   29.668059922 XXXX 1      oap1    O  -0.800
O22     20.436406100   23.248367009   29.020895677 XXXX 1      oap1    O  -0.800
Ca10    23.406329162   24.600046228   30.953130238 XXXX 1      ca+h    Ca  1.500
P6      23.030836668   27.622571045   31.178749961 XXXX 1      pap     P   1.000
O23     22.047860332   28.276905087   30.277692323 XXXX 1      oap1    O  -0.800
O24     23.776964979   28.761923188   31.934827730 XXXX 1      oap1    O  -0.800
O25     16.906408120   24.604939861   27.656317499 XXXX 1      oap2    O  -1.100
O26     18.781490336   24.641561730   24.958599238 XXXX 1      oap2    O  -1.100
H1      15.948361195   24.603563505   27.674667791 XXXX 1      hop     H   0.200
H2      19.239131745   23.868549515   25.425069507 XXXX 1      hop     H   0.200
end
O1      17.221348810   27.806690535   29.103098615 XXXX 1      oap1    O  -0.800
O2      16.941505936   31.873991125   29.688689128 XXXX 1      oap1    O  -0.800
O3      14.091356949   30.520203166   26.967052501 XXXX 1      oap1    O  -0.800
O4      15.925064102   31.719237323   34.968364415 XXXX 1      oap1    O  -0.625
O5      15.351740169   26.240342245   34.148468133 XXXX 1      oap1    O  -0.625
O6      16.833358726   29.391663189   34.556462533 XXXX 1      oap1    O  -0.650
O7      12.933348909   27.173569402   33.955633466 XXXX 1      oap1    O  -0.650
O8      15.433993989   27.552974910   30.849024711 XXXX 1      oap1    O  -0.800
O9      17.098208753   32.860145809   31.841221128 XXXX 1      oap1    O  -0.800
O10     12.691714138   30.710115988   28.980460367 XXXX 1      oap1    O  -0.800
Ca1     20.010825264   27.217847917   30.758343504 XXXX 1      ca+h    Ca  1.500
Ca2     14.450382478   29.701402320   31.098425085 XXXX 1      ca+h    Ca  1.500
Ca3     12.080855704   29.641110443   34.074484014 XXXX 1      ca+h    Ca  1.500
Ca4     17.580317783   27.053688327   33.843975812 XXXX 1      ca+h    Ca  1.500
Ca5     14.443556637   26.522851575   28.869471334 XXXX 1      ca+h    Ca  1.500
P1      16.896496169   27.850791407   30.658821101 XXXX 1      pap     P   1.000
O11     17.117509874   29.290283421   31.217676698 XXXX 1      oap1    O  -0.800
O12     17.663155610   26.758628199   31.431484355 XXXX 1      oap1    O  -0.800
Ca6     18.657511755   31.161508091   31.412520334 XXXX 1      ca+h    Ca  1.500
P2      16.151102627   32.686112861   30.663507894 XXXX 1      pap     P   1.000
O13     14.934664015   31.948800097   31.238431296 XXXX 1      oap1    O  -0.800
O14     15.836208814   34.110844882   30.219993319 XXXX 1      oap1    O  -0.800
Ca7     13.235458024   32.858443295   27.598448214 XXXX 1      ca+h    Ca  1.500
P3      13.358592461   29.694721083   28.016490817 XXXX 1      pap     P   1.000
O15     14.489620137   28.890435696   28.755029867 XXXX 1      oap1    O  -0.800
O16     12.252972856   28.865622356   27.323903442 XXXX 1      oap1    O  -0.800
P4      15.519336595   30.205440925   34.703394018 XXXX 1      pap     P   1.000
O17     14.693511699   30.296835274   33.382096988 XXXX 1      oap1    O  -0.625
O18     14.531637013   29.640597658   35.715187750 XXXX 1      oap1    O  -0.650
P5      13.771441788   25.901639045   34.090365276 XXXX 1      pap     P   1.000
O19     13.304354549   25.215852975   35.341419003 XXXX 1      oap1    O  -0.650
O20     13.480043266   24.947813019   32.928745973 XXXX 1      oap1    O  -0.625
O21     14.888075506   24.580360815   30.489791918 XXXX 1      oap2    O  -1.100
H1      14.728994830   25.098599226   31.272137708 XXXX 1      hop     H   0.200
H2      17.488434747   30.026819907   34.456416372 XXXX 1      hop     H   0.400
H3      14.969662095   29.698071198   36.557755760 XXXX 1      hop     H   0.400
H4      12.426276920   24.821817743   35.228014750 XXXX 1      hop     H   0.400
H5      12.315345867   26.928348278   33.224641594 XXXX 1      hop     H   0.400
end
O1      31.981022063   19.339939360   31.850986780 XXXX 1      oap1    O  -0.625
O2      34.184953792   24.185980211   33.989633839 XXXX 1      oap1    O  -0.650
O3      29.389722228   22.484466839   29.546193252 XXXX 1      oap1    O  -0.800
O4      31.117238073   19.081859249   34.194316795 XXXX 1      oap1    O  -0.650
O5      31.664150304   23.805672586   34.519576165 XXXX 1      oap1    O  -0.650
O6      27.954079462   22.501104700   31.583788703 XXXX 1      oap1    O  -0.800
Ca1     29.913016187   18.257582410   31.473377976 XXXX 1      ca+h    Ca  1.500
P1      31.995122523   19.950673363   33.308596240 XXXX 1      pap     P   1.000
O7      31.399718281   21.369554527   33.299413949 XXXX 1      oap1    O  -0.625
O8      33.432216900   19.994950745   33.885849699 XXXX 1      oap1    O  -0.650
P2      32.696146449   24.512115225   33.576065369 XXXX 1      pap     P   1.000
O9      32.485889514   23.836782802   32.166140077 XXXX 1      oap1    O  -0.625
O10     32.537341211   26.068572000   33.356820387 XXXX 1      oap1    O  -0.625
Ca2     28.602273156   24.785848869   30.785449187 XXXX 1      ca+h    Ca  1.500
P3      28.627589538   21.555961960   30.508558239 XXXX 1      pap     P   1.000
O11     29.626616917   20.604233194   31.259292981 XXXX 1      oap1    O  -0.800
O12     27.541268470   20.760036166   29.704341513 XXXX 1      oap1    O  -0.800
H1      31.662148051   22.883393366   34.270530497 XXXX 1      hop     H   0.400
H2      34.503389825   23.402951886   33.531026250 XXXX 1      hop     H   0.400
H3      34.067488151   19.965830053   33.216059318 XXXX 1      hop     H   0.400
H4      31.745413023   18.475960385   34.507108236 XXXX 1      hop     H   0.400
end
O1      32.410026546   27.234920066   23.496280410 XXXX 1      oap1    O  -0.800
O2      33.447238190   31.927060855   23.989219797 XXXX 1      oap1    O  -0.800
O3      29.809715634   30.614955590   21.427290148 XXXX 1      oap1    O  -0.800
O4      32.892246998   29.634798800   28.010579073 XXXX 1      oap1    O  -0.800
O5      31.935588566   25.381233687   27.483438549 XXXX 1      oap1    O  -0.800
O7      31.469024618   30.093582209   29.975065130 XXXX 1      oap1    O  -0.800
O8      30.624144648   25.064806600   29.581522531 XXXX 1      oap1    O  -0.800
O10     31.063778190   27.541591998   25.505828648 XXXX 1      oap1    O  -0.800
O11     31.979776793   31.929731929   26.090397673 XXXX 1      oap1    O  -0.800
O12     28.340076423   30.619661039   23.342458989 XXXX 1      oap1    O  -0.800
Ca2     29.948592703   29.959809021   25.348705163 XXXX 1      ca+h    Ca  1.500
Ca3     27.927114097   29.951156627   28.215143844 XXXX 1      ca+h    Ca  1.500
Ca4     33.794048823   27.301290585   28.163464102 XXXX 1      ca+h    Ca  1.500
Ca5     30.175088178   26.402649063   23.039326053 XXXX 1      ca+h    Ca  1.500
P1      32.413286119   27.858111662   24.911982866 XXXX 1      pap     P   1.000
O13     32.435314123   29.347076998   24.762070546 XXXX 1      oap1    O  -0.800
O14     33.576581359   27.320978011   25.741446209 XXXX 1      oap1    O  -0.800
Ca6     34.079585657   30.579104263   26.047538217 XXXX 1      ca+h    Ca  1.500
P2      32.109084409   32.398989475   24.639793073 XXXX 1      pap     P   1.000
O15     30.900268850   31.858318817   23.813272040 XXXX 1      oap1    O  -0.800
O16     32.070507859   33.960699278   24.624422533 XXXX 1      oap1    O  -0.800
Ca7     29.250157032   32.865269627   22.516783186 XXXX 1      ca+h    Ca  1.500
P3      28.981761752   29.656625852   22.343538475 XXXX 1      pap     P   1.000
O17     29.922309304   28.745245968   23.122411525 XXXX 1      oap1    O  -0.800
O18     27.882358873   28.843040969   21.599211695 XXXX 1      oap1    O  -0.800
Ca8     33.876007378   30.592755068   30.351401270 XXXX 1      ca+h    Ca  1.500
P4      31.463852288   29.440963509   28.617835969 XXXX 1      pap     P   1.000
O19     31.226272466   27.906433620   28.956355946 XXXX 1      oap1    O  -0.800
O20     30.351013129   30.034936737   27.758968335 XXXX 1      oap1    O  -0.800
Ca9     29.803695421   26.500020114   27.329383338 XXXX 1      ca+h    Ca  1.500
P5      31.928115594   24.799743724   28.899019891 XXXX 1      pap     P   1.000
O21     33.003032836   25.427157218   29.767724382 XXXX 1      oap1    O  -0.800
O22     32.033469930   23.218933269   28.830732319 XXXX 1      oap1    O  -0.800
O25     27.908089695   24.816581085   28.368063840 XXXX 1      oap2    O  -1.100
O26     29.799270711   24.631340505   25.885018718 XXXX 1      oap2    O  -1.100
H1      27.954120337   23.873789922   28.257497943 XXXX 1      hop     H   0.200
H2      30.511406112   24.595780421   25.263073905 XXXX 1      hop     H   0.200
end
O1      28.247614867   27.624337489   29.065870855 XXXX 1      oap1    O  -0.800
O2      29.116548755   32.032706174   29.375862837 XXXX 1      oap1    O  -0.800
O3      25.778287264   30.667153228   27.153902228 XXXX 1      oap1    O  -0.800
O4      31.061265319   32.649141420   35.295312919 XXXX 1      oap1    O  -0.625
O5      27.073749724   24.656280574   33.233919153 XXXX 1      oap1    O  -0.625
O6      28.918842806   31.691129906   36.245765714 XXXX 1      oap1    O  -0.650
O7      26.103390703   26.979414865   33.302691454 XXXX 1      oap1    O  -0.650
O8      26.751739137   27.210323115   31.046561571 XXXX 1      oap1    O  -0.800
O9      28.333796481   32.389242247   31.649545062 XXXX 1      oap1    O  -0.800
O10     24.090412420   30.714619658   28.912311070 XXXX 1      oap1    O  -0.800
Ca1     31.684152803   27.015787968   31.189099593 XXXX 1      ca+h    Ca  1.500
Ca2     25.740782825   29.694672910   31.087125143 XXXX 1      ca+h    Ca  1.500
Ca3     26.083958994   26.409445728   28.765694658 XXXX 1      ca+h    Ca  1.500
P1      28.177656182   27.742655381   30.676947069 XXXX 1      pap     P   1.000
O11     28.290800729   29.242701269   31.014884870 XXXX 1      oap1    O  -0.800
O12     29.259955693   26.874303360   31.292691172 XXXX 1      oap1    O  -0.800
Ca4     30.020980820   30.661203804   31.793083502 XXXX 1      ca+h    Ca  1.500
P2      27.979941912   32.515761767   30.156190736 XXXX 1      pap     P   1.000
O13     26.838428050   31.550154691   29.767241133 XXXX 1      oap1    O  -0.800
O14     27.686069300   33.979737164   29.874974098 XXXX 1      oap1    O  -0.800
Ca5     25.346226260   32.829152860   28.307586444 XXXX 1      ca+h    Ca  1.500
P3      24.828817514   29.751735153   27.986003245 XXXX 1      pap     P   1.000
O15     25.761673476   28.865232053   28.820584309 XXXX 1      oap1    O  -0.800
O16     23.830271962   28.853833353   27.098760419 XXXX 1      oap1    O  -0.800
P4      29.642180310   32.071524408   34.967912004 XXXX 1      pap     P   1.000
O17     29.828130731   30.776119966   34.154580350 XXXX 1      oap1    O  -0.625
O18     28.790721038   33.078410487   34.169328490 XXXX 1      oap1    O  -0.650
P5      25.888152670   25.548161866   33.658683816 XXXX 1      pap     P   1.000
O19     25.747347926   25.455350294   35.189200578 XXXX 1      oap1    O  -0.650
O20     24.595757421   24.929115196   32.974171170 XXXX 1      oap1    O  -0.625
O21     26.007246724   24.383811997   30.668164724 XXXX 1      oap2    O  -1.100
H1      26.244381630   25.251278329   31.037916472 XXXX 1      hop     H   0.200
H2      29.620525261   31.450914449   36.884779202 XXXX 1      hop     H   0.400
H3      28.442069565   32.546091183   33.460421954 XXXX 1      hop     H   0.400
H4      26.267144182   26.890570106   32.362457763 XXXX 1      hop     H   0.400
H5      26.097753436   26.274233773   35.445824422 XXXX 1      hop     H   0.400
end
O3      34.531952108    6.120123873    7.254373356 XXXX 1      oap1    O  -0.800
O12     32.941518425    6.243994354    9.205420073 XXXX 1      oap1    O  -0.800
Ca2     34.658038743    5.543824695   11.326900049 XXXX 1      ca+h    Ca  1.500
Ca3     32.642639367    5.690668145   14.181960279 XXXX 1      ca+h    Ca  1.500
Ca5     34.803822310    2.095987170    9.177010873 XXXX 1      ca+h    Ca  1.500
Ca7     33.814352530    8.521796187    8.409587486 XXXX 1      ca+h    Ca  1.500
P3      33.713023585    5.331812081    8.265650562 XXXX 1      pap     P   1.000
O17     34.672901012    4.510103474    9.140786409 XXXX 1      oap1    O  -0.800
O18     32.751306377    4.432977380    7.575881392 XXXX 1      oap1    O  -0.800
Ca9     34.608689181    2.440093479   13.513530429 XXXX 1      ca+h    Ca  1.500
end
O1       9.697382452   11.693436431   34.134346686 XXXX 1      oap1    O  -0.625
O2       9.722671102   14.188692193   34.388085055 XXXX 1      oap1    O  -0.650
Ca1     12.074531924   11.038977625   34.124897090 XXXX 1      ca+h    Ca  1.500
P1       8.905866744   12.986903329   33.960189888 XXXX 1      pap     P   1.000
O3       7.564425342   12.855102256   34.676434669 XXXX 1      oap1    O  -0.650
O4       8.524990676   13.101779338   32.503279163 XXXX 1      oap1    O  -0.625
H1       6.921086934   13.230866404   34.054794593 XXXX 1      hop     H   0.400
H2      10.611889079   14.049901315   34.665452449 XXXX 1      hop     H   0.400
end
O3      33.685997015    6.199408044   24.347538018 XXXX 1      oap1    O  -0.800
O12     32.217779244    6.235684378   26.346812754 XXXX 1      oap1    O  -0.800
Ca2     34.036735754    5.549368896   28.151874233 XXXX 1      ca+h    Ca  1.500
Ca3     31.885869588    5.660393729   30.920738896 XXXX 1      ca+h    Ca  1.500
Ca5     33.988994746    2.116157676   25.945233563 XXXX 1      ca+h    Ca  1.500
Ca7     33.107688318    8.367446081   25.459616945 XXXX 1      ca+h    Ca  1.500
P3      32.886401703    5.309856449   25.324200893 XXXX 1      pap     P   1.000
O17     33.990497179    4.474976870   26.009131605 XXXX 1      oap1    O  -0.800
O18     31.794621467    4.502904169   24.500897997 XXXX 1      oap1    O  -0.800
Ca9     33.892339830    2.365153268   30.326392613 XXXX 1      ca+h    Ca  1.500
end
O3      34.058238740   14.226755367   15.798896388 XXXX 1      oap1    O  -0.800
O12     32.445454478   14.460410898   17.640633966 XXXX 1      oap1    O  -0.800
Ca2     34.333558100   13.747942701   19.833034384 XXXX 1      ca+h    Ca  1.500
Ca3     32.263778777   13.658659820   22.582629096 XXXX 1      ca+h    Ca  1.500
Ca5     34.400804541   10.233014094   17.701235474 XXXX 1      ca+h    Ca  1.500
Ca7     33.477263191   16.644320505   17.006989800 XXXX 1      ca+h    Ca  1.500
P3      33.120673969   13.495239496   16.706802570 XXXX 1      pap     P   1.000
O17     34.098236791   12.581661728   17.471788196 XXXX 1      oap1    O  -0.800
O18     32.116212148   12.626238378   15.944511126 XXXX 1      oap1    O  -0.800
Ca9     34.104522292   10.109575456   21.739125874 XXXX 1      ca+h    Ca  1.500
O25     32.641202195    8.141895870   22.061951239 XXXX 1      oap2    O  -1.100
H1      32.286620016    7.973321753   22.921267637 XXXX 1      hop     H   0.200
end
O1      19.135591852   16.513737209   32.530762225 XXXX 1      oap1    O  -0.625
O2      20.484810181   16.565779620   34.661233532 XXXX 1      oap1    O  -0.650
P1      20.081636778   15.702329262   33.466795883 XXXX 1      pap     P   1.000
O3      21.339583650   15.335771721   32.689869867 XXXX 1      oap1    O  -0.650
O4      19.349499529   14.393317567   33.876914532 XXXX 1      oap1    O  -0.625
H1      20.320177156   16.039865087   35.434157641 XXXX 1      hop     H   0.400
H2      21.816273162   16.172299772   32.583561629 XXXX 1      hop     H   0.400
end
O3      34.319176958   22.729128388    7.113032314 XXXX 1      oap1    O  -0.800
O12     32.812428540   22.559677147    9.059529438 XXXX 1      oap1    O  -0.800
Ca2     34.783378701   21.962724308   11.199068892 XXXX 1      ca+h    Ca  1.500
Ca3     32.543266021   21.993872340   14.078629248 XXXX 1      ca+h    Ca  1.500
Ca5     34.731180798   18.573088196    9.135826443 XXXX 1      ca+h    Ca  1.500
Ca7     33.762795785   24.787003966    8.420015220 XXXX 1      ca+h    Ca  1.500
P3      33.574382506   21.708425898    8.057678514 XXXX 1      pap     P   1.000
O17     34.618846655   20.891730104    8.879211538 XXXX 1      oap1    O  -0.800
O18     32.600096937   20.733829467    7.325001293 XXXX 1      oap1    O  -0.800
Ca9     34.538779470   18.621812106   13.182865054 XXXX 1      ca+h    Ca  1.500
O25     34.186313765   16.349840984   12.218011885 XXXX 1      oap2    O  -1.100
H1      34.807918532   16.318983434   11.536416126 XXXX 1      hop     H   0.200
end
O1       9.892253045   30.041789178   34.583276397 XXXX 1      oap1    O  -0.625
O2       7.432317996   29.544436519   35.062095332 XXXX 1      oap1    O  -0.650
Ca1      8.492978841   33.466741877   33.901521443 XXXX 1      ca+h    Ca  1.500
P1       8.504942731   29.774908842   33.984384320 XXXX 1      pap     P   1.000
O3       8.478357001   28.572489914   33.081338958 XXXX 1      oap1    O  -0.650
O4       8.084067778   31.071446887   33.211604671 XXXX 1      oap1    O  -0.625
H1       6.624433570   29.808100758   34.616860755 XXXX 1      hop     H   0.400
H2       8.281713121   27.904826401   33.732740768 XXXX 1      hop     H   0.400
end
O1      31.197906463   16.500200257   32.963800904 XXXX 1      oap1    O  -0.625
O2      31.682615989   15.561661503   35.212091029 XXXX 1      oap1    O  -0.650
Ca1     33.390147191   11.992218775   33.584572917 XXXX 1      ca+h    Ca  1.500
P1      32.296094776   15.865963794   33.854470679 XXXX 1      pap     P   1.000
O3      33.424935020   16.790508679   34.089927635 XXXX 1      oap1    O  -0.650
O4      32.759442597   14.597750669   33.041898518 XXXX 1      oap1    O  -0.625
H1      32.300471637   16.002145367   35.800492521 XXXX 1      hop     H   0.400
H2      34.047101472   16.838379480   33.346770522 XXXX 1      hop     H   0.400
end
O3      33.742810902   22.261428958   24.010184633 XXXX 1      oap1    O  -0.800
O12     31.991759677   22.597279100   25.764952231 XXXX 1      oap1    O  -0.800
Ca2     33.621689217   21.837274871   28.005061943 XXXX 1      ca+h    Ca  1.500
Ca3     31.687658707   21.951408375   30.905595213 XXXX 1      ca+h    Ca  1.500
Ca5     33.882096499   18.322514284   25.910180555 XXXX 1      ca+h    Ca  1.500
Ca7     32.739388900   24.738208102   25.247562434 XXXX 1      ca+h    Ca  1.500
P3      32.758687512   21.542213177   24.942583244 XXXX 1      pap     P   1.000
O17     33.589507316   20.689506333   25.890847422 XXXX 1      oap1    O  -0.800
O18     31.668333926   20.679041572   24.230003979 XXXX 1      oap1    O  -0.800
Ca9     33.646126291   18.630424231   30.297992778 XXXX 1      ca+h    Ca  1.500
O25     32.300631163   16.338661830   30.192988185 XXXX 1      oap2    O  -1.100
H1      32.441468089   16.437343169   31.085364589 XXXX 1      hop     H   0.200
end
O3      33.658641133   30.593970986   15.671302807 XXXX 1      oap1    O  -0.800
O12     32.511277180   30.521022575   17.928485672 XXXX 1      oap1    O  -0.800
Ca2     34.239441862   29.977196274   19.599500907 XXXX 1      ca+h    Ca  1.500
Ca3     32.108500494   30.035012549   22.499356045 XXXX 1      ca+h    Ca  1.500
Ca5     34.354135061   26.495742225   17.637149459 XXXX 1      ca+h    Ca  1.500
Ca7     33.579399196   32.600912903   16.825711393 XXXX 1      ca+h    Ca  1.500
P3      33.151868121   29.657240216   16.752884890 XXXX 1      pap     P   1.000
O17     34.316975442   28.818201526   17.351537780 XXXX 1      oap1    O  -0.800
O18     32.174815058   28.703128851   16.109772063 XXXX 1      oap1    O  -0.800
Ca9     34.108168158   26.711481473   21.783642219 XXXX 1      ca+h    Ca  1.500
O25     31.729249867   24.607271085   23.035790940 XXXX 1      oap2    O  -1.100
H1      32.345625784   25.222425598   22.622218583 XXXX 1      hop     H   0.200
end
O1      19.393073876   28.434056628   32.778763946 XXXX 1      oap1    O  -0.625
O2      21.403469618   29.890186959   32.780894283 XXXX 1      oap1    O  -0.650
P1      20.201886010   29.431515969   33.602155926 XXXX 1      pap     P   1.000
O3      20.690460521   28.795077931   34.850916190 XXXX 1      oap1    O  -0.650
O4      19.262377061   30.687816119   33.755767479 XXXX 1      oap1    O  -0.625
H1      22.169033590   29.305258662   33.041830989 XXXX 1      hop     H   0.400
H2      21.298936046   28.098834393   34.713039509 XXXX 1      hop     H   0.400
end
O1      33.404459261   30.456217661   32.959572574 XXXX 1      oap1    O  -0.625
O2      32.129088823   29.749971579   34.990012554 XXXX 1      oap1    O  -0.650
Ca1     32.848537971   32.725669415   33.803787026 XXXX 1      ca+h    Ca  1.500
P1      32.689951578   29.303516499   33.634957189 XXXX 1      pap     P   1.000
O3      33.725975413   28.145070337   33.828229892 XXXX 1      oap1    O  -0.650
O4      31.521001423   28.923162996   32.738424486 XXXX 1      oap1    O  -0.625
H1      31.224498462   29.775387912   34.713149194 XXXX 1      hop     H   0.400
H2      33.257276158   27.364834893   33.517669271 XXXX 1      hop     H   0.400
end
O1       9.843532669    5.896113048    2.297246246 XXXX 1      oap1    O  -0.650
O2      13.525833505    2.494974186    4.803590418 XXXX 1      oap1    O  -0.800
O3       9.405189464    6.040463296    4.786501080 XXXX 1      oap1    O  -0.625
O4      12.140092552    2.349472375    6.846407586 XXXX 1      oap1    O  -0.800
Ca1     11.808409280    6.535500929    4.829462936 XXXX 1      ca+h    Ca  1.500
P1       9.087755579    5.201037177    3.510593247 XXXX 1      pap     P   1.000
O5       9.588449998    3.732861920    3.656864616 XXXX 1      oap1    O  -0.625
O6       7.613943469    5.284673897    3.167599803 XXXX 1      oap1    O  -0.650
P2      12.954378615    3.312709654    5.970654866 XXXX 1      pap     P   1.000
O7      11.884383982    4.327723936    5.463006989 XXXX 1      oap1    O  -0.800
O8      14.055928532    4.049328491    6.817759327 XXXX 1      oap1    O  -0.800
H1       7.171183357    4.481176442    3.458244153 XXXX 1      hop     H   0.400
H2      10.353521816    5.207095719    1.917831386 XXXX 1      hop     H   0.400
end
O1      22.176932526    5.477584002    2.952318026 XXXX 1      oap1    O  -0.625
O2      25.473043040    2.238104634    5.020059881 XXXX 1      oap1    O  -0.800
O3      20.850809632    5.182506567    5.006702724 XXXX 1      oap1    O  -0.625
O4      23.919854721    2.204771971    6.878034197 XXXX 1      oap1    O  -0.800
Ca1     23.198827203    6.307879056    4.931448268 XXXX 1      ca+h    Ca  1.500
P1      20.756236278    5.109574493    3.430738604 XXXX 1      pap     P   1.000
O5      20.366086615    3.659691699    3.081139953 XXXX 1      oap1    O  -0.650
O6      19.802975411    6.177340063    2.847044140 XXXX 1      oap1    O  -0.650
P2      24.659195044    3.187341950    5.990328308 XXXX 1      pap     P   1.000
O7      23.569726993    4.088106803    5.350338772 XXXX 1      oap1    O  -0.800
O8      25.577711171    4.033148519    6.820236380 XXXX 1      oap1    O  -0.800
H1      19.486260100    6.773697981    3.529867770 XXXX 1      hop     H   0.400
H2      19.441153559    3.654421672    3.280940987 XXXX 1      hop     H   0.400
end
O1      10.752826094   21.957374515    2.801110907 XXXX 1      oap1    O  -0.650
O2      10.371081225   17.023221690    2.332113413 XXXX 1      oap1    O  -0.650
O3      13.572589976   18.663641486    4.916717647 XXXX 1      oap1    O  -0.800
O4       9.334341829   21.518601793    4.768296663 XXXX 1      oap1    O  -0.625
O5       8.547686178   16.411130341    3.887059511 XXXX 1      oap1    O  -0.650
O6      12.245480498   18.689503300    6.947412300 XXXX 1      oap1    O  -0.800
Ca1      5.845930111   21.598411846    3.005127307 XXXX 1      ca+h    Ca  1.500
Ca2     11.932735290   22.690830133    4.742151500 XXXX 1      ca+h    Ca  1.500
P1       9.514334520   21.181693129    3.252611558 XXXX 1      pap     P   1.000
O7       9.756354623   19.643673298    3.211790547 XXXX 1      oap1    O  -0.625
O8       8.224334500   21.692104086    2.569422586 XXXX 1      oap1    O  -0.650
P2      10.036951103   16.352283839    3.629515180 XXXX 1      pap     P   1.000
O9      10.768992177   17.003631946    4.843567722 XXXX 1      oap1    O  -0.625
O10     10.489849848   14.875780234    3.490997283 XXXX 1      oap1    O  -0.625
Ca3     12.831637814   16.612225699    5.795229804 XXXX 1      ca+h    Ca  1.500
P3      12.979372594   19.600677902    5.968416344 XXXX 1      pap     P   1.000
O11     11.845944657   20.467344641    5.435836735 XXXX 1      oap1    O  -0.800
O12     14.025879638   20.281151982    6.808617121 XXXX 1      oap1    O  -0.800
H1       8.403477549   22.605489959    2.533052621 XXXX 1      hop     H   0.400
H2      11.162325119   21.554307871    2.032523304 XXXX 1      hop     H   0.400
H3       8.016909357   16.259803295    3.131608486 XXXX 1      hop     H   0.400
H4      10.275240610   17.941845886    2.472802310 XXXX 1      hop     H   0.400
end
O1      33.712176986    3.595642427    2.735671538 XXXX 1      oap1    O  -0.650
O2      32.965634251    5.083859495    4.622012617 XXXX 1      oap1    O  -0.625
Ca1     29.360324162    5.875872489    2.714205454 XXXX 1      ca+h    Ca  1.500
Ca2      4.195018815    2.122639380    3.551247403 XXXX 1      ca+h    Ca  1.500
Ca3     35.226398584    6.284628893    5.080164908 XXXX 1      ca+h    Ca  1.500
P1      32.911153093    4.847711348    3.072639616 XXXX 1      pap     P   1.000
O3      31.407817814    4.645051564    2.670940756 XXXX 1      oap1    O  -0.625
O4      33.505454305    6.047050362    2.362238868 XXXX 1      oap1    O  -0.650
Ca4     28.939307744    1.542986280    2.174541864 XXXX 1      ca+h    Ca  1.500
H1      33.511782097    6.811778084    2.926635994 XXXX 1      hop     H   0.400
H2      34.443189957    3.942882290    2.331208181 XXXX 1      hop     H   0.400
end
O1      22.523889388   22.354695587    2.385306113 XXXX 1      oap1    O  -0.650
O2      23.114322002   17.741604114    3.061524941 XXXX 1      oap1    O  -0.650
O3      25.196868915   18.555804859    4.806184717 XXXX 1      oap1    O  -0.800
O4      21.175139870   21.770499932    4.308747097 XXXX 1      oap1    O  -0.625
O5      22.411653057   15.691782623    4.189164596 XXXX 1      oap1    O  -0.625
O6      23.795439555   18.631918107    6.856989145 XXXX 1      oap1    O  -0.800
Ca1     18.156878936   22.133107715    3.176335518 XXXX 1      ca+h    Ca  1.500
Ca2     27.244779976   18.545729472    3.564708596 XXXX 1      ca+h    Ca  1.500
Ca3     23.587083058   22.987982741    5.168202472 XXXX 1      ca+h    Ca  1.500
P1      21.532666465   21.299137137    2.864292523 XXXX 1      pap     P   1.000
O7      22.137834837   19.841546675    2.988977184 XXXX 1      oap1    O  -0.625
O8      20.291580710   21.299084868    1.977885773 XXXX 1      oap1    O  -0.650
P2      21.892495363   16.870039472    3.372836302 XXXX 1      pap     P   1.000
O9      21.184362568   16.340139162    2.080958591 XXXX 1      oap1    O  -0.650
O10     20.909522867   17.652548073    4.311754424 XXXX 1      oap1    O  -0.625
Ca4     24.287732140   16.417667549    5.543012841 XXXX 1      ca+h    Ca  1.500
P3      24.654774485   19.509775281    5.938002861 XXXX 1      pap     P   1.000
O11     23.698221364   20.607852411    5.440733394 XXXX 1      oap1    O  -0.800
O12     25.787258779   20.245835369    6.644421777 XXXX 1      oap1    O  -0.800
H1      22.809728886   18.571984904    2.700067483 XXXX 1      hop     H   0.400
H2      21.451225569   15.430209115    1.944778987 XXXX 1      hop     H   0.400
H3      20.412507495   20.560964016    1.398171230 XXXX 1      hop     H   0.400
H4      23.409624754   22.221873048    2.759420656 XXXX 1      hop     H   0.400
end
O1      33.396774732   21.565817151    2.183979468 XXXX 1      oap1    O  -0.650
O2      33.363837264   17.087587189    2.307056760 XXXX 1      oap1    O  -0.650
O3      32.279485714   21.678551786    4.358984548 XXXX 1      oap1    O  -0.625
O4      31.471707434   16.291407821    3.672310281 XXXX 1      oap1    O  -0.650
Ca1     35.556393467   22.716507009    4.962280242 XXXX 1      ca+h    Ca  1.500
P1      32.345835318   20.927583903    3.009722312 XXXX 1      pap     P   1.000
O5      32.793444039   19.450967661    3.174632209 XXXX 1      oap1    O  -0.625
O6      30.965898633   20.883181998    2.311788780 XXXX 1      oap1    O  -0.650
P2      32.974951646   16.290674007    3.615965727 XXXX 1      pap     P   1.000
O7      33.519267293   17.012383128    4.856129536 XXXX 1      oap1    O  -0.625
O8      33.567321650   14.860090488    3.584136262 XXXX 1      oap1    O  -0.625
H1      33.128404371   17.981118497    2.382118654 XXXX 1      hop     H   0.400
H2      31.328738019   15.337281048    3.716976139 XXXX 1      hop     H   0.400
H3      30.346775720   20.369487253    3.001391513 XXXX 1      hop     H   0.400
H4      33.908289496   20.840831399    1.968392531 XXXX 1      hop     H   0.400
end
O1       9.998858794   33.426052446    2.135714963 XXXX 1      oap1    O  -0.650
O2       8.360689417   32.836467927    3.813348334 XXXX 1      oap1    O  -0.650
P1       9.828075619   32.838308884    3.433661961 XXXX 1      pap     P   1.000
O3      10.641257853   33.586049453    4.520278935 XXXX 1      oap1    O  -0.625
O4      10.370649717   31.354810928    3.434423887 XXXX 1      oap1    O  -0.625
Ca1     12.591592782   32.562914827    5.583250804 XXXX 1      ca+h    Ca  1.500
H1       8.151693054   31.869335233    3.906006514 XXXX 1      hop     H   0.400
H2      10.306353214   34.276191087    2.214744604 XXXX 1      hop     H   0.400
end
O5       5.686926836   33.285574641    7.834293378 XXXX 1      oap1    O  -0.800
O8       4.460353598   33.444413537    9.996303354 XXXX 1      oap1    O  -0.800
P5       5.724066675   32.957632371    9.330015321 XXXX 1      pap     P   1.000
O21      6.822571147   33.779558016   10.059221528 XXXX 1      oap1    O  -0.800
O22      5.958288523   31.418605808    9.452816430 XXXX 1      oap1    O  -0.800
Ca10     8.632731679   32.741400498   11.163118801 XXXX 1      ca+h    Ca  1.500
O25      2.639450610   32.604263386    7.715916185 XXXX 1      oap2    O  -1.100
O26      5.013360458   32.496867762    4.029839899 XXXX 1      oap2    O  -1.100
H1       1.882447679   32.337242418    8.271532110 XXXX 1      hop     H   0.200
H2       5.877500325   32.604433695    3.591540850 XXXX 1      hop     H   0.200
end
O5       1.497092745   33.389381683   13.454238455 XXXX 1      oap1    O  -0.800
O8       0.222502337   33.625986376   15.569424498 XXXX 1      oap1    O  -0.800
P5       1.478104344   32.981105043   14.942830587 XXXX 1      pap     P   1.000
O21      2.734655534   33.571441726   15.650060554 XXXX 1      oap1    O  -0.800
O22      1.457834747   31.414894061   15.074937451 XXXX 1      oap1    O  -0.800
Ca10     4.494994620   32.536033736   16.968926083 XXXX 1      ca+h    Ca  1.500
O26      0.380366544   32.701745181   10.347412387 XXXX 1      oap2    O  -1.100
H2      -0.116357855   32.762938627   11.169242439 XXXX 1      hop     H   0.200
end
O1      19.856200172   32.801829615    4.031715386 XXXX 1      oap1    O  -0.650
O2      22.208113323   33.754162233    4.321631098 XXXX 1      oap1    O  -0.625
P1      21.305675139   32.837139093    3.439731197 XXXX 1      pap     P   1.000
O3      21.302470548   33.416614156    2.021715279 XXXX 1      oap1    O  -0.650
O4      21.910246764   31.443854260    3.520800163 XXXX 1      oap1    O  -0.625
Ca1     24.485300717   32.784733023    5.606821531 XXXX 1      ca+h    Ca  1.500
H1      19.542514182   31.857996904    3.993309230 XXXX 1      hop     H   0.400
H2      20.789662944   34.176858872    2.036433940 XXXX 1      hop     H   0.400
end
O5      17.583269500   33.532115888    7.952028094 XXXX 1      oap1    O  -0.800
O8      16.122793703   33.552206908    9.946353855 XXXX 1      oap1    O  -0.800
P5      17.401189304   33.025757559    9.414109215 XXXX 1      pap     P   1.000
O21     18.477788239   33.817507286   10.201483059 XXXX 1      oap1    O  -0.800
O22     17.549595306   31.507768314    9.556185820 XXXX 1      oap1    O  -0.800
Ca10    20.214534452   32.680092245   11.365661324 XXXX 1      ca+h    Ca  1.500
O25     12.705684974   32.709601967    9.745118850 XXXX 1      oap2    O  -1.100
O26     14.757220473   32.704309367    6.791386895 XXXX 1      oap2    O  -1.100
H1      13.199565022   32.420555876    9.006346730 XXXX 1      hop     H   0.200
H2      15.286201675   32.585132566    6.024344437 XXXX 1      hop     H   0.200
end
O5      13.542940200   33.660289850   13.582735196 XXXX 1      oap1    O  -0.800
O8      11.989784795   33.446552609   15.470414180 XXXX 1      oap1    O  -0.800
P5      13.342579878   33.000836764   14.937893140 XXXX 1      pap     P   1.000
O21     14.376516235   33.619599325   15.830897575 XXXX 1      oap1    O  -0.800
O22     13.410039472   31.404894455   14.842201293 XXXX 1      oap1    O  -0.800
Ca10    16.107675208   32.555800679   17.002399016 XXXX 1      ca+h    Ca  1.500
O25      8.741894912   32.575394465   15.223300572 XXXX 1      oap2    O  -1.100
O26     10.742566616   32.812087036   12.389241599 XXXX 1      oap2    O  -1.100
H1       9.167156417   32.516808013   14.386424567 XXXX 1      hop     H   0.200
H2      11.506651443   33.059930812   11.861837716 XXXX 1      hop     H   0.200
end
O5       9.586263920   33.358473778   19.158778024 XXXX 1      oap1    O  -0.800
O8       7.710057694   33.302055103   20.806235494 XXXX 1      oap1    O  -0.800
P5       9.144236883   32.821048740   20.546868010 XXXX 1      pap     P   1.000
O21     10.064845002   33.531181250   21.582331731 XXXX 1      oap1    O  -0.800
O22      9.233912670   31.263190165   20.524870031 XXXX 1      oap1    O  -0.800
Ca10    11.860535469   32.501021952   22.568874863 XXXX 1      ca+h    Ca  1.500
O25      4.535284675   32.624517446   20.401729746 XXXX 1      oap2    O  -1.100
O26      6.667796503   32.749836896   17.931183204 XXXX 1      oap2    O  -1.100
H1       4.589694939   32.389148178   19.484294487 XXXX 1      hop     H   0.200
H2       7.271638860   32.768360466   17.153520889 XXXX 1      hop     H   0.200
end
O5       4.987644618   33.425757445   24.542091381 XXXX 1      oap1    O  -0.800
O8       3.511653515   33.365271350   26.420790018 XXXX 1      oap1    O  -0.800
P5       4.977750201   32.984012712   26.025790865 XXXX 1      pap     P   1.000
O21      5.984836116   33.820304440   26.805236665 XXXX 1      oap1    O  -0.800
O22      5.162147893   31.459578538   26.122037756 XXXX 1      oap1    O  -0.800
Ca10     7.486349057   32.677747585   28.212773449 XXXX 1      ca+h    Ca  1.500
O25      0.266287839   32.758054927   26.135550456 XXXX 1      oap2    O  -1.100
O26      2.669641198   32.635811840   23.125567265 XXXX 1      oap2    O  -1.100
H1       0.579199410   32.500779835   25.263924661 XXXX 1      hop     H   0.200
H2       3.103306362   32.598704137   22.273867733 XXXX 1      hop     H   0.200
end
O5       0.930507332   33.788066772   30.303551144 XXXX 1      oap1    O  -0.800
O8      -0.536228765   33.389415959   32.220037455 XXXX 1      oap1    O  -0.800
P5       0.839362985   33.033065729   31.605862532 XXXX 1      pap     P   1.000
O21      2.042237901   33.484243083   32.422678262 XXXX 1      oap1    O  -0.800
O22      0.785359193   31.582626607   31.257271730 XXXX 1      oap1    O  -0.800
O26     -1.720004508   32.769227561   29.251407129 XXXX 1      oap2    O  -1.100
H2      -1.162911091   32.656269129   28.503752619 XXXX 1      hop     H   0.200
end
O1      33.558529854   33.301351213    1.996007464 XXXX 1      oap1    O  -0.650
O2      31.443952855   32.892122903    3.441276538 XXXX 1      oap1    O  -0.650
P1      33.007082028   32.712587334    3.281396989 XXXX 1      pap     P   1.000
O3      33.763152401   33.497584768    4.420615640 XXXX 1      oap1    O  -0.625
O4      33.372098883   31.229257039    3.470059118 XXXX 1      oap1    O  -0.625
H1      33.853022966   34.117861873    2.320690492 XXXX 1      hop     H   0.400
H2      31.209769661   32.069133184    3.768500978 XXXX 1      hop     H   0.400
end
O5      29.102188333   33.514716845    7.850920944 XXXX 1      oap1    O  -0.800
O8      27.679488388   33.444669144    9.858479636 XXXX 1      oap1    O  -0.800
P5      29.073361300   33.084204034    9.303041428 XXXX 1      pap     P   1.000
O21     30.213090298   33.848523524   10.071606576 XXXX 1      oap1    O  -0.800
O22     29.241244673   31.528079399    9.422467947 XXXX 1      oap1    O  -0.800
Ca10    31.859921595   32.712399624   11.401367247 XXXX 1      ca+h    Ca  1.500
O25     26.754871419   32.815748921    6.582739219 XXXX 1      oap2    O  -1.100
O26     29.356124210   31.950721213    1.286314882 XXXX 1      oap2    O  -1.100
H1      26.888868110   33.343559766    5.784860586 XXXX 1      hop     H   0.200
H2      30.058161434   31.891166508    0.645483467 XXXX 1      hop     H   0.200
end
O5      24.901085621   33.414609847   13.402505752 XXXX 1      oap1    O  -0.800
O8      23.663593055   33.535585518   15.576294671 XXXX 1      oap1    O  -0.800
P5      24.932517151   33.032216787   14.883763337 XXXX 1      pap     P   1.000
O21     26.053775116   33.757741380   15.516653849 XXXX 1      oap1    O  -0.800
O22     25.060961137   31.478077408   15.068158931 XXXX 1      oap1    O  -0.800
Ca10    27.713179715   32.779833511   16.933783901 XXXX 1      ca+h    Ca  1.500
O25     21.665620638   32.729601737   13.297857446 XXXX 1      oap2    O  -1.100
O26     24.273044660   32.770413439    9.670409727 XXXX 1      oap2    O  -1.100
H1      21.156631350   32.300532012   13.997935088 XXXX 1      hop     H   0.200
H2      24.475894756   32.824310106    8.740352921 XXXX 1      hop     H   0.200
end
O5      20.690145930   33.508372097   19.007987032 XXXX 1      oap1    O  -0.800
O8      19.605419589   33.550786006   21.212950668 XXXX 1      oap1    O  -0.800
P5      20.820416140   33.050075810   20.468235101 XXXX 1      pap     P   1.000
O21     21.964680819   33.789766909   21.119042306 XXXX 1      oap1    O  -0.800
O22     21.090745952   31.528316785   20.691368707 XXXX 1      oap1    O  -0.800
Ca10    23.535102068   32.682034715   22.530532655 XXXX 1      ca+h    Ca  1.500
O25     17.385759346   32.675850175   19.449929973 XXXX 1      oap2    O  -1.100
O26     19.480180303   32.694827295   16.244172832 XXXX 1      oap2    O  -1.100
H1      16.443937920   32.935709720   19.638394805 XXXX 1      hop     H   0.200
H2      18.611366156   32.573709152   16.548396236 XXXX 1      hop     H   0.200
end
O5      16.963745267   33.248886197   24.627316290 XXXX 1      oap1    O  -0.800
O8      15.328085587   33.394590390   26.570998551 XXXX 1      oap1    O  -0.800
P5      16.710753287   32.946042043   26.111623804 XXXX 1      pap     P   1.000
O21     17.811265576   33.688230540   26.945583191 XXXX 1      oap1    O  -0.800
O22     16.817726037   31.449862997   26.411294824 XXXX 1      oap1    O  -0.800
Ca10    19.350865133   32.526672798   28.154647270 XXXX 1      ca+h    Ca  1.500
O25     13.102991973   32.575856629   24.958667471 XXXX 1      oap2    O  -1.100
O26     15.309863338   32.690704705   21.998980385 XXXX 1      oap2    O  -1.100
H1      12.271084175   32.080892158   25.010159396 XXXX 1      hop     H   0.200
H2      14.567947156   32.931803429   22.570766881 XXXX 1      hop     H   0.200
end
O5      11.239221769   32.651556711   31.127089230 XXXX 1      oap1    O  -0.800
O8      10.875327247   33.927893163   33.333918351 XXXX 1      oap1    O  -0.800
P5      11.879991915   33.142280255   32.478760733 XXXX 1      pap     P   1.000
O21     13.071339394   34.126983554   32.140744998 XXXX 1      oap1    O  -0.800
O22     12.431942338   31.920387300   33.252192583 XXXX 1      oap1    O  -0.800
Ca10    14.892503107   32.908728949   33.336500241 XXXX 1      ca+h    Ca  1.500
O25      8.371323521   33.829201948   31.497377904 XXXX 1      oap2    O  -1.100
O26     10.800129620   32.593902488   27.791647997 XXXX 1      oap2    O  -1.100
H1       8.146853803   32.946169569   31.212628067 XXXX 1      hop     H   0.200
H2      10.132459886   33.254479225   27.850044004 XXXX 1      hop     H   0.200
end
O5      32.799649267   33.424030784   19.046277005 XXXX 1      oap1    O  -0.800
O8      30.983531662   33.583819643   20.912519765 XXXX 1      oap1    O  -0.800
P5      32.402572760   33.049509099   20.526313312 XXXX 1      pap     P   1.000
O21     33.434751972   33.676949169   21.485491010 XXXX 1      oap1    O  -0.800
O22     32.432003836   31.506145627   20.672758788 XXXX 1      oap1    O  -0.800
O25     29.647090468   32.706146030   18.289990319 XXXX 1      oap2    O  -1.100
O26     31.303864307   32.742496766   16.096204769 XXXX 1      oap2    O  -1.100
H1      30.021604669   32.476001031   17.425422842 XXXX 1      hop     H   0.200
H2      30.989741097   33.211553294   16.852891237 XXXX 1      hop     H   0.200
end
O5      28.424258272   33.435584895   24.679616613 XXXX 1      oap1    O  -0.800
O8      27.031795796   33.624098203   26.698646251 XXXX 1      oap1    O  -0.800
P5      28.362787585   33.000390353   26.192335766 XXXX 1      pap     P   1.000
O21     29.526546487   33.641234726   26.953850296 XXXX 1      oap1    O  -0.800
O22     28.421240022   31.435237007   26.286988234 XXXX 1      oap1    O  -0.800
Ca10    31.100345726   32.534664419   28.289760536 XXXX 1      ca+h    Ca  1.500
O25     25.499176973   32.851060363   23.872648624 XXXX 1      oap2    O  -1.100
O26     27.638438121   32.809320433   20.717832644 XXXX 1      oap2    O  -1.100
H1      26.056987315   32.590969484   23.164463747 XXXX 1      hop     H   0.200
H2      28.332784940   32.928151257   20.033278322 XXXX 1      hop     H   0.200
end
O5      24.344849439   33.610788913   30.318557304 XXXX 1      oap1    O  -0.800
O8      22.507116361   33.217493191   31.857206721 XXXX 1      oap1    O  -0.800
P5      24.043385952   32.984806488   31.629772707 XXXX 1      pap     P   1.000
O21     24.787900124   33.748249625   32.770133820 XXXX 1      oap1    O  -0.800
O22     24.282408310   31.411672687   31.592178104 XXXX 1      oap1    O  -0.800
O25     20.398479429   32.468914503   30.328283511 XXXX 1      oap2    O  -1.100
O26     22.937174635   32.916360361   27.332385526 XXXX 1      oap2    O  -1.100
H1      20.710866256   32.660051193   31.187282861 XXXX 1      hop     H   0.200
H2      22.733294912   32.415621888   28.116487839 XXXX 1      hop     H   0.200
end
O6       2.360669501    1.991719358    5.254506002 XXXX 1      oap1    O  -0.800
O9       0.389315547    2.219748583    6.824986859 XXXX 1      oap1    O  -0.800
P6       1.454421160    3.029694381    6.001772428 XXXX 1      pap     P   1.000
O23      0.692548080    3.917400748    4.988195713 XXXX 1      oap1    O  -0.800
O24      2.253438208    3.903648624    6.982650694 XXXX 1      oap1    O  -0.800
end
O6       1.234502040    2.166288265   21.718296408 XXXX 1      oap1    O  -0.800
O9      -0.169339138    2.109746318   23.808966629 XXXX 1      oap1    O  -0.800
Ca1      1.397756062    2.816343504   16.972977490 XXXX 1      ca+h    Ca  1.500
P6       0.470149862    3.036297568   22.751816256 XXXX 1      pap     P   1.000
O23     -0.649703941    3.863836512   22.033170726 XXXX 1      oap1    O  -0.800
O24      1.460512681    4.025235656   23.420976266 XXXX 1      oap1    O  -0.800
end
O1      10.164782607   12.089058328    1.421148550 XXXX 1      oap1    O  -0.650
O2       9.712767700   12.035553581    3.941553318 XXXX 1      oap1    O  -0.625
Ca1      8.636526366    8.098941843    2.940254072 XXXX 1      ca+h    Ca  1.500
P1       9.097929306   11.982827501    2.510662948 XXXX 1      pap     P   1.000
O3       8.381472213   10.677621742    2.321662935 XXXX 1      oap1    O  -0.625
O4       8.143700049   13.183882485    2.387135313 XXXX 1      oap1    O  -0.650
H1       8.141413234   13.636110017    3.244034223 XXXX 1      hop     H   0.400
H2       9.816527163   11.541169589    0.768571764 XXXX 1      hop     H   0.400
end
O6       1.722139162   10.239720809   13.614325808 XXXX 1      oap1    O  -0.800
O9      -0.086263567   10.481378835   15.352208635 XXXX 1      oap1    O  -0.800
Ca1      1.825148103   10.997315804    8.668886823 XXXX 1      ca+h    Ca  1.500
Ca10     0.753819807    8.024653844   14.305170710 XXXX 1      ca+h    Ca  1.500
P6       0.926120382   11.250720681   14.477887196 XXXX 1      pap     P   1.000
O23     -0.010886795   12.054941264   13.544730891 XXXX 1      oap1    O  -0.800
O24      1.888959614   12.120043334   15.373865725 XXXX 1      oap1    O  -0.800
end
O6       1.962127802   18.569382881    5.077535698 XXXX 1      oap1    O  -0.800
O9       0.381956578   18.736108033    6.873032737 XXXX 1      oap1    O  -0.800
Ca10     0.897675909   16.502183504    5.734786005 XXXX 1      ca+h    Ca  1.500
P6       1.217634194   19.581154045    5.909849781 XXXX 1      pap     P   1.000
O23      0.210461999   20.420133299    5.045956760 XXXX 1      oap1    O  -0.800
O24      2.259074891   20.449143367    6.704637375 XXXX 1      oap1    O  -0.800
end
O1      20.786925748    9.802134352    3.954626028 XXXX 1      oap1    O  -0.625
O2      19.413838037   11.541250176    2.692858216 XXXX 1      oap1    O  -0.625
Ca1     19.172385292   14.034454915    2.549221195 XXXX 1      ca+h    Ca  1.500
P1      20.070377767   10.084415158    2.613702843 XXXX 1      pap     P   1.000
O3      19.036918331    9.010289313    2.384732118 XXXX 1      oap1    O  -0.650
O4      21.081824245   10.038639199    1.454604227 XXXX 1      oap1    O  -0.650
H1      18.679342232    8.658057865    3.185700573 XXXX 1      hop     H   0.400
H2      20.912367853    9.189265674    1.093732210 XXXX 1      hop     H   0.400
end
O6       0.649310644   10.676246520   29.946377517 XXXX 1      oap1    O  -0.800
O9       0.084326663   10.263353878   32.374702859 XXXX 1      oap1    O  -0.800
Ca1      1.151168058   10.992369865   25.189005364 XXXX 1      ca+h    Ca  1.500
Ca10     0.282560161    8.192579086   30.926409186 XXXX 1      ca+h    Ca  1.500
P6       0.309338060   11.346550387   31.321145234 XXXX 1      pap     P   1.000
O23     -0.970027575   12.164171969   31.338181751 XXXX 1      oap1    O  -0.800
O24      1.447453464   12.263539714   31.817791790 XXXX 1      oap1    O  -0.800
end
O6       1.106026084   18.629567798   21.732064435 XXXX 1      oap1    O  -0.800
O9      -0.441669756   18.596445215   23.683733722 XXXX 1      oap1    O  -0.800
Ca1      1.381834911   19.331099463   16.924869626 XXXX 1      ca+h    Ca  1.500
Ca10     0.171098089   16.395899051   22.546363598 XXXX 1      ca+h    Ca  1.500
P6       0.389385244   19.482838761   22.751244511 XXXX 1      pap     P   1.000
O23     -0.512887893   20.407244889   21.889238147 XXXX 1      oap1    O  -0.800
O24      1.433060435   20.293527075   23.576068856 XXXX 1      oap1    O  -0.800
end
O1      10.804868365   24.764140826    3.896099134 XXXX 1      oap1    O  -0.625
O2       8.883033209   26.335834321    4.201531363 XXXX 1      oap1    O  -0.625
P1       9.558981186   25.388949299    3.206630175 XXXX 1      pap     P   1.000
O3       8.563975084   24.280669141    2.736692834 XXXX 1      oap1    O  -0.650
O4      10.139651500   26.191023214    2.048945663 XXXX 1      oap1    O  -0.650
H1      10.351072500   26.983803277    2.453148002 XXXX 1      hop     H   0.400
H2       7.968480601   24.057244459    3.445497646 XXXX 1      hop     H   0.400
end
O6       1.489478599   26.719597879   13.238354129 XXXX 1      oap1    O  -0.800
O9       0.169425606   26.797026124   15.308057464 XXXX 1      oap1    O  -0.800
Ca1      1.963132640   27.332846598    8.480935072 XXXX 1      ca+h    Ca  1.500
Ca10     0.732950126   24.560583941   13.994401975 XXXX 1      ca+h    Ca  1.500
P6       0.916440216   27.732402714   14.285973617 XXXX 1      pap     P   1.000
O23     -0.163676724   28.489073353   13.557982402 XXXX 1      oap1    O  -0.800
O24      1.973985783   28.651254225   15.030857048 XXXX 1      oap1    O  -0.800
end
O1      31.528876207   12.327802154    2.725252180 XXXX 1      oap1    O  -0.650
O2      33.461577312   12.196759794    4.338475338 XXXX 1      oap1    O  -0.625
P1      32.709354941   11.484644177    3.124074637 XXXX 1      pap     P   1.000
O3      33.747365028   11.460597097    1.998397980 XXXX 1      oap1    O  -0.625
O4      32.277363231   10.145471478    3.662752108 XXXX 1      oap1    O  -0.650
H1      31.257704315   12.932999213    3.401865728 XXXX 1      hop     H   0.400
H2      32.250863128    9.597832159    2.855777584 XXXX 1      hop     H   0.400
end
O1      19.885418007   28.773781862    2.512291783 XXXX 1      oap1    O  -0.650
O2      20.573336211   26.832271803    4.014916993 XXXX 1      oap1    O  -0.625
P1      21.027218548   27.917415686    3.012206451 XXXX 1      pap     P   1.000
O3      22.036433955   28.793999102    3.796698717 XXXX 1      oap1    O  -0.625
O4      21.796632418   27.267309445    1.857981143 XXXX 1      oap1    O  -0.650
H1      19.220821306   28.749051872    3.158074327 XXXX 1      hop     H   0.400
H2      22.542720539   26.779585259    2.232919521 XXXX 1      hop     H   0.400
end
O6       0.506876869   26.723732626   29.726484651 XXXX 1      oap1    O  -0.800
O9      -0.141649500   26.432968321   32.102929782 XXXX 1      oap1    O  -0.800
Ca1      1.063242260   27.260983551   25.283321194 XXXX 1      ca+h    Ca  1.500
Ca10    -0.180016602   24.405501172   30.849006041 XXXX 1      ca+h    Ca  1.500
P6       0.115199050   27.443852666   30.993243856 XXXX 1      pap     P   1.000
O23     -1.250493319   28.162217995   30.699736873 XXXX 1      oap1    O  -0.800
O24      1.162268792   28.446100900   31.435634263 XXXX 1      oap1    O  -0.800
end
O1      33.559839975   28.676133924    3.667432268 XXXX 1      oap1    O  -0.650
O2      31.895355348   26.591961262    3.873744374 XXXX 1      oap1    O  -0.625
Ca1     29.588376120   29.819471977    2.476702160 XXXX 1      ca+h    Ca  1.500
P1      32.553187324   27.715254883    2.984391657 XXXX 1      pap     P   1.000
O3      33.254189257   27.004615143    1.786652856 XXXX 1      oap1    O  -0.650
O4      31.435417522   28.490590504    2.367807875 XXXX 1      oap1    O  -0.625
H1      33.789386131   29.314729251    3.057406473 XXXX 1      hop     H   0.400
H2      34.213359946   27.013120287    1.973899437 XXXX 1      hop     H   0.400
end
Ca2     35.291680435   13.223157071    2.765942426 XXXX 1      ca+h    Ca  1.500
Ca3     33.224175096   14.007851862    5.774476781 XXXX 1      ca+h    Ca  1.500
Ca9     34.793986839   10.008508037    5.101774900 XXXX 1      ca+h    Ca  1.500
O25     34.094957262    8.022094516    3.946591186 XXXX 1      oap2    O  -1.100
H1      33.185319125    8.344588858    3.985352169 XXXX 1      hop     H   0.200
end
Ca3     33.009279112   30.228506012    5.585841993 XXXX 1      ca+h    Ca  1.500
Ca9     35.105890993   26.779094183    4.888959640 XXXX 1      ca+h    Ca  1.500
O25     34.489438272   24.601271520    3.859463388 XXXX 1      oap2    O  -1.100
H1      35.201059104   24.672226198    3.248886506 XXXX 1      hop     H   0.200
end
Ca10     1.114259954   32.660882589    5.752393836 XXXX 1      ca+h    Ca  1.500
end
Ca10     0.247002047   32.568328315   22.519415167 XXXX 1      ca+h    Ca  1.500
end
O25     33.503121268   32.791328495   13.273960589 XXXX 1      oap2    O  -1.100
H1      33.034470146   32.922095418   14.101825524 XXXX 1      hop     H   0.200
end
O25     31.371766855   32.653589115   31.800557295 XXXX 1      oap2    O  -1.100
H1      32.050259789   32.952955574   31.122933876 XXXX 1      hop     H   0.200
end
end
