!BIOSYM archive 3
PBC=ON
Materials Studio Generated CAR File
!DATE Tue May 05 05:15:35 2015
PBC   37.6680   34.3750  132.6214   90.0000   90.0000   90.0000 (P1)
O1      10.374196555   35.369294191   28.319170256 XXXX 1      oap1    O  -0.800
O2      10.297918382   28.202303806   27.665845913 XXXX 1      oap1    O  -0.800
O3      10.197356616   21.503652475   28.209936763 XXXX 1      oap1    O  -0.800
O4      10.002556487   14.555744217   28.208532930 XXXX 1      oap1    O  -0.800
O17     19.756510402   35.340238557   28.265967611 XXXX 1      oap1    O  -0.800
O18     19.732741403   28.225914106   27.731862779 XXXX 1      oap1    O  -0.800
O19     19.472368913   21.632464656   27.920510925 XXXX 1      oap1    O  -0.800
O20     19.555070069   14.712650119   27.972526176 XXXX 1      oap1    O  -0.800
O33     28.998465105   35.309227803   28.112755454 XXXX 1      oap1    O  -0.800
O34     29.246960490   28.201138629   27.659451062 XXXX 1      oap1    O  -0.800
O35     28.896914280   21.494331099   28.035066388 XXXX 1      oap1    O  -0.800
O36     28.865922973   14.583774890   28.020982134 XXXX 1      oap1    O  -0.800
O193    12.398808319   31.893305127   26.198959444 XXXX 1      oap1    O  -0.800
O194    12.102098428   24.911028112   25.966323909 XXXX 1      oap1    O  -0.800
O195    11.861969126   17.968994271   25.871814575 XXXX 1      oap1    O  -0.800
O196    12.157013005   11.209272170   25.797473943 XXXX 1      oap1    O  -0.800
O209    21.626235109   31.835128017   26.006076806 XXXX 1      oap1    O  -0.800
O210    21.915954113   25.072492821   25.895638056 XXXX 1      oap1    O  -0.800
O211    21.585223587   18.110085342   25.955727276 XXXX 1      oap1    O  -0.800
O212    21.639919190   11.299750577   26.046144518 XXXX 1      oap1    O  -0.800
O225    31.232277514   31.915354943   26.226132142 XXXX 1      oap1    O  -0.800
O226    31.168091763   25.042214067   26.007388499 XXXX 1      oap1    O  -0.800
O227    30.752329980   17.998515409   26.036407700 XXXX 1      oap1    O  -0.800
O228    30.986830768   11.188465299   26.151801169 XXXX 1      oap1    O  -0.800
O241    16.867717223   31.787942903   27.248165325 XXXX 1      oap1    O  -0.800
O242    16.505605498   25.040472805   27.624993879 XXXX 1      oap1    O  -0.800
O243    16.909022759   18.154894428   27.618539725 XXXX 1      oap1    O  -0.800
O244    16.730758297   11.306646141   27.500134133 XXXX 1      oap1    O  -0.800
O257    26.348861169   31.818056633   27.124268288 XXXX 1      oap1    O  -0.800
O258    26.175425016   25.021492314   27.447601259 XXXX 1      oap1    O  -0.800
O259    26.562377934   18.038139929   27.553876358 XXXX 1      oap1    O  -0.800
O260    26.364720567   11.136690140   27.430359100 XXXX 1      oap1    O  -0.800
O273    36.192945961   31.607188886   27.562353713 XXXX 1      oap1    O  -0.800
O274    35.347733781   24.851249511   27.403187795 XXXX 1      oap1    O  -0.800
O275    35.922769893   17.859288251   27.512993629 XXXX 1      oap1    O  -0.800
O276    35.593119530   11.308188633   27.602213078 XXXX 1      oap1    O  -0.800
O337    12.439320073   29.345756063   26.107827874 XXXX 1      oap1    O  -0.800
O338    12.183518916   22.390877074   25.980310855 XXXX 1      oap1    O  -0.800
O339    12.300920915   15.571645602   26.190286289 XXXX 1      oap1    O  -0.800
O340    12.349431125    8.783911264   26.097441100 XXXX 1      oap1    O  -0.800
O353    21.866166675   29.385328929   26.135560881 XXXX 1      oap1    O  -0.800
O354    21.514477006   22.651992682   25.694973070 XXXX 1      oap1    O  -0.800
O355    21.715512117   15.676379003   26.030292556 XXXX 1      oap1    O  -0.800
O356    21.717455374    8.745765703   26.050954566 XXXX 1      oap1    O  -0.800
O369    31.315562469   29.323628175   26.232301112 XXXX 1      oap1    O  -0.800
O370    31.038587649   22.583273421   25.953854128 XXXX 1      oap1    O  -0.800
O371    30.993288845   15.551583507   26.194483430 XXXX 1      oap1    O  -0.800
O372    30.926449607    8.745901543   26.007324479 XXXX 1      oap1    O  -0.800
O385    16.699590746   29.375291598   27.242115596 XXXX 1      oap1    O  -0.800
O386    16.957089101   22.633508842   27.665871295 XXXX 1      oap1    O  -0.800
O387    16.547666772   15.768233319   27.496049952 XXXX 1      oap1    O  -0.800
O388    16.880572842    8.816860638   27.561661879 XXXX 1      oap1    O  -0.800
O401    26.110795737   29.356183741   27.539194855 XXXX 1      oap1    O  -0.800
O402    26.333556353   22.603626024   27.652019200 XXXX 1      oap1    O  -0.800
O403    26.130842165   15.627683237   27.667009420 XXXX 1      oap1    O  -0.800
O404    26.051506895    8.695034721   27.935730957 XXXX 1      oap1    O  -0.800
O417    35.478538332   29.242196965   27.691072310 XXXX 1      oap1    O  -0.800
O418    35.389902771   22.418152836   27.645764883 XXXX 1      oap1    O  -0.800
O419    35.287974504   15.498655903   27.781677794 XXXX 1      oap1    O  -0.800
O420    35.755442324    8.863850533   27.502833417 XXXX 1      oap1    O  -0.800
O433    10.418299846   32.937923616   28.044979573 XXXX 1      oap1    O  -0.800
O434    10.365937377   25.862661754   28.384144256 XXXX 1      oap1    O  -0.800
O435    10.089945979   19.044791113   28.251228394 XXXX 1      oap1    O  -0.800
O436    10.186255320   12.102914817   28.330019247 XXXX 1      oap1    O  -0.800
O449    19.808363900   32.778964026   28.303914209 XXXX 1      oap1    O  -0.800
O450    19.827858013   25.865454185   28.310362317 XXXX 1      oap1    O  -0.800
O451    19.641621479   19.158258986   28.072605201 XXXX 1      oap1    O  -0.800
O452    19.507843432   12.298593728   28.338370661 XXXX 1      oap1    O  -0.800
O465    29.213217261   32.796957303   28.135007977 XXXX 1      oap1    O  -0.800
O466    29.221962181   25.825700590   28.339879613 XXXX 1      oap1    O  -0.800
O467    29.038765636   19.079905714   28.293711908 XXXX 1      oap1    O  -0.800
O468    28.962437465   12.193411344   28.277137262 XXXX 1      oap1    O  -0.800
Ca1     14.107041065   35.888813034   28.163444494 XXXX 1      ca+h    Ca  1.500
Ca2     14.111973838   28.764989086   27.861418177 XXXX 1      ca+h    Ca  1.500
Ca3     13.961124762   21.966613574   28.183202541 XXXX 1      ca+h    Ca  1.500
Ca4     14.024637343   15.218155898   27.987162270 XXXX 1      ca+h    Ca  1.500
Ca17    23.474347045   35.894673933   28.041750163 XXXX 1      ca+h    Ca  1.500
Ca18    23.593620349   28.955651493   27.988748992 XXXX 1      ca+h    Ca  1.500
Ca19    23.775504254   21.907403528   28.086293697 XXXX 1      ca+h    Ca  1.500
Ca20    23.309090689   15.325552448   28.016764757 XXXX 1      ca+h    Ca  1.500
Ca33    32.943454023   35.827005252   28.000953106 XXXX 1      ca+h    Ca  1.500
Ca34    32.903694085   28.770878928   28.028828112 XXXX 1      ca+h    Ca  1.500
Ca35    32.875812769   22.022455559   28.283687724 XXXX 1      ca+h    Ca  1.500
Ca36    32.776682671   15.343392097   28.126129893 XXXX 1      ca+h    Ca  1.500
Ca145   14.101283894   32.283334296   28.044856270 XXXX 1      ca+h    Ca  1.500
Ca146   14.155096753   25.417423264   28.077267328 XXXX 1      ca+h    Ca  1.500
Ca147   14.018832868   18.643017752   28.138184984 XXXX 1      ca+h    Ca  1.500
Ca148   14.127183953   11.719856191   28.084330466 XXXX 1      ca+h    Ca  1.500
Ca161   23.467061622   32.396555342   27.951095551 XXXX 1      ca+h    Ca  1.500
Ca162   23.631597823   25.444255711   27.984292799 XXXX 1      ca+h    Ca  1.500
Ca163   23.252262634   18.628186042   27.995529792 XXXX 1      ca+h    Ca  1.500
Ca164   23.344907652   11.941900345   28.062582776 XXXX 1      ca+h    Ca  1.500
Ca177   32.794182252   32.460934954   28.053825260 XXXX 1      ca+h    Ca  1.500
Ca178   32.954796072   25.412028483   28.274173065 XXXX 1      ca+h    Ca  1.500
Ca179   32.807146958   18.683231372   28.283956156 XXXX 1      ca+h    Ca  1.500
Ca180   32.754105737   11.745682109   28.099712575 XXXX 1      ca+h    Ca  1.500
Ca193    8.334102785   34.063846721   27.268390504 XXXX 1      ca+h    Ca  1.500
Ca194    8.036159504   27.215733473   27.238323043 XXXX 1      ca+h    Ca  1.500
Ca195    8.072236921   20.383261126   27.308478563 XXXX 1      ca+h    Ca  1.500
Ca196    8.040844073   13.423231055   27.448477928 XXXX 1      ca+h    Ca  1.500
Ca209   17.635298799   33.970172998   27.449336034 XXXX 1      ca+h    Ca  1.500
Ca210   17.631394413   27.126773592   27.554594665 XXXX 1      ca+h    Ca  1.500
Ca211   17.519977152   20.391236715   27.000178563 XXXX 1      ca+h    Ca  1.500
Ca212   17.376267789   13.517563818   27.357676683 XXXX 1      ca+h    Ca  1.500
Ca225   27.058675628   34.100582394   27.331262152 XXXX 1      ca+h    Ca  1.500
Ca226   27.037278624   27.247694069   27.510033574 XXXX 1      ca+h    Ca  1.500
Ca227   27.059996624   20.346501849   27.176641135 XXXX 1      ca+h    Ca  1.500
Ca228   26.805644285   13.417144800   27.529825998 XXXX 1      ca+h    Ca  1.500
P1      11.174735184   34.060741803   28.605782436 XXXX 1      pap     P   1.000
P2      11.100702572   27.210785908   28.465611292 XXXX 1      pap     P   1.000
P3      10.970196414   20.241541928   28.603761766 XXXX 1      pap     P   1.000
P4      10.926833502   13.413058895   28.667479842 XXXX 1      pap     P   1.000
P17     20.578327238   34.037763507   28.617216808 XXXX 1      pap     P   1.000
P18     20.567736179   27.173449452   28.562223835 XXXX 1      pap     P   1.000
P19     20.362818238   20.427610839   28.388465160 XXXX 1      pap     P   1.000
P20     20.298889057   13.609583578   28.600927867 XXXX 1      pap     P   1.000
P33     29.944970533   34.083158093   28.478380861 XXXX 1      pap     P   1.000
P34     30.018738760   27.158578939   28.438851472 XXXX 1      pap     P   1.000
P35     29.805925924   20.356747820   28.604818673 XXXX 1      pap     P   1.000
P36     29.713566902   13.501891409   28.572341807 XXXX 1      pap     P   1.000
O577    11.169526447   33.863224369   30.083441116 XXXX 1      oap1    O  -0.800
O578    11.329541858   27.592737023   29.994300017 XXXX 1      oap1    O  -0.800
O579    11.079285922   20.237908937   30.143766844 XXXX 1      oap1    O  -0.800
O580    11.026369354   13.466873031   30.161227598 XXXX 1      oap1    O  -0.800
O593    20.723314536   33.982641066   30.159709354 XXXX 1      oap1    O  -0.800
O594    20.527517781   27.477481302   30.089475500 XXXX 1      oap1    O  -0.800
O595    20.440221809   20.445583680   29.917284900 XXXX 1      oap1    O  -0.800
O596    20.388651536   13.680677038   30.098989214 XXXX 1      oap1    O  -0.800
O609    30.083871927   34.000559714   30.021387014 XXXX 1      oap1    O  -0.800
O610    30.177680089   27.446479483   29.921135357 XXXX 1      oap1    O  -0.800
O611    29.973341636   20.469715089   30.129142345 XXXX 1      oap1    O  -0.800
O612    29.903506077   13.669092230   30.088608899 XXXX 1      oap1    O  -0.800
O625    12.585608679   34.089128512   27.968898545 XXXX 1      oap1    O  -0.800
O626    12.497914848   27.024378131   27.786730742 XXXX 1      oap1    O  -0.800
O627    12.308985175   20.239620705   27.889258353 XXXX 1      oap1    O  -0.800
O628    12.300208856   13.432817690   27.968850554 XXXX 1      oap1    O  -0.800
O641    21.951778183   34.118171361   27.865210458 XXXX 1      oap1    O  -0.800
O642    21.955944302   27.154848465   27.906584731 XXXX 1      oap1    O  -0.800
O643    21.759728499   20.433008135   27.770468374 XXXX 1      oap1    O  -0.800
O644    21.741830141   13.563454448   28.009430039 XXXX 1      oap1    O  -0.800
O657    31.319812544   34.140383051   27.739770344 XXXX 1      oap1    O  -0.800
O658    31.414308434   27.010247228   27.779444747 XXXX 1      oap1    O  -0.800
O659    31.203223137   20.296616050   27.881277850 XXXX 1      oap1    O  -0.800
O660    31.062739143   13.488196299   27.887838730 XXXX 1      oap1    O  -0.800
Ca385   10.564107863   30.631599508   27.484164185 XXXX 1      ca+h    Ca  1.500
Ca386   10.362995407   23.786681879   27.412475324 XXXX 1      ca+h    Ca  1.500
Ca387   10.325491441   16.784479551   27.554326058 XXXX 1      ca+h    Ca  1.500
Ca388   10.552859078    9.935588694   27.305089763 XXXX 1      ca+h    Ca  1.500
Ca401   20.031581937   30.585345012   27.412755370 XXXX 1      ca+h    Ca  1.500
Ca402   19.979165003   23.844961707   27.296900650 XXXX 1      ca+h    Ca  1.500
Ca403   19.699277395   16.956498525   27.314759210 XXXX 1      ca+h    Ca  1.500
Ca404   19.909168767   10.076408544   27.508064608 XXXX 1      ca+h    Ca  1.500
Ca417   29.221257415   30.481958038   27.539115516 XXXX 1      ca+h    Ca  1.500
Ca418   29.257303184   23.742176901   27.314054707 XXXX 1      ca+h    Ca  1.500
Ca419   28.992313895   16.893112866   27.392907748 XXXX 1      ca+h    Ca  1.500
Ca420   29.082561483    9.981429961   27.341712977 XXXX 1      ca+h    Ca  1.500
P193    13.069209008   30.649699934   25.594353796 XXXX 1      pap     P   1.000
P194    12.940589461   23.689246897   25.576170229 XXXX 1      pap     P   1.000
P195    12.897086632   16.865086345   25.576065030 XXXX 1      pap     P   1.000
P196    13.076987396   10.011353793   25.526084094 XXXX 1      pap     P   1.000
P209    22.456610962   30.649356066   25.546720839 XXXX 1      pap     P   1.000
P210    22.529572908   23.724076892   25.461436360 XXXX 1      pap     P   1.000
P211    22.442099872   16.906912978   25.515452459 XXXX 1      pap     P   1.000
P212    22.460408662   10.027656329   25.570455905 XXXX 1      pap     P   1.000
P225    31.965670019   30.603894447   25.635319247 XXXX 1      pap     P   1.000
P226    31.920608363   23.732733476   25.630887955 XXXX 1      pap     P   1.000
P227    31.732645444   16.818052534   25.702525070 XXXX 1      pap     P   1.000
P228    31.786891605    9.890753012   25.601478212 XXXX 1      pap     P   1.000
O961    14.464222688   30.657696631   26.197049884 XXXX 1      oap1    O  -0.800
O962    14.330065144   23.675077984   26.257897786 XXXX 1      oap1    O  -0.800
O963    14.253770115   17.087533440   26.257339597 XXXX 1      oap1    O  -0.800
O964    14.389152909   10.177928344   26.273696517 XXXX 1      oap1    O  -0.800
O977    23.778913256   30.797920117   26.263348730 XXXX 1      oap1    O  -0.800
O978    23.812856746   23.504988018   26.291166803 XXXX 1      oap1    O  -0.800
O979    23.784352626   17.075807474   26.316316966 XXXX 1      oap1    O  -0.800
O980    23.820150002   10.191464415   26.294472487 XXXX 1      oap1    O  -0.800
O993    33.362584563   30.647556783   26.180050447 XXXX 1      oap1    O  -0.800
O994    33.069151560   23.653337547   26.616787441 XXXX 1      oap1    O  -0.800
O995    33.037883848   17.098109913   26.517015050 XXXX 1      oap1    O  -0.800
O996    33.161400669    9.833247865   26.360555192 XXXX 1      oap1    O  -0.800
O1009   13.138224728   30.722369735   24.055329884 XXXX 1      oap1    O  -0.800
O1010   13.049720051   23.764174248   24.039943758 XXXX 1      oap1    O  -0.800
O1011   13.099438101   16.749153709   24.032093604 XXXX 1      oap1    O  -0.800
O1012   13.243974426    9.898538624   24.001521902 XXXX 1      oap1    O  -0.800
O1025   22.569202518   30.629403949   24.011415479 XXXX 1      oap1    O  -0.800
O1026   22.865734356   23.739938036   23.935634316 XXXX 1      oap1    O  -0.800
O1027   22.631340855   16.950028354   23.938034546 XXXX 1      oap1    O  -0.800
O1028   22.645799546   10.088175031   24.020090695 XXXX 1      oap1    O  -0.800
O1041   32.079651466   30.586297604   24.082539238 XXXX 1      oap1    O  -0.800
O1042   32.298671405   23.777313774   24.093210509 XXXX 1      oap1    O  -0.800
O1043   32.105764161   16.821408316   24.204994373 XXXX 1      oap1    O  -0.800
O1044   31.904745893    9.928736204   24.001465904 XXXX 1      oap1    O  -0.800
Ca433   16.652376769   30.721575085   25.207525214 XXXX 1      ca+h    Ca  1.500
Ca434   16.417216272   23.834806696   25.240836898 XXXX 1      ca+h    Ca  1.500
Ca435   16.460917824   16.850527968   25.290871691 XXXX 1      ca+h    Ca  1.500
Ca436   16.585621433    9.973273340   25.247456383 XXXX 1      ca+h    Ca  1.500
Ca449   25.869137141   30.677732802   25.117399878 XXXX 1      ca+h    Ca  1.500
Ca450   25.849236973   23.772278470   25.255516126 XXXX 1      ca+h    Ca  1.500
Ca451   25.961807264   17.072807989   25.351591167 XXXX 1      ca+h    Ca  1.500
Ca452   25.931024347   10.209283819   25.301734751 XXXX 1      ca+h    Ca  1.500
Ca465   35.452052622   30.604625022   25.228719222 XXXX 1      ca+h    Ca  1.500
Ca466   35.142517805   23.757127933   25.334398028 XXXX 1      ca+h    Ca  1.500
Ca467   35.159773656   16.804019698   25.370447748 XXXX 1      ca+h    Ca  1.500
Ca468   35.355205150   10.087954155   25.391769455 XXXX 1      ca+h    Ca  1.500
P241    16.817630087   30.553917916   28.191414614 XXXX 1      pap     P   1.000
P242    16.657734029   23.840974948   28.555430888 XXXX 1      pap     P   1.000
P243    16.675564665   16.912368596   28.459585624 XXXX 1      pap     P   1.000
P244    16.768655748   10.023995664   28.458401650 XXXX 1      pap     P   1.000
P257    26.231295085   30.697478275   28.198736718 XXXX 1      pap     P   1.000
P258    26.217697106   23.865765855   28.457997393 XXXX 1      pap     P   1.000
P259    26.135724933   16.892003882   28.524341841 XXXX 1      pap     P   1.000
P260    26.092746245   10.098184961   28.566059463 XXXX 1      pap     P   1.000
P273    35.553550330   30.515385971   28.483459199 XXXX 1      pap     P   1.000
P274    35.524884686   23.687714211   28.472816703 XXXX 1      pap     P   1.000
P275    35.522197565   16.807286581   28.522806428 XXXX 1      pap     P   1.000
P276    35.466177734   10.057844551   28.459680610 XXXX 1      pap     P   1.000
O1057   15.525279323   30.644175667   28.974120171 XXXX 1      oap1    O  -0.800
O1058   15.266602350   23.656071167   29.236321060 XXXX 1      oap1    O  -0.800
O1059   15.261784533   16.993568255   29.108890918 XXXX 1      oap1    O  -0.800
O1060   15.358228885   10.070989324   29.050318441 XXXX 1      oap1    O  -0.800
O1073   24.930559884   30.838835729   28.991485224 XXXX 1      oap1    O  -0.800
O1074   24.867924465   23.772144407   29.119300958 XXXX 1      oap1    O  -0.800
O1075   24.730337613   17.124610108   29.152731016 XXXX 1      oap1    O  -0.800
O1076   24.788286292   10.471290573   29.267385701 XXXX 1      oap1    O  -0.800
O1089   34.108905555   30.900969065   28.850422146 XXXX 1      oap1    O  -0.800
O1090   34.306735016   23.707884684   29.423930996 XXXX 1      oap1    O  -0.800
O1091   34.163459034   17.126710462   29.182234552 XXXX 1      oap1    O  -0.800
O1092   34.054812812    9.884285578   29.084156542 XXXX 1      oap1    O  -0.800
O1105   18.071374202   30.498479373   29.032602940 XXXX 1      oap1    O  -0.800
O1106   17.776879825   24.128838956   29.593534539 XXXX 1      oap1    O  -0.800
O1107   17.831654287   16.677654859   29.454474337 XXXX 1      oap1    O  -0.800
O1108   17.828505088   10.111366537   29.516781985 XXXX 1      oap1    O  -0.800
O1121   27.392449941   30.762511377   29.172704129 XXXX 1      oap1    O  -0.800
O1122   27.356530623   23.978661084   29.464302249 XXXX 1      oap1    O  -0.800
O1123   27.233806878   16.775310768   29.583608549 XXXX 1      oap1    O  -0.800
O1124   27.305283513   10.220216675   29.519048805 XXXX 1      oap1    O  -0.800
O1137   36.356054653   30.375840885   29.796854449 XXXX 1      oap1    O  -0.800
O1138   36.876076322   23.897941413   29.089209979 XXXX 1      oap1    O  -0.800
O1139   36.599056473   16.626256720   29.621135414 XXXX 1      oap1    O  -0.800
O1140   36.474446782   10.176096376   29.626042407 XXXX 1      oap1    O  -0.800
O1153    9.346330136   33.421996398   25.206809687 XXXX 1      oap2    O  -1.100
O1154    9.357325582   26.321821108   25.417702826 XXXX 1      oap2    O  -1.100
O1155    9.347811604   19.551729656   25.307562197 XXXX 1      oap2    O  -1.100
O1156    9.497388593   12.633285809   25.596021590 XXXX 1      oap2    O  -1.100
O1169   18.688393100   33.325937628   25.509655429 XXXX 1      oap2    O  -1.100
O1170   18.762471188   26.446805118   25.438282314 XXXX 1      oap2    O  -1.100
O1171   18.787400691   19.433293090   25.278258793 XXXX 1      oap2    O  -1.100
O1172   18.682861469   12.792884952   25.408923586 XXXX 1      oap2    O  -1.100
O1185   28.261647630   33.798186042   25.369015865 XXXX 1      oap2    O  -1.100
O1186   28.204344732   26.544250073   25.393890971 XXXX 1      oap2    O  -1.100
O1187   28.161645777   19.399735084   25.350455009 XXXX 1      oap2    O  -1.100
O1188   28.144106626   12.507113591   25.430995616 XXXX 1      oap2    O  -1.100
O1201    9.359394307   30.061819651   25.340382420 XXXX 1      oap2    O  -1.100
O1202    9.257807418   23.161087534   25.326405529 XXXX 1      oap2    O  -1.100
O1203    9.414740745   15.867355053   25.473864695 XXXX 1      oap2    O  -1.100
O1204    9.489614735    9.256551747   25.307264608 XXXX 1      oap2    O  -1.100
O1217   18.956304834   30.037942305   25.334063595 XXXX 1      oap2    O  -1.100
O1218   18.630166692   23.114869778   25.329891691 XXXX 1      oap2    O  -1.100
O1219   18.722321334   16.314231275   25.240280421 XXXX 1      oap2    O  -1.100
O1220   18.960719335    9.437481764   25.412941601 XXXX 1      oap2    O  -1.100
O1233   28.197423877   30.165470259   25.324271422 XXXX 1      oap2    O  -1.100
O1234   28.173238477   22.915864541   25.176701715 XXXX 1      oap2    O  -1.100
O1235   28.124643721   15.996736907   25.348679790 XXXX 1      oap2    O  -1.100
O1236   28.148960689    9.052196327   25.353652113 XXXX 1      oap2    O  -1.100
H1       9.065698961   32.494972893   25.367091961 XXXX 1      hop     H   0.200
H2       9.374916447   25.391705135   25.497975629 XXXX 1      hop     H   0.200
H3       9.278499051   18.898521608   25.948595058 XXXX 1      hop     H   0.200
H4       9.807521881   11.718570023   25.399475965 XXXX 1      hop     H   0.200
H17     18.648920591   32.396872478   25.392463951 XXXX 1      hop     H   0.200
H18     19.144936546   25.628527231   25.359390528 XXXX 1      hop     H   0.200
H19     18.178382636   18.801379355   24.989434685 XXXX 1      hop     H   0.200
H20     18.778253339   11.818434165   25.525557906 XXXX 1      hop     H   0.200
H33     28.099989206   32.973909186   25.696507112 XXXX 1      hop     H   0.200
H34     28.009750596   25.641574924   25.272519541 XXXX 1      hop     H   0.200
H35     28.237993309   18.511417832   25.080665363 XXXX 1      hop     H   0.200
H36     27.863273755   11.643764244   25.693954074 XXXX 1      hop     H   0.200
H49      9.072229205   29.383646902   25.909603412 XXXX 1      hop     H   0.200
H50      9.207044824   22.223802830   25.408654467 XXXX 1      hop     H   0.200
H51      9.650537935   14.909632480   25.703756543 XXXX 1      hop     H   0.200
H52      9.111073515    8.670185138   24.647174554 XXXX 1      hop     H   0.200
H65     18.375407171   29.364143687   25.732347585 XXXX 1      hop     H   0.200
H66     18.473971210   22.387277066   25.879940939 XXXX 1      hop     H   0.200
H67     18.626076458   15.343700323   25.409378717 XXXX 1      hop     H   0.200
H68     19.261475516    8.555921838   25.580971537 XXXX 1      hop     H   0.200
H81     27.773461979   29.341031911   25.026958123 XXXX 1      hop     H   0.200
H82     27.891935826   22.086947712   24.833016950 XXXX 1      hop     H   0.200
H83     27.990260690   15.116264665   25.801390642 XXXX 1      hop     H   0.200
H84     28.140406800    8.086969752   25.389651884 XXXX 1      hop     H   0.200
end
O1      10.095774831    7.760738062   28.156899840 XXXX 1      oap1    O  -0.800
O17     19.491132192    7.855857423   28.402584947 XXXX 1      oap1    O  -0.800
O33     28.826195799    7.759828685   28.291333923 XXXX 1      oap1    O  -0.800
O193    12.217502208    4.307543614   26.045586164 XXXX 1      oap1    O  -0.800
O209    21.365089087    4.318400140   25.876084025 XXXX 1      oap1    O  -0.800
O225    30.843154987    4.190849314   25.852739928 XXXX 1      oap1    O  -0.800
O241    17.085453483    4.185714226   27.443272644 XXXX 1      oap1    O  -0.800
O257    25.906042391    4.347653705   27.344867036 XXXX 1      oap1    O  -0.800
O273    35.695257348    4.201375462   27.325026033 XXXX 1      oap1    O  -0.800
O337    12.226848632    1.847982932   26.007442023 XXXX 1      oap1    O  -0.800
O353    21.702555628    1.875241800   26.136425408 XXXX 1      oap1    O  -0.800
O369    31.298640109    1.782600580   25.987998126 XXXX 1      oap1    O  -0.800
O385    16.636595691    1.637377210   27.877888679 XXXX 1      oap1    O  -0.800
O401    25.954911999    1.871585658   27.584951086 XXXX 1      oap1    O  -0.800
O417    35.236049117    1.831063401   27.592180935 XXXX 1      oap1    O  -0.800
O433    10.167465824    5.319306585   28.269313409 XXXX 1      oap1    O  -0.800
O449    19.593181279    5.264404653   28.406984542 XXXX 1      oap1    O  -0.800
O465    28.941873843    5.282601168   28.361576717 XXXX 1      oap1    O  -0.800
Ca1     14.066284831    8.148749446   28.181261662 XXXX 1      ca+h    Ca  1.500
Ca17    23.465799780    8.385061831   28.124342260 XXXX 1      ca+h    Ca  1.500
Ca33    32.649805270    8.231215719   28.119377899 XXXX 1      ca+h    Ca  1.500
Ca145   13.987225637    4.855399240   28.034177218 XXXX 1      ca+h    Ca  1.500
Ca161   23.533607424    4.923552091   28.007650828 XXXX 1      ca+h    Ca  1.500
Ca177   32.782601473    4.952875361   28.239664899 XXXX 1      ca+h    Ca  1.500
Ca193    8.142325893    6.577875465   27.198844790 XXXX 1      ca+h    Ca  1.500
Ca209   17.662074264    6.550136846   27.411782060 XXXX 1      ca+h    Ca  1.500
Ca225   26.857170924    6.429394742   27.483798502 XXXX 1      ca+h    Ca  1.500
P1      10.988048971    6.573978613   28.529231832 XXXX 1      pap     P   1.000
P17     20.396552830    6.604036762   28.638989569 XXXX 1      pap     P   1.000
P33     29.720084240    6.545415816   28.730698681 XXXX 1      pap     P   1.000
O577    11.205591938    6.603030820   30.074579527 XXXX 1      oap1    O  -0.800
O593    20.597275448    6.633469088   30.198051739 XXXX 1      oap1    O  -0.800
O609    29.960350714    6.598034125   30.236283331 XXXX 1      oap1    O  -0.800
O625    12.318597339    6.605878086   27.767175951 XXXX 1      oap1    O  -0.800
O641    21.718801095    6.643124398   27.910462457 XXXX 1      oap1    O  -0.800
O657    30.994767956    6.579291290   27.899458255 XXXX 1      oap1    O  -0.800
Ca385   10.524929563    3.129780338   27.280576262 XXXX 1      ca+h    Ca  1.500
Ca401   19.826213981    3.170913718   27.371975826 XXXX 1      ca+h    Ca  1.500
Ca417   29.247510748    3.202306180   27.291521018 XXXX 1      ca+h    Ca  1.500
P193    13.043065874    3.068868715   25.614409136 XXXX 1      pap     P   1.000
P209    22.329529514    3.138812063   25.581429987 XXXX 1      pap     P   1.000
P225    31.848548271    3.106229248   25.546139348 XXXX 1      pap     P   1.000
O961    14.346236361    3.115150373   26.404934607 XXXX 1      oap1    O  -0.800
O977    23.697063020    3.305597830   26.246724840 XXXX 1      oap1    O  -0.800
O993    33.101017911    3.379264659   26.421375787 XXXX 1      oap1    O  -0.800
O1009   13.319420476    3.150862386   24.081422212 XXXX 1      oap1    O  -0.800
O1025   22.582401771    3.063026791   24.072891473 XXXX 1      oap1    O  -0.800
O1041   32.233707539    3.154743697   24.051446737 XXXX 1      oap1    O  -0.800
Ca433   16.440223147    3.016676273   25.294938162 XXXX 1      ca+h    Ca  1.500
Ca449   25.827630061    3.176738803   25.232639530 XXXX 1      ca+h    Ca  1.500
Ca465   35.163225440    3.214729274   25.175739990 XXXX 1      ca+h    Ca  1.500
P241    16.762042268    3.102225299   28.461504889 XXXX 1      pap     P   1.000
P257    26.040657579    3.190075016   28.425157987 XXXX 1      pap     P   1.000
P273    35.547331910    3.129399007   28.390015097 XXXX 1      pap     P   1.000
O1057   15.353563107    3.375154909   29.101927795 XXXX 1      oap1    O  -0.800
O1073   24.844964086    3.269023767   29.290598410 XXXX 1      oap1    O  -0.800
O1089   34.292830328    3.468235205   29.261281838 XXXX 1      oap1    O  -0.800
O1105   17.833942607    3.022158955   29.653619285 XXXX 1      oap1    O  -0.800
O1121   27.350313608    3.229752538   29.252183744 XXXX 1      oap1    O  -0.800
O1137   36.795755157    3.035057712   29.230012549 XXXX 1      oap1    O  -0.800
O1153    9.437397248    5.814020432   25.275429384 XXXX 1      oap2    O  -1.100
O1169   18.730958634    5.808917185   25.348757759 XXXX 1      oap2    O  -1.100
O1185   28.146673524    5.572797851   25.474259859 XXXX 1      oap2    O  -1.100
O1201    9.320374570    2.351887996   25.327622043 XXXX 1      oap2    O  -1.100
O1217   18.786511911    2.302221423   25.396384648 XXXX 1      oap2    O  -1.100
O1233   28.150981062    2.370217971   25.386663813 XXXX 1      oap2    O  -1.100
H1       8.857209519    5.101885942   25.178379630 XXXX 1      hop     H   0.200
H17     18.173383033    5.037154232   25.087845238 XXXX 1      hop     H   0.200
H33     27.995980632    4.717627288   25.112588234 XXXX 1      hop     H   0.200
H49      9.330770887    1.462929135   25.065154101 XXXX 1      hop     H   0.200
H65     18.454422769    1.408036950   25.256462844 XXXX 1      hop     H   0.200
H81     28.249215306    1.428213826   25.385808660 XXXX 1      hop     H   0.200
end
O5      24.371185504   35.196726800    3.900419879 XXXX 1      oap1    O  -0.800
O6      24.518931890   28.220568983    3.554998102 XXXX 1      oap1    O  -0.800
O7      24.608917986   21.259510260    3.844271449 XXXX 1      oap1    O  -0.800
O8      24.648130188   14.828654283    3.826272072 XXXX 1      oap1    O  -0.800
O9      19.719425467   35.249206596   11.793698375 XXXX 1      oap1    O  -0.800
O10     19.567240995   28.417323000   11.707627520 XXXX 1      oap1    O  -0.800
O11     19.754213718   21.639187319   12.021503793 XXXX 1      oap1    O  -0.800
O12     19.590844792   14.587126678   11.781578401 XXXX 1      oap1    O  -0.800
O13     14.975813485   35.392757370   19.744129870 XXXX 1      oap1    O  -0.800
O14     14.948180327   28.467109726   19.769608101 XXXX 1      oap1    O  -0.800
O15     14.910520865   21.508936683   19.944838250 XXXX 1      oap1    O  -0.800
O16     14.768188655   14.746422159   20.077295295 XXXX 1      oap1    O  -0.800
O21     33.960028119   35.070452026    3.407732309 XXXX 1      oap1    O  -0.800
O22     34.053158710   28.459464981    3.902440632 XXXX 1      oap1    O  -0.800
O23     33.989731970   21.344193572    3.631677403 XXXX 1      oap1    O  -0.800
O24     34.048024881   14.566659054    3.739186567 XXXX 1      oap1    O  -0.800
O25     29.141300902   35.022435378   11.467932070 XXXX 1      oap1    O  -0.800
O26     29.339384886   28.299159084   11.744687156 XXXX 1      oap1    O  -0.800
O27     29.231370218   21.441669218   11.688590708 XXXX 1      oap1    O  -0.800
O28     29.077915404   14.650375477   11.811379759 XXXX 1      oap1    O  -0.800
O29     24.256573010   35.222859033   19.961651110 XXXX 1      oap1    O  -0.800
O30     24.129374892   28.297862840   20.011846938 XXXX 1      oap1    O  -0.800
O31     24.416586638   21.405150031   19.923306072 XXXX 1      oap1    O  -0.800
O32     24.322430742   14.704056746   20.015157751 XXXX 1      oap1    O  -0.800
O45     33.623656049   35.131098274   20.023237391 XXXX 1      oap1    O  -0.800
O46     33.904389637   28.413840215   20.089798794 XXXX 1      oap1    O  -0.800
O47     33.870299793   21.533536644   20.027023818 XXXX 1      oap1    O  -0.800
O48     33.750199797   14.658236880   20.111129469 XXXX 1      oap1    O  -0.800
O53     25.479917670   35.212193769    8.406500108 XXXX 1      oap1    O  -0.800
O54     25.383329678   28.256900866    8.340383185 XXXX 1      oap1    O  -0.800
O55     25.721066801   21.433941326    8.546238545 XXXX 1      oap1    O  -0.800
O56     25.506584609   14.599519407    8.416906494 XXXX 1      oap1    O  -0.800
O57     20.812647418   35.217315698   16.645854947 XXXX 1      oap1    O  -0.800
O58     20.713545609   28.274655911   16.420853451 XXXX 1      oap1    O  -0.800
O59     20.555720856   21.545850048   16.409385753 XXXX 1      oap1    O  -0.800
O60     20.608722100   14.721379816   16.387037180 XXXX 1      oap1    O  -0.800
O61     15.818884695   35.258155021   24.441838487 XXXX 1      oap1    O  -0.800
O62     15.994431202   28.482564767   24.619547513 XXXX 1      oap1    O  -0.800
O63     16.091618504   21.418938403   24.631707024 XXXX 1      oap1    O  -0.800
O64     16.029951381   14.579137987   24.476329072 XXXX 1      oap1    O  -0.800
O69     34.789786132   35.246863004    8.296615921 XXXX 1      oap1    O  -0.800
O70     34.894489631   28.271374150    8.389466747 XXXX 1      oap1    O  -0.800
O71     34.924625696   21.450428826    8.548122430 XXXX 1      oap1    O  -0.800
O72     34.890107992   14.489735942    8.518768584 XXXX 1      oap1    O  -0.800
O73     30.159876950   35.268641139   16.634364341 XXXX 1      oap1    O  -0.800
O74     30.184169392   28.323297120   16.619810021 XXXX 1      oap1    O  -0.800
O75     30.395222535   21.383275102   16.597451911 XXXX 1      oap1    O  -0.800
O76     30.236311630   14.521540133   16.529615839 XXXX 1      oap1    O  -0.800
O77     25.439070392   35.307918662   24.623236247 XXXX 1      oap1    O  -0.800
O78     25.539240612   28.456244578   24.530679021 XXXX 1      oap1    O  -0.800
O79     25.400532342   21.538670795   24.706016372 XXXX 1      oap1    O  -0.800
O80     25.106558463   14.984925718   24.611624995 XXXX 1      oap1    O  -0.800
O93     35.015058534   35.213775490   24.698805065 XXXX 1      oap1    O  -0.800
O94     35.024072685   28.305132459   24.907608852 XXXX 1      oap1    O  -0.800
O95     34.765481739   21.494940450   24.879427513 XXXX 1      oap1    O  -0.800
O96     34.678806205   14.652531505   24.716955847 XXXX 1      oap1    O  -0.800
O101    20.936537939   35.381221411    6.736526772 XXXX 1      oap1    O  -0.800
O102    20.569127188   28.408527136    6.850403991 XXXX 1      oap1    O  -0.800
O103    21.024034914   21.462046175    6.856337108 XXXX 1      oap1    O  -0.800
O104    20.598470280   14.518995761    6.653486553 XXXX 1      oap1    O  -0.800
O105    16.436049017   35.380126289   14.940519140 XXXX 1      oap1    O  -0.800
O106    16.176685414   28.449071787   15.015593271 XXXX 1      oap1    O  -0.800
O107    16.039666444   21.505147807   15.224347590 XXXX 1      oap1    O  -0.800
O108    16.231161372   14.785457355   15.124851186 XXXX 1      oap1    O  -0.800
O109    11.367440756   35.394196541   23.072000539 XXXX 1      oap1    O  -0.800
O110    11.391365322   28.424442374   23.332311937 XXXX 1      oap1    O  -0.800
O111    11.504745011   21.563372199   23.125308708 XXXX 1      oap1    O  -0.800
O112    11.326488349   14.601059745   23.333566768 XXXX 1      oap1    O  -0.800
O117    30.392254222   35.203396522    6.918253491 XXXX 1      oap1    O  -0.800
O118    30.214137881   28.366965341    6.773307164 XXXX 1      oap1    O  -0.800
O119    30.475433375   21.505745198    6.644049773 XXXX 1      oap1    O  -0.800
O120    30.123696532   14.510081469    6.835883201 XXXX 1      oap1    O  -0.800
O121    25.713393563   35.162240292   15.169102714 XXXX 1      oap1    O  -0.800
O122    25.606608757   28.329815699   15.116722173 XXXX 1      oap1    O  -0.800
O123    25.744306569   21.530078435   15.091150352 XXXX 1      oap1    O  -0.800
O124    25.464251646   14.540254730   15.225094768 XXXX 1      oap1    O  -0.800
O125    20.780983872   35.310850113   23.115284454 XXXX 1      oap1    O  -0.800
O126    20.854501161   28.342387529   23.235795273 XXXX 1      oap1    O  -0.800
O127    20.674924847   21.562693507   23.303695125 XXXX 1      oap1    O  -0.800
O128    20.648503796   14.619390050   23.234924484 XXXX 1      oap1    O  -0.800
O137    35.098615318   35.231348179   15.189173867 XXXX 1      oap1    O  -0.800
O138    35.008669898   28.261772642   15.303214881 XXXX 1      oap1    O  -0.800
O139    34.880471258   21.386507607   15.201146898 XXXX 1      oap1    O  -0.800
O140    34.943794045   14.497682320   15.247506477 XXXX 1      oap1    O  -0.800
O141    30.220440511   35.214429805   23.280887516 XXXX 1      oap1    O  -0.800
O142    30.489722256   28.436509005   23.203378361 XXXX 1      oap1    O  -0.800
O143    30.252930917   21.393512800   23.358774483 XXXX 1      oap1    O  -0.800
O144    30.062656745   14.418385341   23.361309765 XXXX 1      oap1    O  -0.800
O149    27.466807939   31.704263263    6.244496934 XXXX 1      oap1    O  -0.800
O150    27.619302013   24.746448897    6.164199629 XXXX 1      oap1    O  -0.800
O151    27.701318594   17.968210403    6.071223346 XXXX 1      oap1    O  -0.800
O152    27.526989880   11.224408586    6.342398379 XXXX 1      oap1    O  -0.800
O153    22.702138718   31.797442611   14.305890483 XXXX 1      oap1    O  -0.800
O154    22.747272694   24.885918274   14.262408723 XXXX 1      oap1    O  -0.800
O155    22.678617677   18.092421996   14.560129284 XXXX 1      oap1    O  -0.800
O156    22.857467230   11.186257733   14.354960240 XXXX 1      oap1    O  -0.800
O157    18.146208077   31.841625558   22.585729063 XXXX 1      oap1    O  -0.800
O158    18.110847290   24.927681155   22.568601772 XXXX 1      oap1    O  -0.800
O159    18.097779890   18.193512857   22.503359090 XXXX 1      oap1    O  -0.800
O160    17.928596105   11.302714949   22.503397728 XXXX 1      oap1    O  -0.800
O165    36.958196575   31.732947054    6.353876331 XXXX 1      oap1    O  -0.800
O166    36.940125772   24.812878832    6.139097539 XXXX 1      oap1    O  -0.800
O167    36.907828648   17.928699530    6.418805449 XXXX 1      oap1    O  -0.800
O168    36.879244253   11.035812946    6.304993018 XXXX 1      oap1    O  -0.800
O169    32.024135107   31.916990681   14.342643470 XXXX 1      oap1    O  -0.800
O170    32.225209157   24.964342506   14.370402105 XXXX 1      oap1    O  -0.800
O171    32.088500127   17.888697974   14.825709236 XXXX 1      oap1    O  -0.800
O172    32.146922707   11.228022930   14.157839843 XXXX 1      oap1    O  -0.800
O173    27.444263023   31.829229701   22.357504179 XXXX 1      oap1    O  -0.800
O174    27.542201455   24.983683370   22.687271769 XXXX 1      oap1    O  -0.800
O175    27.509268530   18.173404772   22.602173825 XXXX 1      oap1    O  -0.800
O176    27.267080774   11.214894764   22.626959058 XXXX 1      oap1    O  -0.800
O189    36.992894905   31.698013641   22.671122306 XXXX 1      oap1    O  -0.800
O190    36.853119567   24.943935248   22.628648651 XXXX 1      oap1    O  -0.800
O191    36.750256101   18.072845902   22.345112365 XXXX 1      oap1    O  -0.800
O192    36.827939335   11.234084503   22.457377459 XXXX 1      oap1    O  -0.800
O197    26.295946167   29.372758414    0.828182705 XXXX 1      oap1    O  -0.800
O198    26.171680650   25.190611698    1.924293861 XXXX 1      oap1    O  -0.800
O199    28.447619015   16.526572455    2.092647752 XXXX 1      oap1    O  -0.800
O200    26.576441467   11.522520144    1.757710561 XXXX 1      oap1    O  -0.800
O201    21.418125764   31.903493733    9.610844224 XXXX 1      oap1    O  -0.800
O202    21.746345063   24.989528014    9.647362137 XXXX 1      oap1    O  -0.800
O203    21.511843216   17.980922018    9.677179806 XXXX 1      oap1    O  -0.800
O204    21.750683079   11.098922387    9.775215299 XXXX 1      oap1    O  -0.800
O205    17.131001635   31.952885524   18.000121729 XXXX 1      oap1    O  -0.800
O206    16.960356224   24.937257886   17.931293854 XXXX 1      oap1    O  -0.800
O207    16.903342231   18.064257809   17.872999625 XXXX 1      oap1    O  -0.800
O208    16.728074551   11.121650014   17.820496091 XXXX 1      oap1    O  -0.800
O213    37.540203871   30.092235045    2.109972997 XXXX 1      oap1    O  -0.800
O214    35.969579935   25.299491438    1.793833197 XXXX 1      oap1    O  -0.800
O215    37.624820647   16.513767852    2.536289812 XXXX 1      oap1    O  -0.800
O216    35.577599453   11.525484706    2.017572509 XXXX 1      oap1    O  -0.800
O217    30.929168790   31.718342542    9.610842564 XXXX 1      oap1    O  -0.800
O218    31.068787293   24.801085541    9.632197187 XXXX 1      oap1    O  -0.800
O219    31.219080834   18.104266518    9.810972191 XXXX 1      oap1    O  -0.800
O220    31.347614923   11.262335004    9.657695434 XXXX 1      oap1    O  -0.800
O221    26.342136447   31.831486955   17.824227281 XXXX 1      oap1    O  -0.800
O222    26.319585410   24.960346918   17.981661208 XXXX 1      oap1    O  -0.800
O223    26.206175171   18.007184237   17.879906237 XXXX 1      oap1    O  -0.800
O224    26.366373493   11.194245389   17.902241650 XXXX 1      oap1    O  -0.800
O237    35.813366749   31.868749195   17.982914837 XXXX 1      oap1    O  -0.800
O238    35.729776968   24.772017005   17.849764676 XXXX 1      oap1    O  -0.800
O239    35.830890450   17.842358400   17.954666022 XXXX 1      oap1    O  -0.800
O240    35.764207620   11.055643545   17.960282418 XXXX 1      oap1    O  -0.800
O245    30.634486771   31.658737213    3.082533651 XXXX 1      oap1    O  -0.800
O246    31.194391884   24.763602708    2.768586704 XXXX 1      oap1    O  -0.800
O247    30.805600385   18.044467245    3.070275293 XXXX 1      oap1    O  -0.800
O248    31.147072721   10.933090680    2.921005169 XXXX 1      oap1    O  -0.800
O249    26.467991493   31.606307272   11.067948902 XXXX 1      oap1    O  -0.800
O250    26.417782311   24.907717696   11.130335050 XXXX 1      oap1    O  -0.800
O251    26.252558428   18.114911006   11.344217245 XXXX 1      oap1    O  -0.800
O252    26.056388447   11.138987435   11.034562024 XXXX 1      oap1    O  -0.800
O253    21.527842550   31.771606281   19.192181346 XXXX 1      oap1    O  -0.800
O254    21.459895118   24.970246395   19.320843043 XXXX 1      oap1    O  -0.800
O255    21.553820681   18.081788876   19.210258056 XXXX 1      oap1    O  -0.800
O256    21.595822992   11.253747903   19.174792248 XXXX 1      oap1    O  -0.800
O265    35.585181902   31.839712108   11.336410729 XXXX 1      oap1    O  -0.800
O266    35.637848940   24.916708727   11.122744277 XXXX 1      oap1    O  -0.800
O267    35.717009617   17.959422355   11.224524916 XXXX 1      oap1    O  -0.800
O268    35.784301208   11.206646123   11.081613744 XXXX 1      oap1    O  -0.800
O269    30.893199636   31.737207087   19.174364227 XXXX 1      oap1    O  -0.800
O270    31.313542155   24.808533326   19.198532364 XXXX 1      oap1    O  -0.800
O271    30.978931138   18.075881996   19.406360919 XXXX 1      oap1    O  -0.800
O272    30.760206967   11.239077498   19.498339929 XXXX 1      oap1    O  -0.800
O293    27.261829622   29.271937768    6.225987390 XXXX 1      oap1    O  -0.800
O294    27.549314029   22.253699339    6.131814291 XXXX 1      oap1    O  -0.800
O295    27.515131056   15.569171325    6.198684596 XXXX 1      oap1    O  -0.800
O296    27.535666577    8.770968902    5.960179413 XXXX 1      oap1    O  -0.800
O297    22.746601798   29.307579854   14.147810720 XXXX 1      oap1    O  -0.800
O298    22.700820191   22.444483016   14.397859906 XXXX 1      oap1    O  -0.800
O299    22.801622764   15.653674178   14.401450090 XXXX 1      oap1    O  -0.800
O300    22.782783994    8.720829402   14.461669636 XXXX 1      oap1    O  -0.800
O301    17.884099116   29.391433933   22.742189255 XXXX 1      oap1    O  -0.800
O302    17.890541831   22.453291867   22.526915270 XXXX 1      oap1    O  -0.800
O303    18.057545885   15.656048317   22.387804140 XXXX 1      oap1    O  -0.800
O304    18.136801582    8.858108019   22.484604732 XXXX 1      oap1    O  -0.800
O309    36.777489458   29.317659097    6.384451064 XXXX 1      oap1    O  -0.800
O310    36.958922650   22.328696484    6.345666718 XXXX 1      oap1    O  -0.800
O311    36.783915170   15.451388519    6.526114752 XXXX 1      oap1    O  -0.800
O312    36.861072518    8.609322664    6.158345564 XXXX 1      oap1    O  -0.800
O313    32.125327291   29.403556912   14.484740337 XXXX 1      oap1    O  -0.800
O314    32.157359115   22.457588241   14.260009970 XXXX 1      oap1    O  -0.800
O315    32.116060091   15.516407034   14.328863541 XXXX 1      oap1    O  -0.800
O316    32.119275850    8.757778595   14.379195860 XXXX 1      oap1    O  -0.800
O317    27.536723480   29.397058255   22.473287015 XXXX 1      oap1    O  -0.800
O318    27.562471162   22.465338204   22.523823645 XXXX 1      oap1    O  -0.800
O319    27.471595163   15.679640706   22.693370571 XXXX 1      oap1    O  -0.800
O320    27.351923014    8.762306887   22.330729454 XXXX 1      oap1    O  -0.800
O333    36.922530579   29.237254501   22.213922063 XXXX 1      oap1    O  -0.800
O334    36.862246282   22.457357726   22.300477043 XXXX 1      oap1    O  -0.800
O335    36.844202213   15.580278329   22.483926660 XXXX 1      oap1    O  -0.800
O336    36.632113868    8.771726132   22.843269298 XXXX 1      oap1    O  -0.800
O341    28.203689335   28.074683675    1.683062512 XXXX 1      oap1    O  -0.800
O342    25.613246907   22.949107920    1.071071786 XXXX 1      oap1    O  -0.800
O343    27.086105463   15.139715382    0.461960647 XXXX 1      oap1    O  -0.800
O344    25.701970891    9.199725311    1.218911130 XXXX 1      oap1    O  -0.800
O345    21.638979865   29.458842653    9.824495874 XXXX 1      oap1    O  -0.800
O346    21.801035290   22.429523589    9.679776223 XXXX 1      oap1    O  -0.800
O347    21.878072663   15.517953451    9.720515201 XXXX 1      oap1    O  -0.800
O348    21.749789621    8.644377410    9.887591255 XXXX 1      oap1    O  -0.800
O349    16.958941361   29.473959360   17.870781360 XXXX 1      oap1    O  -0.800
O350    17.196514075   22.461154678   17.968443643 XXXX 1      oap1    O  -0.800
O351    17.047382093   15.600735311   17.859431843 XXXX 1      oap1    O  -0.800
O352    16.965945477    8.763642960   17.915809123 XXXX 1      oap1    O  -0.800
O357    36.172994931   28.730466804    0.540843516 XXXX 1      oap1    O  -0.800
O358    34.973172956   23.122346194    1.075497508 XXXX 1      oap1    O  -0.800
O359    35.735676753   15.490065856    1.210480680 XXXX 1      oap1    O  -0.800
O360    35.012264719    9.512872565    0.894400374 XXXX 1      oap1    O  -0.800
O361    31.297078364   29.355364199    9.736663067 XXXX 1      oap1    O  -0.800
O362    31.272123886   22.335819719   10.007931018 XXXX 1      oap1    O  -0.800
O363    31.104977629   15.657483261    9.809360189 XXXX 1      oap1    O  -0.800
O364    31.075758739    8.790441005    9.814787270 XXXX 1      oap1    O  -0.800
O365    26.258479096   29.424312464   17.923423899 XXXX 1      oap1    O  -0.800
O366    26.515360068   22.434757232   18.070268727 XXXX 1      oap1    O  -0.800
O367    26.672428772   15.561887429   18.040276428 XXXX 1      oap1    O  -0.800
O368    26.345330769    8.781765831   17.956987368 XXXX 1      oap1    O  -0.800
O381    35.656563131   29.414342982   17.801383359 XXXX 1      oap1    O  -0.800
O382    35.987898957   22.298699249   17.813408872 XXXX 1      oap1    O  -0.800
O383    35.962713286   15.452692511   17.957314509 XXXX 1      oap1    O  -0.800
O384    35.882469591    8.512356021   17.927325017 XXXX 1      oap1    O  -0.800
O389    30.683236174   29.092503616    3.192018659 XXXX 1      oap1    O  -0.800
O390    31.186321621   22.188286792    3.136136688 XXXX 1      oap1    O  -0.800
O391    31.255841817   15.596628793    2.945848812 XXXX 1      oap1    O  -0.800
O392    31.205928632    8.483659104    3.105394977 XXXX 1      oap1    O  -0.800
O393    26.107944088   29.139865331   11.228532546 XXXX 1      oap1    O  -0.800
O394    26.307976420   22.429541659   11.204968636 XXXX 1      oap1    O  -0.800
O395    26.273067734   15.728654288   11.215864473 XXXX 1      oap1    O  -0.800
O396    26.186354076    8.671757431   11.053497800 XXXX 1      oap1    O  -0.800
O397    21.661774483   29.316513310   19.337001051 XXXX 1      oap1    O  -0.800
O398    21.617497639   22.549958212   19.172431383 XXXX 1      oap1    O  -0.800
O399    21.543987863   15.607393623   19.350658086 XXXX 1      oap1    O  -0.800
O400    21.261204512    8.727839662   19.261996501 XXXX 1      oap1    O  -0.800
O409    35.576129486   29.362994022   11.164005738 XXXX 1      oap1    O  -0.800
O410    35.821790318   22.512126693   11.015580177 XXXX 1      oap1    O  -0.800
O411    35.455439157   15.501020605   11.468842378 XXXX 1      oap1    O  -0.800
O412    35.773556648    8.811945075   11.192265024 XXXX 1      oap1    O  -0.800
O413    30.799231652   29.257698611   19.400241339 XXXX 1      oap1    O  -0.800
O414    30.908428179   22.448119287   19.451800447 XXXX 1      oap1    O  -0.800
O415    31.012813544   15.647041804   19.353541363 XXXX 1      oap1    O  -0.800
O416    31.024829696    8.868306761   19.349359053 XXXX 1      oap1    O  -0.800
O437    24.540980639   32.694525588    3.647154403 XXXX 1      oap1    O  -0.800
O438    24.277096260   25.744569288    3.851054383 XXXX 1      oap1    O  -0.800
O439    24.772990965   18.844302232    3.449398146 XXXX 1      oap1    O  -0.800
O440    24.362574950   12.359504654    3.433374757 XXXX 1      oap1    O  -0.800
O441    19.796424732   32.777529669   12.009563715 XXXX 1      oap1    O  -0.800
O442    19.540516160   25.854463170   11.941065767 XXXX 1      oap1    O  -0.800
O443    19.576010139   19.053084365   12.052034173 XXXX 1      oap1    O  -0.800
O444    19.517094843   12.083085425   12.089599068 XXXX 1      oap1    O  -0.800
O445    14.951325314   32.895763183   19.898014052 XXXX 1      oap1    O  -0.800
O446    14.858392733   25.879024122   20.147298326 XXXX 1      oap1    O  -0.800
O447    14.980616714   19.073143054   20.104892606 XXXX 1      oap1    O  -0.800
O448    14.844031999   12.251401903   20.088861516 XXXX 1      oap1    O  -0.800
O453    33.933763893   32.525652446    3.641409224 XXXX 1      oap1    O  -0.800
O454    33.863774989   26.028095511    3.640108966 XXXX 1      oap1    O  -0.800
O455    34.089889994   18.945726323    3.809599847 XXXX 1      oap1    O  -0.800
O456    33.656737136   12.186686932    3.872884957 XXXX 1      oap1    O  -0.800
O457    29.164240210   32.618219323   12.094069918 XXXX 1      oap1    O  -0.800
O458    29.202314760   25.919266665   12.100725338 XXXX 1      oap1    O  -0.800
O459    29.209932084   18.937716589   12.175183614 XXXX 1      oap1    O  -0.800
O460    29.024295073   12.205734081   11.872925544 XXXX 1      oap1    O  -0.800
O461    24.472052954   32.756823429   20.015812979 XXXX 1      oap1    O  -0.800
O462    24.451778663   25.839400631   20.120728451 XXXX 1      oap1    O  -0.800
O463    24.202137051   18.993468264   20.241375279 XXXX 1      oap1    O  -0.800
O464    24.232512742   12.282403683   20.045109527 XXXX 1      oap1    O  -0.800
O477    33.860906178   32.705782179   19.968829300 XXXX 1      oap1    O  -0.800
O478    33.965270282   25.852797157   20.176819986 XXXX 1      oap1    O  -0.800
O479    33.752696054   19.070626076   20.207340019 XXXX 1      oap1    O  -0.800
O480    33.662857930   12.176211775   20.288316403 XXXX 1      oap1    O  -0.800
O485    25.312978252   32.710328207    8.370845226 XXXX 1      oap1    O  -0.800
O486    25.300300791   25.828032066    8.471573870 XXXX 1      oap1    O  -0.800
O487    25.353729328   19.040814450    8.249440728 XXXX 1      oap1    O  -0.800
O488    25.310432582   12.158436929    8.266234162 XXXX 1      oap1    O  -0.800
O489    20.760118749   32.710646439   16.483447712 XXXX 1      oap1    O  -0.800
O490    20.659817452   25.920711040   16.360451806 XXXX 1      oap1    O  -0.800
O491    20.601257014   19.090800465   16.492297873 XXXX 1      oap1    O  -0.800
O492    20.904344790   12.344573539   16.553015762 XXXX 1      oap1    O  -0.800
O493    15.950104093   32.840454517   24.517684265 XXXX 1      oap1    O  -0.800
O494    16.002071994   26.037569338   24.464467992 XXXX 1      oap1    O  -0.800
O495    15.948928127   18.924828907   24.534006956 XXXX 1      oap1    O  -0.800
O496    15.927653196   12.119089341   24.624445904 XXXX 1      oap1    O  -0.800
O501    34.987711081   32.874648979    8.236270591 XXXX 1      oap1    O  -0.800
O502    34.755826984   25.782546632    8.209648776 XXXX 1      oap1    O  -0.800
O503    34.938420753   18.995632624    8.375954838 XXXX 1      oap1    O  -0.800
O504    34.718259183   12.062320458    8.446305233 XXXX 1      oap1    O  -0.800
O505    29.973697548   32.713834339   16.367032378 XXXX 1      oap1    O  -0.800
O506    29.972310738   25.912432597   16.407087495 XXXX 1      oap1    O  -0.800
O507    29.867777151   19.023479419   16.396845403 XXXX 1      oap1    O  -0.800
O508    29.983962228   12.145015145   16.400476016 XXXX 1      oap1    O  -0.800
O509    25.327474084   32.833348709   24.439231336 XXXX 1      oap1    O  -0.800
O510    25.381785546   25.929120778   24.649282309 XXXX 1      oap1    O  -0.800
O511    25.448649034   19.115162024   24.646370544 XXXX 1      oap1    O  -0.800
O512    25.420977438   12.437900773   24.578259702 XXXX 1      oap1    O  -0.800
O525    34.746511603   32.802560871   24.388976808 XXXX 1      oap1    O  -0.800
O526    34.797096164   25.877962578   24.597096579 XXXX 1      oap1    O  -0.800
O527    34.969141151   19.103361502   24.870139624 XXXX 1      oap1    O  -0.800
O528    34.629606429   12.209349312   24.655701302 XXXX 1      oap1    O  -0.800
O533    20.961171357   32.928274564    6.864642087 XXXX 1      oap1    O  -0.800
O534    20.812256441   25.884119810    6.744755941 XXXX 1      oap1    O  -0.800
O535    21.031228427   19.024896717    6.810458221 XXXX 1      oap1    O  -0.800
O536    21.023309465   12.121249327    6.877198537 XXXX 1      oap1    O  -0.800
O537    15.981047670   32.909771475   15.117079343 XXXX 1      oap1    O  -0.800
O538    16.008136100   25.995069621   14.995566205 XXXX 1      oap1    O  -0.800
O539    16.131301670   19.090604076   15.105503218 XXXX 1      oap1    O  -0.800
O540    16.108226137   12.316377625   15.192618323 XXXX 1      oap1    O  -0.800
O541    11.604975558   32.915345596   23.245547025 XXXX 1      oap1    O  -0.800
O542    11.306981428   25.993190791   23.225542323 XXXX 1      oap1    O  -0.800
O543    11.627711597   19.093156372   23.113670989 XXXX 1      oap1    O  -0.800
O544    11.444289002   12.237657881   23.212100440 XXXX 1      oap1    O  -0.800
O549    30.533290953   32.779321676    6.829340713 XXXX 1      oap1    O  -0.800
O550    30.409352765   25.948161572    6.959608003 XXXX 1      oap1    O  -0.800
O551    30.351329641   19.009049117    6.841623288 XXXX 1      oap1    O  -0.800
O552    30.528304472   11.990676619    6.874998402 XXXX 1      oap1    O  -0.800
O553    25.510532711   32.713689801   14.949639081 XXXX 1      oap1    O  -0.800
O554    25.732794715   25.862210742   15.029744505 XXXX 1      oap1    O  -0.800
O555    25.403974329   19.041780782   15.100940248 XXXX 1      oap1    O  -0.800
O556    25.799847056   12.074833979   14.833950663 XXXX 1      oap1    O  -0.800
O557    20.723499100   32.963246615   23.220625455 XXXX 1      oap1    O  -0.800
O558    20.956507206   25.875026113   23.080877467 XXXX 1      oap1    O  -0.800
O559    20.966959863   19.089144177   23.198076930 XXXX 1      oap1    O  -0.800
O560    20.999045783   12.141925267   23.069091887 XXXX 1      oap1    O  -0.800
O569    35.157825786   32.707283966   14.978762311 XXXX 1      oap1    O  -0.800
O570    35.343414383   25.804741950   14.837541826 XXXX 1      oap1    O  -0.800
O571    35.105685119   18.948406657   15.124914550 XXXX 1      oap1    O  -0.800
O572    35.136920504   12.093309272   15.165233593 XXXX 1      oap1    O  -0.800
O573    30.321910499   32.697018082   23.233647755 XXXX 1      oap1    O  -0.800
O574    30.240317264   25.955369760   23.280959583 XXXX 1      oap1    O  -0.800
O575    30.504911043   18.990723813   23.209697416 XXXX 1      oap1    O  -0.800
O576    30.403302728   12.021362265   23.123243871 XXXX 1      oap1    O  -0.800
Ca5     28.316586768   35.810859137    3.841123648 XXXX 1      ca+h    Ca  1.500
Ca6     28.169362264   28.744554427    4.086775938 XXXX 1      ca+h    Ca  1.500
Ca7     28.299385355   21.989101381    3.681460966 XXXX 1      ca+h    Ca  1.500
Ca8     28.276836200   14.971574478    3.957765643 XXXX 1      ca+h    Ca  1.500
Ca9     23.602355003   35.732952577   11.734947505 XXXX 1      ca+h    Ca  1.500
Ca10    23.509037304   28.871602350   11.760593936 XXXX 1      ca+h    Ca  1.500
Ca11    23.464122671   21.895303822   11.455279248 XXXX 1      ca+h    Ca  1.500
Ca12    23.499029034   15.190076488   11.884223141 XXXX 1      ca+h    Ca  1.500
Ca13    18.793648792   35.881655313   19.975889219 XXXX 1      ca+h    Ca  1.500
Ca14    18.667691506   28.930964583   19.851476766 XXXX 1      ca+h    Ca  1.500
Ca15    18.834396432   22.093180225   19.906074110 XXXX 1      ca+h    Ca  1.500
Ca16    18.890741047   15.162944063   19.895092355 XXXX 1      ca+h    Ca  1.500
Ca25    32.905527032   35.747302458   11.708293182 XXXX 1      ca+h    Ca  1.500
Ca26    33.044646039   28.830775934   11.883612803 XXXX 1      ca+h    Ca  1.500
Ca27    32.924651289   21.990754754   11.736218027 XXXX 1      ca+h    Ca  1.500
Ca28    33.056753215   15.125573111   11.897536031 XXXX 1      ca+h    Ca  1.500
Ca29    28.374539088   35.751391070   19.873208222 XXXX 1      ca+h    Ca  1.500
Ca30    28.346858325   28.875902961   19.793137139 XXXX 1      ca+h    Ca  1.500
Ca31    28.130340331   21.914353110   19.983274824 XXXX 1      ca+h    Ca  1.500
Ca32    28.218570140   15.176112804   19.875980909 XXXX 1      ca+h    Ca  1.500
Ca53    23.394905266   32.243370584    6.310813323 XXXX 1      ca+h    Ca  1.500
Ca54    23.523164456   25.319422025    6.325555178 XXXX 1      ca+h    Ca  1.500
Ca55    23.622477609   18.497250144    6.422544997 XXXX 1      ca+h    Ca  1.500
Ca56    23.549100369   11.704119669    6.444073291 XXXX 1      ca+h    Ca  1.500
Ca57    19.051131363   32.262802565   14.248064970 XXXX 1      ca+h    Ca  1.500
Ca58    18.723922820   25.364549866   14.367688511 XXXX 1      ca+h    Ca  1.500
Ca59    18.891950241   18.629139264   14.454833795 XXXX 1      ca+h    Ca  1.500
Ca60    18.720423527   11.758388565   14.480081034 XXXX 1      ca+h    Ca  1.500
Ca61    14.170146872   32.408294984   22.597806061 XXXX 1      ca+h    Ca  1.500
Ca62    14.162678979   25.540505688   22.653037988 XXXX 1      ca+h    Ca  1.500
Ca63    14.176146105   18.629806889   22.524174541 XXXX 1      ca+h    Ca  1.500
Ca64    14.273649317   11.674572113   22.534645457 XXXX 1      ca+h    Ca  1.500
Ca69    33.029478063   32.172993825    6.161510010 XXXX 1      ca+h    Ca  1.500
Ca70    32.800620919   25.293328431    6.509338590 XXXX 1      ca+h    Ca  1.500
Ca71    33.118655439   18.446332367    6.550167599 XXXX 1      ca+h    Ca  1.500
Ca72    32.995258142   11.574608914    6.562132582 XXXX 1      ca+h    Ca  1.500
Ca73    28.275480648   32.285255902   14.458262738 XXXX 1      ca+h    Ca  1.500
Ca74    28.312491753   25.501054139   14.575301532 XXXX 1      ca+h    Ca  1.500
Ca75    28.482065216   18.727326361   14.489624851 XXXX 1      ca+h    Ca  1.500
Ca76    28.213808698   11.720000839   14.430454305 XXXX 1      ca+h    Ca  1.500
Ca77    23.605361318   32.362939321   22.582258745 XXXX 1      ca+h    Ca  1.500
Ca78    23.584867368   25.493463816   22.554056115 XXXX 1      ca+h    Ca  1.500
Ca79    23.462378240   18.595711181   22.539808053 XXXX 1      ca+h    Ca  1.500
Ca80    23.466071258   11.818272150   22.518020709 XXXX 1      ca+h    Ca  1.500
Ca93    32.869508541   32.278034531   22.592551454 XXXX 1      ca+h    Ca  1.500
Ca94    33.198789108   25.457972046   22.675328877 XXXX 1      ca+h    Ca  1.500
Ca95    33.018784986   18.550128291   22.640283189 XXXX 1      ca+h    Ca  1.500
Ca96    32.854704556   11.787492937   22.701781416 XXXX 1      ca+h    Ca  1.500
Ca101   23.588218957   28.928923307    6.262575872 XXXX 1      ca+h    Ca  1.500
Ca102   23.655135529   21.996428966    6.407464803 XXXX 1      ca+h    Ca  1.500
Ca103   23.836294202   15.159568373    6.262147604 XXXX 1      ca+h    Ca  1.500
Ca104   23.699327653    8.234678696    6.397444331 XXXX 1      ca+h    Ca  1.500
Ca105   18.759692215   28.858010364   14.418172976 XXXX 1      ca+h    Ca  1.500
Ca106   18.957540578   21.975024845   14.436332653 XXXX 1      ca+h    Ca  1.500
Ca107   18.768439673   15.136992444   14.652746723 XXXX 1      ca+h    Ca  1.500
Ca108   18.912359260    8.358356337   14.351355057 XXXX 1      ca+h    Ca  1.500
Ca109   14.143134412   28.924621302   22.729829237 XXXX 1      ca+h    Ca  1.500
Ca110   13.961456682   22.081966010   22.713981465 XXXX 1      ca+h    Ca  1.500
Ca111   14.293122721   15.157582298   22.627066339 XXXX 1      ca+h    Ca  1.500
Ca112   14.200680017    8.238813509   22.564611673 XXXX 1      ca+h    Ca  1.500
Ca117   32.940913460   28.776850133    6.235678489 XXXX 1      ca+h    Ca  1.500
Ca118   33.044779901   21.906799089    6.211646952 XXXX 1      ca+h    Ca  1.500
Ca119   32.825011462   15.040543282    6.430793093 XXXX 1      ca+h    Ca  1.500
Ca120   33.098543541    8.144827550    6.276874277 XXXX 1      ca+h    Ca  1.500
Ca121   28.076524342   28.743261434   14.485000032 XXXX 1      ca+h    Ca  1.500
Ca122   28.260511262   22.052470988   14.535629896 XXXX 1      ca+h    Ca  1.500
Ca123   28.299780268   15.166571584   14.501494168 XXXX 1      ca+h    Ca  1.500
Ca124   28.499754021    8.319966543   14.477306309 XXXX 1      ca+h    Ca  1.500
Ca125   23.569867765   28.910977752   22.555239006 XXXX 1      ca+h    Ca  1.500
Ca126   23.602529839   21.935505338   22.686188379 XXXX 1      ca+h    Ca  1.500
Ca127   23.652412280   15.299704263   22.625699716 XXXX 1      ca+h    Ca  1.500
Ca128   23.557878693    8.274963812   22.635319861 XXXX 1      ca+h    Ca  1.500
Ca141   32.964104551   28.911565702   22.649574517 XXXX 1      ca+h    Ca  1.500
Ca142   32.971527991   21.964010155   22.813862890 XXXX 1      ca+h    Ca  1.500
Ca143   32.971610657   15.143282486   22.615742655 XXXX 1      ca+h    Ca  1.500
Ca144   33.090172684    8.359918858   22.496384374 XXXX 1      ca+h    Ca  1.500
Ca149   28.187585442   32.196868121    3.995636600 XXXX 1      ca+h    Ca  1.500
Ca150   28.297174139   25.305470571    3.367331802 XXXX 1      ca+h    Ca  1.500
Ca151   28.376623861   18.318947184    3.636381665 XXXX 1      ca+h    Ca  1.500
Ca152   28.238263190   11.615035200    3.371881573 XXXX 1      ca+h    Ca  1.500
Ca153   23.563885887   32.294955335   11.798949306 XXXX 1      ca+h    Ca  1.500
Ca154   23.547918823   25.341414959   11.628664745 XXXX 1      ca+h    Ca  1.500
Ca155   23.595599176   18.507470862   11.948690820 XXXX 1      ca+h    Ca  1.500
Ca156   23.589313186   11.510246514   11.748252102 XXXX 1      ca+h    Ca  1.500
Ca157   18.760088326   32.416336213   19.853561558 XXXX 1      ca+h    Ca  1.500
Ca158   18.871253287   25.478398742   20.132136029 XXXX 1      ca+h    Ca  1.500
Ca159   18.721104225   18.733733581   19.798707100 XXXX 1      ca+h    Ca  1.500
Ca160   18.807097509   11.711999065   19.783370681 XXXX 1      ca+h    Ca  1.500
Ca169   33.055868081   32.273984026   11.809536050 XXXX 1      ca+h    Ca  1.500
Ca170   33.084119584   25.352137527   11.773271115 XXXX 1      ca+h    Ca  1.500
Ca171   33.033047712   18.454036010   11.614219114 XXXX 1      ca+h    Ca  1.500
Ca172   32.690045427   11.545309125   11.748303567 XXXX 1      ca+h    Ca  1.500
Ca173   28.066082771   32.238342611   19.925039395 XXXX 1      ca+h    Ca  1.500
Ca174   28.152638104   25.511781928   20.046875431 XXXX 1      ca+h    Ca  1.500
Ca175   28.389652366   18.512970020   20.058537523 XXXX 1      ca+h    Ca  1.500
Ca176   28.189276305   11.667212913   19.948990551 XXXX 1      ca+h    Ca  1.500
Ca197   22.863837975   33.869686040    2.487258933 XXXX 1      ca+h    Ca  1.500
Ca198   22.335236406   27.025410467    3.032635220 XXXX 1      ca+h    Ca  1.500
Ca199   22.672052095   20.068470795    2.784959139 XXXX 1      ca+h    Ca  1.500
Ca200   22.495116052   13.514229175    2.793400696 XXXX 1      ca+h    Ca  1.500
Ca201   17.568222434   34.053598568   10.978736762 XXXX 1      ca+h    Ca  1.500
Ca202   17.428516086   27.248739004   10.890404761 XXXX 1      ca+h    Ca  1.500
Ca203   17.588835720   20.386060409   11.034513115 XXXX 1      ca+h    Ca  1.500
Ca204   17.507364454   13.555570725   11.006153736 XXXX 1      ca+h    Ca  1.500
Ca205   12.837459430   34.265640038   19.148328917 XXXX 1      ca+h    Ca  1.500
Ca206   12.740504266   27.236904983   19.132312003 XXXX 1      ca+h    Ca  1.500
Ca207   12.966833641   20.280999401   19.025652963 XXXX 1      ca+h    Ca  1.500
Ca208   12.783450960   13.515445721   19.143991835 XXXX 1      ca+h    Ca  1.500
Ca213   31.913167201   33.722859808    2.722564753 XXXX 1      ca+h    Ca  1.500
Ca214   31.970056356   27.006686718    2.704595572 XXXX 1      ca+h    Ca  1.500
Ca215   32.204028856   20.005857924    2.841476094 XXXX 1      ca+h    Ca  1.500
Ca216   31.861864086   13.299239197    2.860984034 XXXX 1      ca+h    Ca  1.500
Ca217   26.969188935   33.849861346   11.038482670 XXXX 1      ca+h    Ca  1.500
Ca218   27.250926070   27.133631943   10.921451800 XXXX 1      ca+h    Ca  1.500
Ca219   27.038703237   20.288574111   11.019982163 XXXX 1      ca+h    Ca  1.500
Ca220   26.913575822   13.457089060   11.011876712 XXXX 1      ca+h    Ca  1.500
Ca221   22.081323816   34.043110886   19.141555622 XXXX 1      ca+h    Ca  1.500
Ca222   22.275891446   27.109409471   19.046328541 XXXX 1      ca+h    Ca  1.500
Ca223   22.250333382   20.348494102   19.186780663 XXXX 1      ca+h    Ca  1.500
Ca224   22.350608429   13.397733842   19.146589228 XXXX 1      ca+h    Ca  1.500
Ca233   36.506737388   33.963508027   11.084004345 XXXX 1      ca+h    Ca  1.500
Ca234   36.564448399   27.236689470   10.956633397 XXXX 1      ca+h    Ca  1.500
Ca235   36.483411986   20.206023641   11.044053243 XXXX 1      ca+h    Ca  1.500
Ca236   36.399080785   13.468419224   10.980890953 XXXX 1      ca+h    Ca  1.500
Ca237   31.722154502   33.897640059   19.195272838 XXXX 1      ca+h    Ca  1.500
Ca238   31.709105432   27.164312565   19.162871071 XXXX 1      ca+h    Ca  1.500
Ca239   31.735365126   20.266163818   19.265883391 XXXX 1      ca+h    Ca  1.500
Ca240   31.738329143   13.361494834   19.252223307 XXXX 1      ca+h    Ca  1.500
P5      25.185098480   33.914966290    4.321717832 XXXX 1      pap     P   1.000
P6      25.127553677   26.987314028    4.248645779 XXXX 1      pap     P   1.000
P7      25.383956752   20.027152170    4.130717679 XXXX 1      pap     P   1.000
P8      25.223821836   13.413033698    4.125493772 XXXX 1      pap     P   1.000
P9      20.544698530   34.078700631   12.314884043 XXXX 1      pap     P   1.000
P10     20.337431482   27.167245056   12.267230205 XXXX 1      pap     P   1.000
P11     20.461812026   20.262749077   12.352844402 XXXX 1      pap     P   1.000
P12     20.350312293   13.363661518   12.392409365 XXXX 1      pap     P   1.000
P13     15.725817976   34.183486640   20.365532908 XXXX 1      pap     P   1.000
P14     15.642901733   27.188127637   20.355881938 XXXX 1      pap     P   1.000
P15     15.731618406   20.396128730   20.488071516 XXXX 1      pap     P   1.000
P16     15.645873439   13.503038389   20.388157836 XXXX 1      pap     P   1.000
P21     34.650246532   33.793430848    4.064130084 XXXX 1      pap     P   1.000
P22     34.659304019   27.134201301    4.220723719 XXXX 1      pap     P   1.000
P23     34.871338572   20.184985589    4.234197715 XXXX 1      pap     P   1.000
P24     34.575719822   13.289919079    4.398973477 XXXX 1      pap     P   1.000
P25     29.942001284   33.949581438   12.203370828 XXXX 1      pap     P   1.000
P26     30.023496833   27.125142219   12.466672350 XXXX 1      pap     P   1.000
P27     30.001663675   20.299072265   12.380242555 XXXX 1      pap     P   1.000
P28     29.782140634   13.430860913   12.384503723 XXXX 1      pap     P   1.000
P29     25.184478317   34.077023262   20.401785275 XXXX 1      pap     P   1.000
P30     25.110632251   27.174339660   20.479195643 XXXX 1      pap     P   1.000
P31     25.137457384   20.186674404   20.499468899 XXXX 1      pap     P   1.000
P32     25.141702137   13.459897039   20.462185346 XXXX 1      pap     P   1.000
P45     34.545509228   33.988164231   20.417051175 XXXX 1      pap     P   1.000
P46     34.695191820   27.173180736   20.511931284 XXXX 1      pap     P   1.000
P47     34.636872031   20.301937411   20.530950207 XXXX 1      pap     P   1.000
P48     34.542389159   13.423042659   20.561211649 XXXX 1      pap     P   1.000
O581    25.090811312   33.870085589    5.842524806 XXXX 1      oap1    O  -0.800
O582    25.028958879   27.118412484    5.764097605 XXXX 1      oap1    O  -0.800
O583    25.196710300   19.886529916    5.633997139 XXXX 1      oap1    O  -0.800
O584    25.107008766   13.189862366    5.682167216 XXXX 1      oap1    O  -0.800
O585    20.604940248   34.152479293   13.838190738 XXXX 1      oap1    O  -0.800
O586    20.427416620   27.301777583   13.814734211 XXXX 1      oap1    O  -0.800
O587    20.648832836   20.222213418   13.880360617 XXXX 1      oap1    O  -0.800
O588    20.406229170   13.515515722   13.948979741 XXXX 1      oap1    O  -0.800
O589    15.649790625   34.148216911   21.861864088 XXXX 1      oap1    O  -0.800
O590    15.760980647   27.283748458   21.886355046 XXXX 1      oap1    O  -0.800
O591    15.755556126   20.428881985   22.065916849 XXXX 1      oap1    O  -0.800
O592    15.824529154   13.445977089   21.929117040 XXXX 1      oap1    O  -0.800
O597    34.448875859   33.966629184    5.591358423 XXXX 1      oap1    O  -0.800
O598    34.527027733   26.959738861    5.812552123 XXXX 1      oap1    O  -0.800
O599    34.803222846   20.228377639    5.769505071 XXXX 1      oap1    O  -0.800
O600    34.292330178   13.389762142    5.914643710 XXXX 1      oap1    O  -0.800
O601    29.878652065   34.332285609   13.697288693 XXXX 1      oap1    O  -0.800
O602    29.921160009   27.309221858   13.974814160 XXXX 1      oap1    O  -0.800
O603    29.960760800   20.575611516   13.854097719 XXXX 1      oap1    O  -0.800
O604    29.898204783   13.469366501   13.932155388 XXXX 1      oap1    O  -0.800
O605    25.253276912   34.127020016   21.909155506 XXXX 1      oap1    O  -0.800
O606    25.279789265   27.325560648   22.064621381 XXXX 1      oap1    O  -0.800
O607    25.216219281   20.429913392   22.036017842 XXXX 1      oap1    O  -0.800
O608    25.187615510   13.568864491   22.030861686 XXXX 1      oap1    O  -0.800
O621    34.654458538   34.044611484   21.920058771 XXXX 1      oap1    O  -0.800
O622    34.722871997   27.216334661   22.008600999 XXXX 1      oap1    O  -0.800
O623    34.714663298   20.348065829   22.058285605 XXXX 1      oap1    O  -0.800
O624    34.690973168   13.551557253   22.073381556 XXXX 1      oap1    O  -0.800
O629    26.713812703   34.144068696    3.837727858 XXXX 1      oap1    O  -0.800
O630    26.640793498   26.861067101    3.911332153 XXXX 1      oap1    O  -0.800
O631    26.871748972   20.180913941    3.815368178 XXXX 1      oap1    O  -0.800
O632    26.688639450   13.282445643    3.767714314 XXXX 1      oap1    O  -0.800
O633    21.933305925   34.066578618   11.604616465 XXXX 1      oap1    O  -0.800
O634    21.764020870   27.071855122   11.571328000 XXXX 1      oap1    O  -0.800
O635    21.782291029   20.118302687   11.560429130 XXXX 1      oap1    O  -0.800
O636    21.708795808   13.301745236   11.705247143 XXXX 1      oap1    O  -0.800
O637    17.204798084   34.165863837   19.918955519 XXXX 1      oap1    O  -0.800
O638    17.093068274   27.083976021   19.756168733 XXXX 1      oap1    O  -0.800
O639    17.120045333   20.437924105   19.873681800 XXXX 1      oap1    O  -0.800
O640    16.991642293   13.472715210   19.692215806 XXXX 1      oap1    O  -0.800
O645    36.116357673   33.696438733    3.688704258 XXXX 1      oap1    O  -0.800
O646    36.169688265   27.064159535    4.016839212 XXXX 1      oap1    O  -0.800
O647    36.268450673   20.142714710    3.691432346 XXXX 1      oap1    O  -0.800
O648    36.080300996   13.134130196    4.140340947 XXXX 1      oap1    O  -0.800
O649    31.386373149   33.883343118   11.658497010 XXXX 1      oap1    O  -0.800
O650    31.432486965   27.117994337   11.870009368 XXXX 1      oap1    O  -0.800
O651    31.503771590   20.174381245   11.841717371 XXXX 1      oap1    O  -0.800
O652    31.190938415   13.426433845   11.768065102 XXXX 1      oap1    O  -0.800
O653    26.604104754   34.147312704   19.758815089 XXXX 1      oap1    O  -0.800
O654    26.470660152   27.303757057   19.723109154 XXXX 1      oap1    O  -0.800
O655    26.526860090   20.106274101   19.819717024 XXXX 1      oap1    O  -0.800
O656    26.537357264   13.393035981   19.701456292 XXXX 1      oap1    O  -0.800
O669    35.919746575   34.060587317   19.724908136 XXXX 1      oap1    O  -0.800
O670    36.144616405   27.197003866   19.954887005 XXXX 1      oap1    O  -0.800
O671    35.970222426   20.074541010   19.728648004 XXXX 1      oap1    O  -0.800
O672    35.821256511   13.376776152   19.783082283 XXXX 1      oap1    O  -0.800
Ca245   27.232893512   33.990630999    6.996314562 XXXX 1      ca+h    Ca  1.500
Ca246   27.055172102   27.056894663    6.945118096 XXXX 1      ca+h    Ca  1.500
Ca247   27.219339576   20.116096775    6.965383605 XXXX 1      ca+h    Ca  1.500
Ca248   27.074585637   13.379216768    7.068989747 XXXX 1      ca+h    Ca  1.500
Ca249   22.486703857   33.961033969   15.206431882 XXXX 1      ca+h    Ca  1.500
Ca250   22.572963646   27.172127493   15.112642313 XXXX 1      ca+h    Ca  1.500
Ca251   22.606674686   20.319724299   15.258697809 XXXX 1      ca+h    Ca  1.500
Ca252   22.538115251   13.403396323   15.195520516 XXXX 1      ca+h    Ca  1.500
Ca253   17.595737969   34.056107780   23.241579147 XXXX 1      ca+h    Ca  1.500
Ca254   17.714045163   27.133287386   23.352163658 XXXX 1      ca+h    Ca  1.500
Ca255   17.712390962   20.287564161   23.209094335 XXXX 1      ca+h    Ca  1.500
Ca256   17.766308164   13.546407855   23.265706685 XXXX 1      ca+h    Ca  1.500
Ca261   36.578352724   33.896718394    6.951333690 XXXX 1      ca+h    Ca  1.500
Ca262   36.612992649   27.019922863    6.828187419 XXXX 1      ca+h    Ca  1.500
Ca263   36.682465344   20.221653908    7.054317452 XXXX 1      ca+h    Ca  1.500
Ca264   36.523284198   13.145747749    7.007790209 XXXX 1      ca+h    Ca  1.500
Ca265   31.830456787   34.217466207   15.130380065 XXXX 1      ca+h    Ca  1.500
Ca266   31.897470281   27.171431801   15.080663090 XXXX 1      ca+h    Ca  1.500
Ca267   31.907883401   20.302185636   15.168020168 XXXX 1      ca+h    Ca  1.500
Ca268   31.920289203   13.366423480   15.124654497 XXXX 1      ca+h    Ca  1.500
Ca269   27.186290559   34.073039443   23.187220597 XXXX 1      ca+h    Ca  1.500
Ca270   27.263974941   27.269066282   23.296416060 XXXX 1      ca+h    Ca  1.500
Ca271   27.214333699   20.300224281   23.389887156 XXXX 1      ca+h    Ca  1.500
Ca272   27.248911008   13.598332885   23.458867023 XXXX 1      ca+h    Ca  1.500
Ca285   36.580567167   34.027764321   23.256003962 XXXX 1      ca+h    Ca  1.500
Ca286   36.668778225   27.205488293   23.357100251 XXXX 1      ca+h    Ca  1.500
Ca287   36.668912873   20.230257600   23.307129391 XXXX 1      ca+h    Ca  1.500
Ca288   36.639189528   13.415146174   23.430907542 XXXX 1      ca+h    Ca  1.500
P53     24.629175054   34.038898830    8.855534362 XXXX 1      pap     P   1.000
P54     24.506453762   27.090768750    8.842552313 XXXX 1      pap     P   1.000
P55     24.698713379   20.266901093    8.830618107 XXXX 1      pap     P   1.000
P56     24.586555046   13.395794013    8.775419232 XXXX 1      pap     P   1.000
P57     19.959294632   33.947893043   16.988238227 XXXX 1      pap     P   1.000
P58     19.868138921   27.130183355   16.867191082 XXXX 1      pap     P   1.000
P59     19.810127316   20.327389732   16.919886072 XXXX 1      pap     P   1.000
P60     20.017342281   13.466985783   16.931667876 XXXX 1      pap     P   1.000
P61     15.136515629   34.036571297   25.030410825 XXXX 1      pap     P   1.000
P62     15.225756948   27.254660793   25.033938612 XXXX 1      pap     P   1.000
P63     15.260482419   20.227993781   25.070483293 XXXX 1      pap     P   1.000
P64     15.238622509   13.398298940   25.033837714 XXXX 1      pap     P   1.000
P69     34.040486786   34.013987862    8.760383830 XXXX 1      pap     P   1.000
P70     34.122519077   27.042938627    8.808110384 XXXX 1      pap     P   1.000
P71     34.129208455   20.209173290    8.864638724 XXXX 1      pap     P   1.000
P72     34.010365888   13.344222858    8.949331716 XXXX 1      pap     P   1.000
P73     29.288277549   33.962956064   17.027071300 XXXX 1      pap     P   1.000
P74     29.346847041   27.155061269   17.089677619 XXXX 1      pap     P   1.000
P75     29.394540548   20.296915284   17.043679643 XXXX 1      pap     P   1.000
P76     29.333113827   13.394341799   16.961686483 XXXX 1      pap     P   1.000
P77     24.635337535   34.078367805   25.033952407 XXXX 1      pap     P   1.000
P78     24.680597270   27.265241400   25.003897141 XXXX 1      pap     P   1.000
P79     24.642641686   20.284334255   25.107241519 XXXX 1      pap     P   1.000
P80     24.504942300   13.605358339   25.062537107 XXXX 1      pap     P   1.000
P93     34.133148233   34.041396240   25.023504403 XXXX 1      pap     P   1.000
P94     34.131145831   27.091543692   25.194513404 XXXX 1      pap     P   1.000
P95     34.037541414   20.230943083   25.312387243 XXXX 1      pap     P   1.000
P96     33.888464182   13.431561831   25.163532394 XXXX 1      pap     P   1.000
O677    23.250180390   34.114786353    8.137092772 XXXX 1      oap1    O  -0.800
O678    23.168139468   27.124381516    8.047222882 XXXX 1      oap1    O  -0.800
O679    23.388843985   20.414768506    8.004471144 XXXX 1      oap1    O  -0.800
O680    23.206612368   13.595077306    8.050050003 XXXX 1      oap1    O  -0.800
O681    18.657946235   34.073259783   16.124918173 XXXX 1      oap1    O  -0.800
O682    18.494929396   27.077088669   16.154922677 XXXX 1      oap1    O  -0.800
O683    18.498224566   20.226131906   16.113102498 XXXX 1      oap1    O  -0.800
O684    18.650896797   13.323380676   16.180668926 XXXX 1      oap1    O  -0.800
O685    13.701165065   33.957864929   24.467962642 XXXX 1      oap1    O  -0.800
O686    13.857473870   27.217815224   24.380080054 XXXX 1      oap1    O  -0.800
O687    13.859157307   20.280300841   24.487506354 XXXX 1      oap1    O  -0.800
O688    13.904275122   13.441948823   24.293528796 XXXX 1      oap1    O  -0.800
O693    32.701326915   33.943390245    8.027105675 XXXX 1      oap1    O  -0.800
O694    32.733898834   27.072719670    8.136538863 XXXX 1      oap1    O  -0.800
O695    32.809849388   20.171974204    8.077268074 XXXX 1      oap1    O  -0.800
O696    32.647234904   13.477493917    8.251688014 XXXX 1      oap1    O  -0.800
O697    27.919253927   34.120178896   16.398487992 XXXX 1      oap1    O  -0.800
O698    27.945151851   27.335131328   16.534802431 XXXX 1      oap1    O  -0.800
O699    28.060005288   20.532695181   16.438885401 XXXX 1      oap1    O  -0.800
O700    28.042748804   13.467524487   16.137325024 XXXX 1      oap1    O  -0.800
O701    23.195361437   34.299675475   24.509543135 XXXX 1      oap1    O  -0.800
O702    23.321467085   27.277408500   24.344435040 XXXX 1      oap1    O  -0.800
O703    23.356475215   20.204813262   24.348881562 XXXX 1      oap1    O  -0.800
O704    23.178624176   13.594011264   24.283967502 XXXX 1      oap1    O  -0.800
O717    32.823227227   34.146353729   24.226675017 XXXX 1      oap1    O  -0.800
O718    32.789784562   27.329419569   24.440423759 XXXX 1      oap1    O  -0.800
O719    32.733290668   20.075305346   24.496859873 XXXX 1      oap1    O  -0.800
O720    32.555604427   13.542630065   24.484403761 XXXX 1      oap1    O  -0.800
O725    24.556077545   33.969354725   10.394652336 XXXX 1      oap1    O  -0.800
O726    24.301086912   27.178977731   10.406389150 XXXX 1      oap1    O  -0.800
O727    24.418525302   20.004751482   10.320384681 XXXX 1      oap1    O  -0.800
O728    24.451008306   13.393441364   10.322249087 XXXX 1      oap1    O  -0.800
O729    19.576152693   33.996878359   18.454843007 XXXX 1      oap1    O  -0.800
O730    19.727766451   27.114067511   18.429508340 XXXX 1      oap1    O  -0.800
O731    19.631030730   20.273883442   18.452408934 XXXX 1      oap1    O  -0.800
O732    19.763039940   13.518378825   18.443134963 XXXX 1      oap1    O  -0.800
O733    15.179544418   34.055366588   26.547771294 XXXX 1      oap1    O  -0.800
O734    15.118958658   27.065508898   26.587399065 XXXX 1      oap1    O  -0.800
O735    15.182896842   20.242250986   26.649800909 XXXX 1      oap1    O  -0.800
O736    15.092696902   13.520049608   26.583886483 XXXX 1      oap1    O  -0.800
O741    33.848100570   33.959782774   10.252111856 XXXX 1      oap1    O  -0.800
O742    33.919198456   27.098022419   10.384662643 XXXX 1      oap1    O  -0.800
O743    33.919785507   20.229737648   10.420837531 XXXX 1      oap1    O  -0.800
O744    33.822922754   13.294529976   10.494329078 XXXX 1      oap1    O  -0.800
O745    29.090962346   33.877231390   18.605442099 XXXX 1      oap1    O  -0.800
O746    29.295303867   27.005901509   18.553757078 XXXX 1      oap1    O  -0.800
O747    29.298047427   20.189013099   18.613660942 XXXX 1      oap1    O  -0.800
O748    29.062958713   13.387119432   18.490642477 XXXX 1      oap1    O  -0.800
O749    24.526885309   34.063284495   26.602762760 XXXX 1      oap1    O  -0.800
O750    24.591820865   27.272605634   26.561378999 XXXX 1      oap1    O  -0.800
O751    24.460428223   20.236520351   26.630862414 XXXX 1      oap1    O  -0.800
O752    24.334430763   13.511367149   26.594619764 XXXX 1      oap1    O  -0.800
O765    33.918237771   33.881594576   26.526157308 XXXX 1      oap1    O  -0.800
O766    33.942679332   26.962100631   26.693011268 XXXX 1      oap1    O  -0.800
O767    33.758884529   20.289587407   26.814176365 XXXX 1      oap1    O  -0.800
O768    33.711123117   13.405607948   26.747180074 XXXX 1      oap1    O  -0.800
Ca290   25.954253698   27.061085076    0.501540379 XXXX 1      ca+h    Ca  1.500
Ca292   27.288603470   12.847882711   -0.007534178 XXXX 1      ca+h    Ca  1.500
Ca293   21.183473494   34.149054108    9.073661575 XXXX 1      ca+h    Ca  1.500
Ca294   20.979732584   27.229897716    9.043736427 XXXX 1      ca+h    Ca  1.500
Ca295   21.183757648   20.200040909    9.016193664 XXXX 1      ca+h    Ca  1.500
Ca296   21.110281157   13.249040672    9.171544453 XXXX 1      ca+h    Ca  1.500
Ca297   16.501600338   34.069356783   17.240868110 XXXX 1      ca+h    Ca  1.500
Ca298   16.421752800   27.166293282   17.282861774 XXXX 1      ca+h    Ca  1.500
Ca299   16.422166992   20.302691800   17.317328098 XXXX 1      ca+h    Ca  1.500
Ca300   16.403894323   13.451713526   17.305859696 XXXX 1      ca+h    Ca  1.500
Ca301   11.646403780   34.084287474   25.396137987 XXXX 1      ca+h    Ca  1.500
Ca302   11.611931773   27.215066698   25.464775514 XXXX 1      ca+h    Ca  1.500
Ca303   11.667102683   20.307858439   25.236355648 XXXX 1      ca+h    Ca  1.500
Ca304   11.815479155   13.426343830   25.344139890 XXXX 1      ca+h    Ca  1.500
Ca306   36.438223012   26.602570134   -0.144262062 XXXX 1      ca+h    Ca  1.500
Ca308   35.138684255   13.362626475    0.396739052 XXXX 1      ca+h    Ca  1.500
Ca309   30.658382088   33.960446275    9.138897154 XXXX 1      ca+h    Ca  1.500
Ca310   30.706160004   27.026886310    9.198212785 XXXX 1      ca+h    Ca  1.500
Ca311   30.604927154   20.316063668    8.951656032 XXXX 1      ca+h    Ca  1.500
Ca312   30.472305581   13.485954493    9.236375895 XXXX 1      ca+h    Ca  1.500
Ca313   25.794014262   33.982955427   17.338210821 XXXX 1      ca+h    Ca  1.500
Ca314   25.736923056   27.212990867   17.371128212 XXXX 1      ca+h    Ca  1.500
Ca315   25.895830492   20.330874504   17.331435352 XXXX 1      ca+h    Ca  1.500
Ca316   25.864610940   13.412576899   17.321698704 XXXX 1      ca+h    Ca  1.500
Ca317   21.085568239   34.063204366   25.369649208 XXXX 1      ca+h    Ca  1.500
Ca318   20.995848427   27.286548255   25.488172058 XXXX 1      ca+h    Ca  1.500
Ca319   21.010900697   20.375158966   25.402756212 XXXX 1      ca+h    Ca  1.500
Ca320   21.079101556   13.506753142   25.374226963 XXXX 1      ca+h    Ca  1.500
Ca329   35.241205500   34.058215842   17.381240072 XXXX 1      ca+h    Ca  1.500
Ca330   35.273740529   27.025132985   17.321576891 XXXX 1      ca+h    Ca  1.500
Ca331   35.297027142   20.201911386   17.234562609 XXXX 1      ca+h    Ca  1.500
Ca332   35.248765244   13.303417539   17.284465286 XXXX 1      ca+h    Ca  1.500
Ca333   30.663471693   33.987753199   25.419513063 XXXX 1      ca+h    Ca  1.500
Ca334   30.568307278   27.242015197   25.442063615 XXXX 1      ca+h    Ca  1.500
Ca335   30.478266451   20.285658389   25.528355899 XXXX 1      ca+h    Ca  1.500
Ca336   30.490646282   13.411107694   25.467397292 XXXX 1      ca+h    Ca  1.500
P101    20.904225175   34.103793955    5.862476110 XXXX 1      pap     P   1.000
P102    20.876374416   27.183691571    5.951532923 XXXX 1      pap     P   1.000
P103    20.931171621   20.237249105    5.903001997 XXXX 1      pap     P   1.000
P104    20.948817314   13.288019002    5.813202081 XXXX 1      pap     P   1.000
P105    16.191454808   34.099356902   14.141372531 XXXX 1      pap     P   1.000
P106    16.047650104   27.239223913   14.117464889 XXXX 1      pap     P   1.000
P107    16.137400300   20.352399546   14.201890830 XXXX 1      pap     P   1.000
P108    16.079078937   13.488155291   14.285020244 XXXX 1      pap     P   1.000
P109    11.438949164   34.099564635   22.285694615 XXXX 1      pap     P   1.000
P110    11.418435808   27.258904934   22.348442234 XXXX 1      pap     P   1.000
P111    11.488900799   20.309966948   22.224118410 XXXX 1      pap     P   1.000
P112    11.448222693   13.436561407   22.330558054 XXXX 1      pap     P   1.000
P117    30.391221438   34.029727390    5.944477860 XXXX 1      pap     P   1.000
P118    30.287363693   27.086819936    5.982423877 XXXX 1      pap     P   1.000
P119    30.454803834   20.199067657    5.824231756 XXXX 1      pap     P   1.000
P120    30.316646181   13.241812168    5.979232968 XXXX 1      pap     P   1.000
P121    25.573952775   34.013341279   14.158312660 XXXX 1      pap     P   1.000
P122    25.550742016   27.121007271   14.148117262 XXXX 1      pap     P   1.000
P123    25.606374253   20.278769879   14.213866277 XXXX 1      pap     P   1.000
P124    25.602194747   13.409047777   14.205332452 XXXX 1      pap     P   1.000
P125    20.804310192   34.116551828   22.212860814 XXXX 1      pap     P   1.000
P126    20.780881362   27.190743540   22.250624390 XXXX 1      pap     P   1.000
P127    20.790414813   20.377770800   22.403641307 XXXX 1      pap     P   1.000
P128    20.865334342   13.457553117   22.240278909 XXXX 1      pap     P   1.000
P137    34.994062332   34.032809446   14.242034420 XXXX 1      pap     P   1.000
P138    35.122354797   27.174941681   14.227722788 XXXX 1      pap     P   1.000
P139    34.942531659   20.155642719   14.223792268 XXXX 1      pap     P   1.000
P140    34.994091439   13.306059588   14.240829390 XXXX 1      pap     P   1.000
P141    30.240147710   33.960570526   22.379499539 XXXX 1      pap     P   1.000
P142    30.349089740   27.193183852   22.314916172 XXXX 1      pap     P   1.000
P143    30.335553321   20.261135762   22.329844915 XXXX 1      pap     P   1.000
P144    30.216134082   13.367631411   22.346944694 XXXX 1      pap     P   1.000
O773    22.203678366   34.002481953    5.028820283 XXXX 1      oap1    O  -0.800
O774    22.303317457   27.246871904    5.478085607 XXXX 1      oap1    O  -0.800
O775    22.242512794   20.164989100    5.159591689 XXXX 1      oap1    O  -0.800
O776    22.347284050   13.474465865    5.251439834 XXXX 1      oap1    O  -0.800
O777    17.537577588   33.842761256   13.320282282 XXXX 1      oap1    O  -0.800
O778    17.283826775   27.192992928   13.240301006 XXXX 1      oap1    O  -0.800
O779    17.490737579   20.412714342   13.413905376 XXXX 1      oap1    O  -0.800
O780    17.362063204   13.567146616   13.418757543 XXXX 1      oap1    O  -0.800
O781    12.704311310   34.193800989   21.451156996 XXXX 1      oap1    O  -0.800
O782    12.765859488   27.335799750   21.620362730 XXXX 1      oap1    O  -0.800
O783    12.808957820   20.297435963   21.479193119 XXXX 1      oap1    O  -0.800
O784    12.771134507   13.452037542   21.616511622 XXXX 1      oap1    O  -0.800
O789    31.610323403   34.120536687    4.965744352 XXXX 1      oap1    O  -0.800
O790    31.536391425   27.076581334    5.144170852 XXXX 1      oap1    O  -0.800
O791    31.853975858   20.122544073    5.223609655 XXXX 1      oap1    O  -0.800
O792    31.587721854   13.382462875    5.125221916 XXXX 1      oap1    O  -0.800
O793    26.869845334   33.994929222   13.363806031 XXXX 1      oap1    O  -0.800
O794    26.797790722   27.145787524   13.256626668 XXXX 1      oap1    O  -0.800
O795    26.947885627   20.230736851   13.439377225 XXXX 1      oap1    O  -0.800
O796    26.894763848   13.564586400   13.390896566 XXXX 1      oap1    O  -0.800
O797    22.210529703   34.014156571   21.558482701 XXXX 1      oap1    O  -0.800
O798    21.994320662   27.212151612   21.312527351 XXXX 1      oap1    O  -0.800
O799    22.091699515   20.441391581   21.647780079 XXXX 1      oap1    O  -0.800
O800    22.165096802   13.710092611   21.461304535 XXXX 1      oap1    O  -0.800
O809    36.248623800   34.151093184   13.339715765 XXXX 1      oap1    O  -0.800
O810    36.352408419   27.328799882   13.360024365 XXXX 1      oap1    O  -0.800
O811    36.211266478   20.346584394   13.414505618 XXXX 1      oap1    O  -0.800
O812    36.282936138   13.422038489   13.366538364 XXXX 1      oap1    O  -0.800
O813    31.529436883   33.998996637   21.571809745 XXXX 1      oap1    O  -0.800
O814    31.717845752   27.098099877   21.584313236 XXXX 1      oap1    O  -0.800
O815    31.659225599   20.406614221   21.645360429 XXXX 1      oap1    O  -0.800
O816    31.528672939   13.558430659   21.633032974 XXXX 1      oap1    O  -0.800
O821    19.651178720   34.051264821    5.088977611 XXXX 1      oap1    O  -0.800
O822    19.982328622   26.994368591    4.685461404 XXXX 1      oap1    O  -0.800
O823    19.688519719   20.378500717    4.962008095 XXXX 1      oap1    O  -0.800
O824    19.910326111   13.035875139    4.722039154 XXXX 1      oap1    O  -0.800
O825    15.016751463   34.184301975   13.110121034 XXXX 1      oap1    O  -0.800
O826    14.774048748   27.271891372   13.239755419 XXXX 1      oap1    O  -0.800
O827    14.949572784   20.398863136   13.211532216 XXXX 1      oap1    O  -0.800
O828    14.748370947   13.512732720   13.461929564 XXXX 1      oap1    O  -0.800
O829    10.130906808   33.880770413   21.427631069 XXXX 1      oap1    O  -0.800
O830    10.248711557   27.292672834   21.342827703 XXXX 1      oap1    O  -0.800
O831    10.188025364   20.264768844   21.405481564 XXXX 1      oap1    O  -0.800
O832    10.217604902   13.462911066   21.376316970 XXXX 1      oap1    O  -0.800
O837    29.010058224   33.954753630    5.249548016 XXXX 1      oap1    O  -0.800
O838    29.097849067   26.832697385    5.029466782 XXXX 1      oap1    O  -0.800
O839    29.301296179   20.138392100    4.810066610 XXXX 1      oap1    O  -0.800
O840    29.096915523   13.057743621    5.040413935 XXXX 1      oap1    O  -0.800
O841    24.280284808   34.095755256   13.290990190 XXXX 1      oap1    O  -0.800
O842    24.295201241   27.078303313   13.297829828 XXXX 1      oap1    O  -0.800
O843    24.324170490   20.430165975   13.265592215 XXXX 1      oap1    O  -0.800
O844    24.424301758   13.437645892   13.234344894 XXXX 1      oap1    O  -0.800
O845    19.630969298   34.084239589   21.234378722 XXXX 1      oap1    O  -0.800
O846    19.434947880   27.268935618   21.531516948 XXXX 1      oap1    O  -0.800
O847    19.576905271   20.365439491   21.421858081 XXXX 1      oap1    O  -0.800
O848    19.625723193   13.329577374   21.290775641 XXXX 1      oap1    O  -0.800
O857    33.729977051   34.089756192   13.311988830 XXXX 1      oap1    O  -0.800
O858    33.839615309   27.078461057   13.399812324 XXXX 1      oap1    O  -0.800
O859    33.687708302   20.210995456   13.328999851 XXXX 1      oap1    O  -0.800
O860    33.743315222   13.296591662   13.380326940 XXXX 1      oap1    O  -0.800
O861    29.068122890   33.871193260   21.452545776 XXXX 1      oap1    O  -0.800
O862    29.096521295   27.313498177   21.391315876 XXXX 1      oap1    O  -0.800
O863    29.039204488   20.287540782   21.493614034 XXXX 1      oap1    O  -0.800
O864    28.990284660   13.334192479   21.372876629 XXXX 1      oap1    O  -0.800
Ca341   29.618490917   30.621133868    7.240124571 XXXX 1      ca+h    Ca  1.500
Ca342   29.701667144   23.648539891    6.855234363 XXXX 1      ca+h    Ca  1.500
Ca343   29.507686150   16.741745023    7.155695054 XXXX 1      ca+h    Ca  1.500
Ca344   29.587564220    9.949687518    6.906553445 XXXX 1      ca+h    Ca  1.500
Ca345   24.775966918   30.525356897   15.248836026 XXXX 1      ca+h    Ca  1.500
Ca346   24.848975818   23.654282975   15.096964865 XXXX 1      ca+h    Ca  1.500
Ca347   24.865902495   16.736202940   15.363074225 XXXX 1      ca+h    Ca  1.500
Ca348   24.951619005    9.870546956   15.250449650 XXXX 1      ca+h    Ca  1.500
Ca349   20.177408137   30.542160080   23.288102801 XXXX 1      ca+h    Ca  1.500
Ca350   20.014568017   23.775086907   23.412355035 XXXX 1      ca+h    Ca  1.500
Ca351   20.090233028   17.021434910   23.354982088 XXXX 1      ca+h    Ca  1.500
Ca352   20.026814584   10.051473119   23.384425314 XXXX 1      ca+h    Ca  1.500
Ca361   34.275947523   30.514427426   15.353207735 XXXX 1      ca+h    Ca  1.500
Ca362   34.258958447   23.744491411   15.163052353 XXXX 1      ca+h    Ca  1.500
Ca363   34.197236185   16.801212309   15.373111574 XXXX 1      ca+h    Ca  1.500
Ca364   34.241517102    9.927318815   15.135515642 XXXX 1      ca+h    Ca  1.500
Ca365   29.568939945   30.521018093   23.306612278 XXXX 1      ca+h    Ca  1.500
Ca366   29.582236009   23.688487316   23.452818019 XXXX 1      ca+h    Ca  1.500
Ca367   29.534701607   16.751593181   23.442717764 XXXX 1      ca+h    Ca  1.500
Ca368   29.310407768    9.905712422   23.448865829 XXXX 1      ca+h    Ca  1.500
P149    26.496786103   30.551368239    5.928933700 XXXX 1      pap     P   1.000
P150    26.741800468   23.531114924    5.872357749 XXXX 1      pap     P   1.000
P151    26.759068527   16.834985581    5.715891228 XXXX 1      pap     P   1.000
P152    26.712292576   10.042920006    5.756535759 XXXX 1      pap     P   1.000
P153    21.927659352   30.564070262   13.820033305 XXXX 1      pap     P   1.000
P154    21.965163568   23.631439117   13.826963110 XXXX 1      pap     P   1.000
P155    21.934141342   16.887760001   14.004470728 XXXX 1      pap     P   1.000
P156    22.032264173    9.965120554   13.953577689 XXXX 1      pap     P   1.000
P157    17.261608063   30.678024869   22.251744473 XXXX 1      pap     P   1.000
P158    17.186453346   23.740826400   22.096921864 XXXX 1      pap     P   1.000
P159    17.254790582   16.953300398   22.092833255 XXXX 1      pap     P   1.000
P160    17.218311322   10.033958273   22.050601348 XXXX 1      pap     P   1.000
P165    36.099992527   30.574569090    5.855441770 XXXX 1      pap     P   1.000
P166    36.136218158   23.532510466    5.844564171 XXXX 1      pap     P   1.000
P167    36.039487832   16.700955368    6.060781737 XXXX 1      pap     P   1.000
P168    36.091462286    9.884658695    5.769974896 XXXX 1      pap     P   1.000
P169    31.294457762   30.581986190   13.911482537 XXXX 1      pap     P   1.000
P170    31.377657498   23.761600763   13.935281850 XXXX 1      pap     P   1.000
P171    31.303077737   16.807540360   14.083134744 XXXX 1      pap     P   1.000
P172    31.281242446    9.987079862   13.946954270 XXXX 1      pap     P   1.000
P173    26.660131011   30.560771806   22.093394536 XXXX 1      pap     P   1.000
P174    26.760357995   23.718009150   22.167665087 XXXX 1      pap     P   1.000
P175    26.655239307   16.934424722   22.233027797 XXXX 1      pap     P   1.000
P176    26.508543444   10.000456941   22.088966608 XXXX 1      pap     P   1.000
P189    36.120535354   30.562082064   22.079659164 XXXX 1      pap     P   1.000
P190    36.051751871   23.777979989   21.992348628 XXXX 1      pap     P   1.000
P191    36.022650437   16.764761390   22.095265086 XXXX 1      pap     P   1.000
P192    35.945244340    9.979367510   22.171868676 XXXX 1      pap     P   1.000
O869    26.284647945   30.453052530    4.419293858 XXXX 1      oap1    O  -0.800
O870    26.623581239   23.549512320    4.380065210 XXXX 1      oap1    O  -0.800
O871    26.629905421   16.736958527    4.226369104 XXXX 1      oap1    O  -0.800
O872    26.516077054   10.136787561    4.173642522 XXXX 1      oap1    O  -0.800
O873    21.796732220   30.566445817   12.303598146 XXXX 1      oap1    O  -0.800
O874    21.991789671   23.587626698   12.272062097 XXXX 1      oap1    O  -0.800
O875    21.952718905   16.846639731   12.513134574 XXXX 1      oap1    O  -0.800
O876    21.930129113    9.817009276   12.403041888 XXXX 1      oap1    O  -0.800
O877    17.201585326   30.544468973   20.709493732 XXXX 1      oap1    O  -0.800
O878    17.198092814   23.735009164   20.589310741 XXXX 1      oap1    O  -0.800
O879    17.122536466   16.990689125   20.544093495 XXXX 1      oap1    O  -0.800
O880    17.156379360   10.041466999   20.490221352 XXXX 1      oap1    O  -0.800
O885    36.118762907   30.433774697    4.356209631 XXXX 1      oap1    O  -0.800
O886    36.091343021   23.332894896    4.304533727 XXXX 1      oap1    O  -0.800
O887    35.978788378   16.666864017    4.496848739 XXXX 1      oap1    O  -0.800
O888    35.992410117    9.966184266    4.215124368 XXXX 1      oap1    O  -0.800
O889    31.400732976   30.498371946   12.397381201 XXXX 1      oap1    O  -0.800
O890    31.239803124   23.777096054   12.428411747 XXXX 1      oap1    O  -0.800
O891    31.276501172   17.087253940   12.562317257 XXXX 1      oap1    O  -0.800
O892    31.081175235    9.810248783   12.395625049 XXXX 1      oap1    O  -0.800
O893    26.470883392   30.641831549   20.580428562 XXXX 1      oap1    O  -0.800
O894    26.652745855   23.671582725   20.598739514 XXXX 1      oap1    O  -0.800
O895    26.564164713   16.864658000   20.681681822 XXXX 1      oap1    O  -0.800
O896    26.451999527   10.054114404   20.563903990 XXXX 1      oap1    O  -0.800
O909    35.983324808   30.786187829   20.591932133 XXXX 1      oap1    O  -0.800
O910    36.008293644   23.852968441   20.495009397 XXXX 1      oap1    O  -0.800
O911    35.870184562   16.758955430   20.578989699 XXXX 1      oap1    O  -0.800
O912    35.935121218    9.773939975   20.641021064 XXXX 1      oap1    O  -0.800
O917    25.143294458   30.612427921    6.749751826 XXXX 1      oap1    O  -0.800
O918    25.375671960   23.540273206    6.639477950 XXXX 1      oap1    O  -0.800
O919    25.349568893   16.957722680    6.414574360 XXXX 1      oap1    O  -0.800
O920    25.368513249    9.919826088    6.481893900 XXXX 1      oap1    O  -0.800
O921    20.571416067   30.450222952   14.589257264 XXXX 1      oap1    O  -0.800
O922    20.506992683   23.694356398   14.395709824 XXXX 1      oap1    O  -0.800
O923    20.528896092   16.761608966   14.536767728 XXXX 1      oap1    O  -0.800
O924    20.596053748   10.123949160   14.580438664 XXXX 1      oap1    O  -0.800
O925    15.835501848   30.780347025   22.774962970 XXXX 1      oap1    O  -0.800
O926    15.796914318   23.842573885   22.727038534 XXXX 1      oap1    O  -0.800
O927    15.845854462   16.951213300   22.764631536 XXXX 1      oap1    O  -0.800
O928    15.828770005    9.985537313   22.745278186 XXXX 1      oap1    O  -0.800
O933    34.663885440   30.614061454    6.477359475 XXXX 1      oap1    O  -0.800
O934    34.675963254   23.603279538    6.375106921 XXXX 1      oap1    O  -0.800
O935    34.637116290   16.754134483    6.709831017 XXXX 1      oap1    O  -0.800
O936    34.693568921    9.894281365    6.365508085 XXXX 1      oap1    O  -0.800
O937    29.857311543   30.562047425   14.459747200 XXXX 1      oap1    O  -0.800
O938    30.011215679   23.787501216   14.642970924 XXXX 1      oap1    O  -0.800
O939    29.891606012   16.767447910   14.620402016 XXXX 1      oap1    O  -0.800
O940    29.921966340   10.093343327   14.661930951 XXXX 1      oap1    O  -0.800
O941    25.335781256   30.556534108   22.885823683 XXXX 1      oap1    O  -0.800
O942    25.348727110   23.676401158   22.766918005 XXXX 1      oap1    O  -0.800
O943    25.231151456   17.023148860   22.870886471 XXXX 1      oap1    O  -0.800
O944    25.077692266   10.016213813   22.672899142 XXXX 1      oap1    O  -0.800
O957    34.748806985   30.521257372   22.822906032 XXXX 1      oap1    O  -0.800
O958    34.679192857   23.671167364   22.641677891 XXXX 1      oap1    O  -0.800
O959    34.632221680   16.798739559   22.805781094 XXXX 1      oap1    O  -0.800
O960    34.506092410   10.127464527   22.689096026 XXXX 1      oap1    O  -0.800
Ca389   24.951386670   30.430746108    2.452441916 XXXX 1      ca+h    Ca  1.500
Ca390   24.655063045   23.545297054    3.114135738 XXXX 1      ca+h    Ca  1.500
Ca391   24.708552219   16.704707631    2.475113514 XXXX 1      ca+h    Ca  1.500
Ca392   24.455725396   10.147047162    2.957856400 XXXX 1      ca+h    Ca  1.500
Ca393   19.773531980   30.655521841   11.001592521 XXXX 1      ca+h    Ca  1.500
Ca394   20.002773550   23.762416306   11.103786570 XXXX 1      ca+h    Ca  1.500
Ca395   19.922158705   16.824499328   11.005876893 XXXX 1      ca+h    Ca  1.500
Ca396   19.972901032    9.971380391   11.158575905 XXXX 1      ca+h    Ca  1.500
Ca397   15.265877365   30.778804387   19.249713591 XXXX 1      ca+h    Ca  1.500
Ca398   15.356690769   23.691787275   19.288042065 XXXX 1      ca+h    Ca  1.500
Ca399   15.163661252   16.905729701   19.106479623 XXXX 1      ca+h    Ca  1.500
Ca400   15.083680104   10.126211581   19.290562129 XXXX 1      ca+h    Ca  1.500
Ca405   34.108907170   30.400344856    2.411564430 XXXX 1      ca+h    Ca  1.500
Ca406   34.027902541   23.652570016    3.055930171 XXXX 1      ca+h    Ca  1.500
Ca407   34.285526568   16.762930767    2.925018418 XXXX 1      ca+h    Ca  1.500
Ca408   33.950769570   10.025797245    3.026463744 XXXX 1      ca+h    Ca  1.500
Ca409   29.336694525   30.564009651   11.056109093 XXXX 1      ca+h    Ca  1.500
Ca410   29.277082323   23.747073874   10.873186430 XXXX 1      ca+h    Ca  1.500
Ca411   29.286207051   16.856347226   11.077261110 XXXX 1      ca+h    Ca  1.500
Ca412   29.252326762    9.981656278   10.953932749 XXXX 1      ca+h    Ca  1.500
Ca413   24.508865919   30.590208772   19.260347025 XXXX 1      ca+h    Ca  1.500
Ca414   24.604717248   23.682091148   19.289661031 XXXX 1      ca+h    Ca  1.500
Ca415   24.427545712   16.987112754   19.269176989 XXXX 1      ca+h    Ca  1.500
Ca416   24.540446809   10.038393493   19.226774990 XXXX 1      ca+h    Ca  1.500
Ca429   33.961919632   30.560576112   19.259708255 XXXX 1      ca+h    Ca  1.500
Ca430   33.892266876   23.740639349   19.225569745 XXXX 1      ca+h    Ca  1.500
Ca431   33.843514362   16.887634791   19.315495426 XXXX 1      ca+h    Ca  1.500
Ca432   33.989052802    9.969569602   19.370044429 XXXX 1      ca+h    Ca  1.500
P197    27.830781438   29.466733146    1.235015674 XXXX 1      pap     P   1.000
P198    26.721857821   24.130694783    0.973677840 XXXX 1      pap     P   1.000
P199    28.458863953   15.419508683    1.020846935 XXXX 1      pap     P   1.000
P200    26.943851265   10.153675215    1.121332759 XXXX 1      pap     P   1.000
P201    22.344880177   30.701831617    9.283838101 XXXX 1      pap     P   1.000
P202    22.515511398   23.689909031    9.220617722 XXXX 1      pap     P   1.000
P203    22.476314285   16.858345739    9.355389761 XXXX 1      pap     P   1.000
P204    22.488640645    9.882478501    9.280582387 XXXX 1      pap     P   1.000
P205    17.784002212   30.665732304   17.438230735 XXXX 1      pap     P   1.000
P206    17.815138443   23.730699922   17.431921807 XXXX 1      pap     P   1.000
P207    17.777181492   16.842556439   17.467241366 XXXX 1      pap     P   1.000
P208    17.642466885   10.016839631   17.374144828 XXXX 1      pap     P   1.000
P213    37.555147529   28.936291169    1.108239743 XXXX 1      pap     P   1.000
P214    36.260080496   23.937836314    1.093540945 XXXX 1      pap     P   1.000
P215    37.243511566   15.488811151    1.469066096 XXXX 1      pap     P   1.000
P216    36.103731742   10.579448822    0.961054802 XXXX 1      pap     P   1.000
P217    31.899400877   30.638658112    9.261255150 XXXX 1      pap     P   1.000
P218    31.882716281   23.564593046    9.252921081 XXXX 1      pap     P   1.000
P219    31.925891961   16.855300804    9.345405156 XXXX 1      pap     P   1.000
P220    31.959198189    9.915042617    9.258983310 XXXX 1      pap     P   1.000
P221    27.102192603   30.616316934   17.370862917 XXXX 1      pap     P   1.000
P222    27.243771517   23.768208133   17.522898571 XXXX 1      pap     P   1.000
P223    27.166874895   16.846347032   17.471564164 XXXX 1      pap     P   1.000
P224    27.174396689    9.976714132   17.452521702 XXXX 1      pap     P   1.000
P237    36.567244199   30.618927697   17.466412474 XXXX 1      pap     P   1.000
P238    36.631780347   23.595312263   17.343800772 XXXX 1      pap     P   1.000
P239    36.570169427   16.707362119   17.394723554 XXXX 1      pap     P   1.000
P240    36.590369075    9.864776664   17.431091798 XXXX 1      pap     P   1.000
O965    27.926940547   30.367418200    2.470426517 XXXX 1      oap1    O  -0.800
O966    28.092677349   23.625386013    1.661720528 XXXX 1      oap1    O  -0.800
O967    28.982936287   14.131700248    1.658016440 XXXX 1      oap1    O  -0.800
O968    28.209248448    9.689077052    1.828332149 XXXX 1      oap1    O  -0.800
O969    23.683150905   30.788379108   10.066908389 XXXX 1      oap1    O  -0.800
O970    23.904191934   23.623927141    9.879417036 XXXX 1      oap1    O  -0.800
O971    23.756477158   16.984542618   10.234228684 XXXX 1      oap1    O  -0.800
O972    23.879219543    9.954468409    9.867551972 XXXX 1      oap1    O  -0.800
O973    19.164895047   30.607137651   18.140211365 XXXX 1      oap1    O  -0.800
O974    19.147997295   23.873965237   18.223161998 XXXX 1      oap1    O  -0.800
O975    19.032617861   16.901054789   18.232227910 XXXX 1      oap1    O  -0.800
O976    19.024682081   10.215726529   18.061262800 XXXX 1      oap1    O  -0.800
O981    38.067500680   27.690226449    1.874394888 XXXX 1      oap1    O  -0.800
O982    37.371755795   23.317480332    1.963070311 XXXX 1      oap1    O  -0.800
O983    37.699496611   14.118730907    1.989295819 XXXX 1      oap1    O  -0.800
O984    37.436821801   10.051710477    1.559194818 XXXX 1      oap1    O  -0.800
O985    33.348775139   30.838100114    9.887511052 XXXX 1      oap1    O  -0.800
O986    33.296268140   23.795217828    9.867480621 XXXX 1      oap1    O  -0.800
O987    33.334813277   16.820954164   10.000398012 XXXX 1      oap1    O  -0.800
O988    33.268418250    9.711803326   10.003921942 XXXX 1      oap1    O  -0.800
O989    28.471950876   30.537792257   18.061964029 XXXX 1      oap1    O  -0.800
O990    28.569718063   23.766787702   18.284405419 XXXX 1      oap1    O  -0.800
O991    28.534374009   17.073263233   18.132275139 XXXX 1      oap1    O  -0.800
O992    28.532046041    9.938883475   18.178488846 XXXX 1      oap1    O  -0.800
O1005   37.841542957   30.512384442   18.262526432 XXXX 1      oap1    O  -0.800
O1006   37.996956526   23.707643176   18.037871680 XXXX 1      oap1    O  -0.800
O1007   37.992664918   16.764306841   18.035075810 XXXX 1      oap1    O  -0.800
O1008   37.928735387    9.919855087   18.218008748 XXXX 1      oap1    O  -0.800
O1013   28.811109626   29.954847444    0.134081669 XXXX 1      oap1    O  -0.800
O1014   26.898459520   24.918841537   -0.356975341 XXXX 1      oap1    O  -0.800
O1015   29.415415289   15.913173233   -0.104894065 XXXX 1      oap1    O  -0.800
O1016   27.376495521   10.487263155   -0.312204919 XXXX 1      oap1    O  -0.800
O1017   22.425624844   30.569087152    7.742251627 XXXX 1      oap1    O  -0.800
O1018   22.566558421   23.745881124    7.661092495 XXXX 1      oap1    O  -0.800
O1019   22.827335211   16.798525965    7.856974332 XXXX 1      oap1    O  -0.800
O1020   22.569528310    9.858145257    7.756049189 XXXX 1      oap1    O  -0.800
O1021   18.005396090   30.777251731   15.884599486 XXXX 1      oap1    O  -0.800
O1022   17.959609384   23.822219028   15.897014269 XXXX 1      oap1    O  -0.800
O1023   17.975794847   16.835724074   15.934202756 XXXX 1      oap1    O  -0.800
O1024   17.826033202    9.974402331   15.826583022 XXXX 1      oap1    O  -0.800
O1029   38.533587476   29.200442272   -0.075519526 XXXX 1      oap1    O  -0.800
O1030   36.794271190   24.381130584   -0.231088364 XXXX 1      oap1    O  -0.800
O1031   38.122951381   15.850064498    0.237434243 XXXX 1      oap1    O  -0.800
O1032   36.166004693   11.496665812   -0.239442378 XXXX 1      oap1    O  -0.800
O1033   32.084524716   30.579052746    7.748270494 XXXX 1      oap1    O  -0.800
O1034   31.934993245   23.367261833    7.710328716 XXXX 1      oap1    O  -0.800
O1035   31.950699407   16.797654293    7.810727410 XXXX 1      oap1    O  -0.800
O1036   32.116873306    9.708762806    7.768839089 XXXX 1      oap1    O  -0.800
O1037   27.190587694   30.556976324   15.853874983 XXXX 1      oap1    O  -0.800
O1038   27.383035323   23.821391307   16.001430042 XXXX 1      oap1    O  -0.800
O1039   27.264634816   16.774260137   15.890463423 XXXX 1      oap1    O  -0.800
O1040   27.321095951    9.870507579   15.919687488 XXXX 1      oap1    O  -0.800
O1053   36.836653398   30.604041147   15.933035933 XXXX 1      oap1    O  -0.800
O1054   36.838892446   23.671754686   15.857946804 XXXX 1      oap1    O  -0.800
O1055   36.615330263   16.834005095   15.858530266 XXXX 1      oap1    O  -0.800
O1056   36.773979352    9.990340489   15.884014052 XXXX 1      oap1    O  -0.800
Ca437   30.927164464   30.167492248    0.789768406 XXXX 1      ca+h    Ca  1.500
Ca439   31.481660706   16.120378737    0.694725591 XXXX 1      ca+h    Ca  1.500
Ca441   25.875871818   30.498632634    9.027620859 XXXX 1      ca+h    Ca  1.500
Ca442   26.136041521   23.715925833    8.994230080 XXXX 1      ca+h    Ca  1.500
Ca443   25.854189342   16.980681170    9.102853048 XXXX 1      ca+h    Ca  1.500
Ca444   26.063501156    9.947644514    8.943183727 XXXX 1      ca+h    Ca  1.500
Ca445   21.214483728   30.438377261   17.033059848 XXXX 1      ca+h    Ca  1.500
Ca446   21.255423744   23.736416169   17.074624201 XXXX 1      ca+h    Ca  1.500
Ca447   21.208622079   16.904996599   17.102863462 XXXX 1      ca+h    Ca  1.500
Ca448   21.224114425   10.085945705   16.929224075 XXXX 1      ca+h    Ca  1.500
Ca457   35.361524775   30.482608226    8.821481756 XXXX 1      ca+h    Ca  1.500
Ca458   35.432525706   23.716028740    8.928718053 XXXX 1      ca+h    Ca  1.500
Ca459   35.491675450   16.768703200    8.976170634 XXXX 1      ca+h    Ca  1.500
Ca460   35.374575528    9.789308074    8.992576830 XXXX 1      ca+h    Ca  1.500
Ca461   30.592694422   30.578451539   16.988556468 XXXX 1      ca+h    Ca  1.500
Ca462   30.615095681   23.725439392   17.188088899 XXXX 1      ca+h    Ca  1.500
Ca463   30.670944475   16.905621687   17.171429121 XXXX 1      ca+h    Ca  1.500
Ca464   30.597976388   10.044072011   17.128194484 XXXX 1      ca+h    Ca  1.500
P245    30.759232565   30.433338198    4.018750427 XXXX 1      pap     P   1.000
P246    31.053750905   23.569522553    3.830198539 XXXX 1      pap     P   1.000
P247    31.052767031   16.783015193    3.941043570 XXXX 1      pap     P   1.000
P248    31.007695520    9.761025360    3.876294279 XXXX 1      pap     P   1.000
P249    26.241529030   30.410114777   12.076371791 XXXX 1      pap     P   1.000
P250    26.334237951   23.667739186   12.077990660 XXXX 1      pap     P   1.000
P251    26.279937196   16.843392664   12.198344032 XXXX 1      pap     P   1.000
P252    26.190551738    9.914376455   11.965839775 XXXX 1      pap     P   1.000
P253    21.545273867   30.586060332   20.199404281 XXXX 1      pap     P   1.000
P254    21.515659618   23.715874334   20.162879947 XXXX 1      pap     P   1.000
P255    21.529756480   16.895993254   20.197730681 XXXX 1      pap     P   1.000
P256    21.517457842   10.015558525   20.125636311 XXXX 1      pap     P   1.000
P265    35.716638128   30.543930302   12.157772036 XXXX 1      pap     P   1.000
P266    35.737275241   23.671810439   12.028287341 XXXX 1      pap     P   1.000
P267    35.667507091   16.822478932   12.270465827 XXXX 1      pap     P   1.000
P268    35.701982642   10.032299488   12.046728491 XXXX 1      pap     P   1.000
P269    30.874678307   30.556637238   20.175976617 XXXX 1      pap     P   1.000
P270    30.998856345   23.751854376   20.235282332 XXXX 1      pap     P   1.000
P271    31.025429390   16.838092620   20.291537484 XXXX 1      pap     P   1.000
P272    30.909313336    9.987783827   20.358113072 XXXX 1      pap     P   1.000
O1061   29.567632018   30.435900313    4.948654299 XXXX 1      oap1    O  -0.800
O1062   29.720103225   23.598779623    4.573898071 XXXX 1      oap1    O  -0.800
O1063   29.752476380   16.584640753    4.798989183 XXXX 1      oap1    O  -0.800
O1064   29.533174282    9.918201895    4.445502014 XXXX 1      oap1    O  -0.800
O1065   24.944444921   30.642671245   12.762289696 XXXX 1      oap1    O  -0.800
O1066   24.986040022   23.682036546   12.772994673 XXXX 1      oap1    O  -0.800
O1067   24.918005824   16.689622041   12.965298810 XXXX 1      oap1    O  -0.800
O1068   24.933238178    9.838318391   12.844453197 XXXX 1      oap1    O  -0.800
O1069   20.271064881   30.602104804   20.990692528 XXXX 1      oap1    O  -0.800
O1070   20.212064530   23.707052628   20.990600115 XXXX 1      oap1    O  -0.800
O1071   20.198783955   17.113346846   20.958113357 XXXX 1      oap1    O  -0.800
O1072   20.218445033   10.252292810   20.916384786 XXXX 1      oap1    O  -0.800
O1081   34.380972412   30.533822340   12.966610469 XXXX 1      oap1    O  -0.800
O1082   34.420688048   23.556334335   12.811766133 XXXX 1      oap1    O  -0.800
O1083   34.369302247   17.013460095   13.075356957 XXXX 1      oap1    O  -0.800
O1084   34.295618212    9.978119264   12.658177428 XXXX 1      oap1    O  -0.800
O1085   29.556822980   30.737377102   21.024149025 XXXX 1      oap1    O  -0.800
O1086   29.615337070   23.886477694   20.941542498 XXXX 1      oap1    O  -0.800
O1087   29.729962214   16.859448620   21.085364518 XXXX 1      oap1    O  -0.800
O1088   29.555632888    9.812457667   21.073134638 XXXX 1      oap1    O  -0.800
O1109   32.078148019   30.545310325    4.816786706 XXXX 1      oap1    O  -0.800
O1110   32.127962644   23.723360217    4.892285379 XXXX 1      oap1    O  -0.800
O1111   32.312616219   16.939957236    4.827994055 XXXX 1      oap1    O  -0.800
O1112   32.064931532    9.917493231    5.041644176 XXXX 1      oap1    O  -0.800
O1113   27.471728026   30.433290835   13.029334877 XXXX 1      oap1    O  -0.800
O1114   27.502893390   23.662447246   13.031516863 XXXX 1      oap1    O  -0.800
O1115   27.545601043   16.827556341   13.046729745 XXXX 1      oap1    O  -0.800
O1116   27.487357096    9.990687047   12.807335746 XXXX 1      oap1    O  -0.800
O1117   22.785318801   30.587847465   21.070620349 XXXX 1      oap1    O  -0.800
O1118   22.779800644   23.703269493   21.053814900 XXXX 1      oap1    O  -0.800
O1119   22.851070699   16.861424306   21.040894803 XXXX 1      oap1    O  -0.800
O1120   22.768821805    9.941348440   21.049831674 XXXX 1      oap1    O  -0.800
O1129   36.972006551   30.552216010   13.025489544 XXXX 1      oap1    O  -0.800
O1130   37.019973105   23.690946119   12.949817957 XXXX 1      oap1    O  -0.800
O1131   36.968668876   16.704513042   13.037136715 XXXX 1      oap1    O  -0.800
O1132   36.806445435    9.986404264   13.135844553 XXXX 1      oap1    O  -0.800
O1133   32.097491306   30.584447373   21.055739574 XXXX 1      oap1    O  -0.800
O1134   32.142156439   23.683714276   21.229864333 XXXX 1      oap1    O  -0.800
O1135   32.237066619   16.820929947   21.206268227 XXXX 1      oap1    O  -0.800
O1136   32.182474420   10.080963558   21.222999283 XXXX 1      oap1    O  -0.800
O1161   18.930483254   33.421690572    9.098566412 XXXX 1      oap2    O  -1.100
O1162   18.731821994   26.376446610    8.969412816 XXXX 1      oap2    O  -1.100
O1163   18.762488791   19.555308221    9.093240719 XXXX 1      oap2    O  -1.100
O1164   18.722855783   12.918765852    9.126118686 XXXX 1      oap2    O  -1.100
O1165   14.187424470   33.601671476   17.199431502 XXXX 1      oap2    O  -1.100
O1166   14.027160268   26.500505190   17.277308460 XXXX 1      oap2    O  -1.100
O1167   14.087975852   19.357979177   17.142020605 XXXX 1      oap2    O  -1.100
O1168   14.101222465   13.015431999   17.186015582 XXXX 1      oap2    O  -1.100
O1177   28.304420097   33.339925255    9.011561061 XXXX 1      oap2    O  -1.100
O1178   28.338328196   26.207587808    8.987375922 XXXX 1      oap2    O  -1.100
O1179   28.353425587   19.480728235    9.042153858 XXXX 1      oap2    O  -1.100
O1180   28.167114817   12.704415126    9.074012782 XXXX 1      oap2    O  -1.100
O1181   23.500796298   33.272069950   17.361889413 XXXX 1      oap2    O  -1.100
O1182   23.557990552   26.353074506   17.228687065 XXXX 1      oap2    O  -1.100
O1183   23.627992811   19.550129893   17.280574064 XXXX 1      oap2    O  -1.100
O1184   23.569450768   12.560550000   17.235167290 XXXX 1      oap2    O  -1.100
O1197   32.956190432   33.219675731   17.066443621 XXXX 1      oap2    O  -1.100
O1198   32.927039654   26.319146383   17.080926325 XXXX 1      oap2    O  -1.100
O1199   32.971954227   19.470411405   17.275638883 XXXX 1      oap2    O  -1.100
O1200   32.942985016   12.826161789   17.300002522 XXXX 1      oap2    O  -1.100
O1205   23.377338503   31.888219993    0.970954352 XXXX 1      oap2    O  -1.100
O1206   22.980317294   28.178069110    0.934516230 XXXX 1      oap2    O  -1.100
O1207   23.176822208   18.271692586    1.098507769 XXXX 1      oap2    O  -1.100
O1208   23.287161389   15.026944239    1.114481861 XXXX 1      oap2    O  -1.100
O1209   18.689139066   29.879369851    9.072345692 XXXX 1      oap2    O  -1.100
O1210   18.737806515   23.339288688    9.030828487 XXXX 1      oap2    O  -1.100
O1211   18.852357048   16.121604500    8.946670992 XXXX 1      oap2    O  -1.100
O1212   18.989673659    9.496152295    9.109177411 XXXX 1      oap2    O  -1.100
O1213   14.058521363   30.075296671   17.094556670 XXXX 1      oap2    O  -1.100
O1214   14.166769403   23.584828872   17.198799418 XXXX 1      oap2    O  -1.100
O1215   14.083972028   16.138422794   17.088229214 XXXX 1      oap2    O  -1.100
O1216   13.991579899    9.297663113   17.152804918 XXXX 1      oap2    O  -1.100
O1221   32.553546431   32.021907768    1.079019247 XXXX 1      oap2    O  -1.100
O1222   32.937662968   28.701640678    1.140648725 XXXX 1      oap2    O  -1.100
O1223   33.044706635   17.851243133    1.229583864 XXXX 1      oap2    O  -1.100
O1224   32.740745288   13.959969759    0.646713253 XXXX 1      oap2    O  -1.100
O1225   28.211685184   29.783643995    8.978189084 XXXX 1      oap2    O  -1.100
O1226   28.319176086   22.829950258    8.853506355 XXXX 1      oap2    O  -1.100
O1227   28.014617822   16.091483881    8.978902098 XXXX 1      oap2    O  -1.100
O1228   28.266244158    9.053160087    8.908105297 XXXX 1      oap2    O  -1.100
O1229   23.487860695   29.557587674   17.191900061 XXXX 1      oap2    O  -1.100
O1230   23.606105439   23.082238546   17.156548791 XXXX 1      oap2    O  -1.100
O1231   23.486783207   16.041240932   17.178158761 XXXX 1      oap2    O  -1.100
O1232   23.487731823    9.213565459   17.243258048 XXXX 1      oap2    O  -1.100
O1245   32.867863116   29.856804331   17.278213642 XXXX 1      oap2    O  -1.100
O1246   32.982204786   23.035047792   17.097849612 XXXX 1      oap2    O  -1.100
O1247   32.967062143   15.969900271   17.164215075 XXXX 1      oap2    O  -1.100
O1248   32.948075583    9.510414150   17.128188190 XXXX 1      oap2    O  -1.100
H9      19.152459534   32.906121790    9.845784369 XXXX 1      hop     H   0.200
H10     18.739765609   25.414522654    8.842911327 XXXX 1      hop     H   0.200
H11     18.570894273   18.566857625    9.181976080 XXXX 1      hop     H   0.200
H12     18.811673638   11.940288935    8.989714787 XXXX 1      hop     H   0.200
H13     14.186190964   32.667465769   17.222276055 XXXX 1      hop     H   0.200
H14     14.358200188   25.648872268   17.592292845 XXXX 1      hop     H   0.200
H15     13.881039824   18.557551098   16.650952916 XXXX 1      hop     H   0.200
H16     14.128844123   12.070581947   17.132648345 XXXX 1      hop     H   0.200
H25     28.335929395   32.367113625    8.877940428 XXXX 1      hop     H   0.200
H26     28.541403223   25.451992190    8.401524459 XXXX 1      hop     H   0.200
H27     28.524714686   18.577691282    8.645753016 XXXX 1      hop     H   0.200
H28     28.444869426   11.824921071    8.897050146 XXXX 1      hop     H   0.200
H29     23.652087676   32.449896122   17.786245293 XXXX 1      hop     H   0.200
H30     23.695324112   25.464347614   16.914735803 XXXX 1      hop     H   0.200
H31     24.169560262   18.786189567   17.128324068 XXXX 1      hop     H   0.200
H32     23.297539167   11.695687946   17.096691102 XXXX 1      hop     H   0.200
H45     33.516753354   32.901920894   16.309858907 XXXX 1      hop     H   0.200
H46     32.712246565   25.362726809   17.263664259 XXXX 1      hop     H   0.200
H47     32.584816467   18.639190474   17.251633344 XXXX 1      hop     H   0.200
H48     32.935153072   11.860393771   17.169518489 XXXX 1      hop     H   0.200
H53     23.760409090   32.515453232    0.341480291 XXXX 1      hop     H   0.200
H54     22.607693811   27.709437136    0.234605049 XXXX 1      hop     H   0.200
H55     23.639224001   18.794635241    0.403386737 XXXX 1      hop     H   0.200
H56     23.628983907   14.841168663    0.207672702 XXXX 1      hop     H   0.200
H57     19.127456090   29.057218755    9.082398566 XXXX 1      hop     H   0.200
H58     18.669987167   22.501501883    8.632840605 XXXX 1      hop     H   0.200
H59     19.056867004   15.249592018    9.102368476 XXXX 1      hop     H   0.200
H60     18.815927057    8.750636427    8.521739313 XXXX 1      hop     H   0.200
H61     14.333920577   29.301457672   17.554259955 XXXX 1      hop     H   0.200
H62     14.196240870   24.552998884   17.044743158 XXXX 1      hop     H   0.200
H63     14.165781138   15.199819402   16.848353757 XXXX 1      hop     H   0.200
H64     14.452067852    8.499118679   17.332701467 XXXX 1      hop     H   0.200
H69     32.955987771   32.022654374    0.286628531 XXXX 1      hop     H   0.200
H70     33.832272307   28.551533274    0.749940765 XXXX 1      hop     H   0.200
H71     33.810753055   17.812123006    0.612672910 XXXX 1      hop     H   0.200
H72     32.623431431   13.151432759    0.095328600 XXXX 1      hop     H   0.200
H73     27.939140865   28.931863235    8.644337101 XXXX 1      hop     H   0.200
H74     28.306302092   21.930227274    9.183316350 XXXX 1      hop     H   0.200
H75     27.510181928   15.368411244    9.313089555 XXXX 1      hop     H   0.200
H76     28.390432710    8.138352586    9.053701193 XXXX 1      hop     H   0.200
H77     23.000622223   28.783269788   17.359219807 XXXX 1      hop     H   0.200
H78     23.051833760   22.337805982   17.076270861 XXXX 1      hop     H   0.200
H79     23.234154627   15.202230155   17.590828324 XXXX 1      hop     H   0.200
H80     23.538781858    8.437374858   17.793539065 XXXX 1      hop     H   0.200
H93     33.017325207   28.931680570   17.018698417 XXXX 1      hop     H   0.200
H94     32.924793692   22.133228792   17.389832124 XXXX 1      hop     H   0.200
H95     33.396436258   15.143196448   17.331533292 XXXX 1      hop     H   0.200
H96     32.624093593    8.646307372   16.947169680 XXXX 1      hop     H   0.200
end
O5      24.674487647    7.703916779    3.679555930 XXXX 1      oap1    O  -0.800
O9      19.734158055    7.641419080   11.806629919 XXXX 1      oap1    O  -0.800
O13     14.933491668    7.836700604   19.955891909 XXXX 1      oap1    O  -0.800
O21     33.896083006    7.756314986    3.895308987 XXXX 1      oap1    O  -0.800
O25     29.059839936    7.661595383   11.817137224 XXXX 1      oap1    O  -0.800
O29     24.206472426    7.741705359   19.867299773 XXXX 1      oap1    O  -0.800
O45     33.643481951    7.775232414   19.914398507 XXXX 1      oap1    O  -0.800
O53     25.598196272    7.671085468    8.372523279 XXXX 1      oap1    O  -0.800
O57     20.803758363    7.760314230   16.418268026 XXXX 1      oap1    O  -0.800
O61     16.071024556    7.747601024   24.673985768 XXXX 1      oap1    O  -0.800
O69     34.756818926    7.678264970    8.223518554 XXXX 1      oap1    O  -0.800
O73     30.131114917    7.846705597   16.379068176 XXXX 1      oap1    O  -0.800
O77     25.430250633    7.914540002   24.742356021 XXXX 1      oap1    O  -0.800
O93     34.673562997    7.906490135   24.531929175 XXXX 1      oap1    O  -0.800
O101    20.836473046    7.681416287    7.114660261 XXXX 1      oap1    O  -0.800
O105    15.951964300    7.828415939   14.955175276 XXXX 1      oap1    O  -0.800
O109    11.235553727    7.604565563   23.146561232 XXXX 1      oap1    O  -0.800
O117    30.324985385    7.691338102    6.816007728 XXXX 1      oap1    O  -0.800
O121    25.756664885    7.723798248   15.207695987 XXXX 1      oap1    O  -0.800
O125    21.006317826    7.931127614   23.194171720 XXXX 1      oap1    O  -0.800
O137    35.213224222    7.784754603   14.951264124 XXXX 1      oap1    O  -0.800
O141    29.705124733    7.613699136   23.402726486 XXXX 1      oap1    O  -0.800
O149    27.504754310    4.222611989    6.081324131 XXXX 1      oap1    O  -0.800
O153    22.757215251    4.258568173   14.441697705 XXXX 1      oap1    O  -0.800
O157    17.888825213    4.284231877   22.883211212 XXXX 1      oap1    O  -0.800
O165    36.973486854    4.197789837    6.086999516 XXXX 1      oap1    O  -0.800
O169    32.151090470    4.421648143   14.446972608 XXXX 1      oap1    O  -0.800
O173    27.463474279    4.404721138   22.569762539 XXXX 1      oap1    O  -0.800
O189    36.807147084    4.296966316   22.754015847 XXXX 1      oap1    O  -0.800
O197    26.474861134    1.912256277    1.093062526 XXXX 1      oap1    O  -0.800
O201    21.667652786    4.260540306    9.593441173 XXXX 1      oap1    O  -0.800
O205    17.006295188    4.300995322   17.807683695 XXXX 1      oap1    O  -0.800
O213    37.783363067    3.154466985    2.024654690 XXXX 1      oap1    O  -0.800
O217    30.904319912    4.206647892    9.667706826 XXXX 1      oap1    O  -0.800
O221    26.329230286    4.278089428   17.785605310 XXXX 1      oap1    O  -0.800
O237    35.743457151    4.271204154   18.126685853 XXXX 1      oap1    O  -0.800
O245    30.666695596    4.382400616    3.190110724 XXXX 1      oap1    O  -0.800
O249    26.344407603    4.171374175   11.190060084 XXXX 1      oap1    O  -0.800
O253    21.614796663    4.325094971   19.321333844 XXXX 1      oap1    O  -0.800
O265    35.370639961    4.354978818   11.165839807 XXXX 1      oap1    O  -0.800
O269    30.907573115    4.440373429   19.265317750 XXXX 1      oap1    O  -0.800
O293    27.331675682    1.773688299    6.222197818 XXXX 1      oap1    O  -0.800
O297    22.876353081    1.800282715   14.204068612 XXXX 1      oap1    O  -0.800
O301    17.960942122    1.850444653   22.317666204 XXXX 1      oap1    O  -0.800
O309    36.713441208    1.702648939    6.044825678 XXXX 1      oap1    O  -0.800
O313    32.309302471    2.007085001   14.411779880 XXXX 1      oap1    O  -0.800
O317    27.435239936    1.812187896   22.127845121 XXXX 1      oap1    O  -0.800
O333    36.742018707    1.895802480   22.304302884 XXXX 1      oap1    O  -0.800
O341    28.766828288    0.848368097    1.627175135 XXXX 1      oap1    O  -0.800
O345    21.895503592    1.828742500    9.764590945 XXXX 1      oap1    O  -0.800
O349    17.140340607    1.878946260   17.894914055 XXXX 1      oap1    O  -0.800
O357    35.681195238    2.167665097    1.061609331 XXXX 1      oap1    O  -0.800
O361    31.270085600    1.755383250    9.782509242 XXXX 1      oap1    O  -0.800
O365    26.383729011    1.805321233   17.874558321 XXXX 1      oap1    O  -0.800
O381    35.672249007    1.947968425   17.789675991 XXXX 1      oap1    O  -0.800
O389    31.243174097    1.989112266    2.691946600 XXXX 1      oap1    O  -0.800
O393    26.205728372    1.760168832   11.169835273 XXXX 1      oap1    O  -0.800
O397    21.476647607    1.885104866   19.435688693 XXXX 1      oap1    O  -0.800
O409    35.435738311    1.847064328   11.183206736 XXXX 1      oap1    O  -0.800
O413    30.913697048    1.948931525   19.292918749 XXXX 1      oap1    O  -0.800
O437    24.428727501    5.209047844    3.431860553 XXXX 1      oap1    O  -0.800
O441    19.590106145    5.210354842   12.027624534 XXXX 1      oap1    O  -0.800
O445    14.990912074    5.363802648   19.998239225 XXXX 1      oap1    O  -0.800
O453    33.961035427    5.154300250    3.491298886 XXXX 1      oap1    O  -0.800
O457    29.121789732    5.179258788   11.955423263 XXXX 1      oap1    O  -0.800
O461    24.433045288    5.368981786   20.011051660 XXXX 1      oap1    O  -0.800
O477    33.781086857    5.299009036   20.084040187 XXXX 1      oap1    O  -0.800
O485    25.438112406    5.185888198    8.308089267 XXXX 1      oap1    O  -0.800
O489    20.577710564    5.302480142   16.568786355 XXXX 1      oap1    O  -0.800
O493    15.953894870    5.296463117   24.616938337 XXXX 1      oap1    O  -0.800
O501    34.873617989    5.239479208    8.453260531 XXXX 1      oap1    O  -0.800
O505    30.215409920    5.399507441   16.591534117 XXXX 1      oap1    O  -0.800
O509    25.395256515    5.394798175   24.588102385 XXXX 1      oap1    O  -0.800
O525    34.808712693    5.449546314   24.621377665 XXXX 1      oap1    O  -0.800
O533    21.273549085    5.325850178    6.822390586 XXXX 1      oap1    O  -0.800
O537    16.207909617    5.391763728   15.208460005 XXXX 1      oap1    O  -0.800
O541    11.663765799    5.169543696   22.986343327 XXXX 1      oap1    O  -0.800
O549    30.232542229    5.191216290    6.892642153 XXXX 1      oap1    O  -0.800
O553    25.794474827    5.192973416   14.974665269 XXXX 1      oap1    O  -0.800
O557    20.887658257    5.580763410   23.289804047 XXXX 1      oap1    O  -0.800
O569    34.840866268    5.330524787   15.138012347 XXXX 1      oap1    O  -0.800
O573    30.131062454    5.306382772   23.198732002 XXXX 1      oap1    O  -0.800
Ca5     28.096722204    8.215651103    3.536300995 XXXX 1      ca+h    Ca  1.500
Ca9     23.637527969    8.174125957   11.811804676 XXXX 1      ca+h    Ca  1.500
Ca13    18.841678910    8.539993566   19.839254452 XXXX 1      ca+h    Ca  1.500
Ca25    32.849456139    8.240234702   11.739633517 XXXX 1      ca+h    Ca  1.500
Ca29    28.111613429    8.363596679   19.967945197 XXXX 1      ca+h    Ca  1.500
Ca53    23.578587622    4.787345934    6.282103779 XXXX 1      ca+h    Ca  1.500
Ca57    19.121582352    4.762204047   14.483622393 XXXX 1      ca+h    Ca  1.500
Ca61    14.188975892    4.801010684   22.483072601 XXXX 1      ca+h    Ca  1.500
Ca69    32.972114160    4.668941853    6.272848625 XXXX 1      ca+h    Ca  1.500
Ca73    28.256439941    4.684068310   14.424567757 XXXX 1      ca+h    Ca  1.500
Ca77    23.664543985    4.871213973   22.607806215 XXXX 1      ca+h    Ca  1.500
Ca93    33.021169170    4.958413835   22.568578178 XXXX 1      ca+h    Ca  1.500
Ca101   23.501364074    1.321885932    6.272072829 XXXX 1      ca+h    Ca  1.500
Ca105   18.797500777    1.351797850   14.417657894 XXXX 1      ca+h    Ca  1.500
Ca109   13.957775230    1.476259173   22.670327542 XXXX 1      ca+h    Ca  1.500
Ca117   33.008604357    1.302028710    6.459948306 XXXX 1      ca+h    Ca  1.500
Ca121   28.197998865    1.325459320   14.554918404 XXXX 1      ca+h    Ca  1.500
Ca125   23.584019315    1.400614171   22.632208212 XXXX 1      ca+h    Ca  1.500
Ca141   32.954709122    1.354373235   22.525066973 XXXX 1      ca+h    Ca  1.500
Ca149   28.319414824    4.624904258    3.759045146 XXXX 1      ca+h    Ca  1.500
Ca153   23.734816347    4.779656237   11.806437812 XXXX 1      ca+h    Ca  1.500
Ca157   18.885760948    5.015497518   19.948527554 XXXX 1      ca+h    Ca  1.500
Ca169   33.024760665    4.919741191   11.786486036 XXXX 1      ca+h    Ca  1.500
Ca173   28.245831825    4.755441681   19.812120893 XXXX 1      ca+h    Ca  1.500
Ca197   22.471054372    6.629083346    2.944905785 XXXX 1      ca+h    Ca  1.500
Ca201   17.642114483    6.683435522   11.030621883 XXXX 1      ca+h    Ca  1.500
Ca205   12.894193912    6.621979049   19.114934267 XXXX 1      ca+h    Ca  1.500
Ca213   31.996926108    6.281107294    2.815435137 XXXX 1      ca+h    Ca  1.500
Ca217   27.007084810    6.410087776   11.066787036 XXXX 1      ca+h    Ca  1.500
Ca221   22.268508621    6.674463255   19.015590890 XXXX 1      ca+h    Ca  1.500
Ca233   36.355204504    6.537613569   10.957469861 XXXX 1      ca+h    Ca  1.500
Ca237   31.646370786    6.575685392   19.151214392 XXXX 1      ca+h    Ca  1.500
P5      25.280205783    6.338638062    4.088459114 XXXX 1      pap     P   1.000
P9      20.512323485    6.425923658   12.337527175 XXXX 1      pap     P   1.000
P13     15.746612412    6.605259533   20.386029990 XXXX 1      pap     P   1.000
P21     34.707737373    6.384510690    4.084748623 XXXX 1      pap     P   1.000
P25     29.880728337    6.483816173   12.303407325 XXXX 1      pap     P   1.000
P29     25.153516692    6.631148413   20.384363938 XXXX 1      pap     P   1.000
P45     34.506527777    6.591057938   20.402127014 XXXX 1      pap     P   1.000
O581    25.215889432    6.282822414    5.609973787 XXXX 1      oap1    O  -0.800
O585    20.563715062    6.501867512   13.874944183 XXXX 1      oap1    O  -0.800
O589    15.779069662    6.553250416   21.923664877 XXXX 1      oap1    O  -0.800
O597    34.725408301    6.200666635    5.710899807 XXXX 1      oap1    O  -0.800
O601    29.918978252    6.481425682   13.842777218 XXXX 1      oap1    O  -0.800
O605    25.278864783    6.706752493   21.936398173 XXXX 1      oap1    O  -0.800
O621    34.613355775    6.603038866   21.903571950 XXXX 1      oap1    O  -0.800
O629    26.734018076    6.334209833    3.608524102 XXXX 1      oap1    O  -0.800
O633    21.898543477    6.300364516   11.611600777 XXXX 1      oap1    O  -0.800
O637    17.191661745    6.558571533   19.816256104 XXXX 1      oap1    O  -0.800
O645    36.180776236    6.470705424    3.642695246 XXXX 1      oap1    O  -0.800
O649    31.279227086    6.518094007   11.729963482 XXXX 1      oap1    O  -0.800
O653    26.508279102    6.549117778   19.669019882 XXXX 1      oap1    O  -0.800
O669    35.951702340    6.597717551   19.755231705 XXXX 1      oap1    O  -0.800
Ca245   27.245988262    6.639139884    6.996455089 XXXX 1      ca+h    Ca  1.500
Ca249   22.550694767    6.551440963   15.097309294 XXXX 1      ca+h    Ca  1.500
Ca253   17.788237179    6.574825126   23.251875153 XXXX 1      ca+h    Ca  1.500
Ca261   36.748527096    6.389567153    6.895273690 XXXX 1      ca+h    Ca  1.500
Ca265   31.914935694    6.539997073   15.134757049 XXXX 1      ca+h    Ca  1.500
Ca269   27.314068879    6.743617379   23.428264079 XXXX 1      ca+h    Ca  1.500
Ca285   36.457486510    6.533686710   23.317409485 XXXX 1      ca+h    Ca  1.500
P53     24.778894274    6.435473090    8.771350638 XXXX 1      pap     P   1.000
P57     19.932907941    6.629173375   16.950161989 XXXX 1      pap     P   1.000
P61     15.257945060    6.527141097   25.152862246 XXXX 1      pap     P   1.000
P69     34.011775532    6.498393117    8.746190411 XXXX 1      pap     P   1.000
P73     29.375364977    6.637123394   16.953887169 XXXX 1      pap     P   1.000
P77     24.708061606    6.630126757   25.145315273 XXXX 1      pap     P   1.000
P93     33.962182560    6.636871401   25.070624646 XXXX 1      pap     P   1.000
O677    23.429873023    6.557240017    8.050498617 XXXX 1      oap1    O  -0.800
O681    18.651678594    6.769302963   16.157937744 XXXX 1      oap1    O  -0.800
O685    13.869857323    6.665623781   24.440502581 XXXX 1      oap1    O  -0.800
O693    32.680546116    6.355847171    8.017668871 XXXX 1      oap1    O  -0.800
O697    28.037136558    6.516482069   16.131186105 XXXX 1      oap1    O  -0.800
O701    23.344970561    6.596663959   24.391209177 XXXX 1      oap1    O  -0.800
O717    32.632093957    6.486840410   24.339652504 XXXX 1      oap1    O  -0.800
O725    24.568438895    6.432308578   10.332333494 XXXX 1      oap1    O  -0.800
O729    19.777224710    6.700515929   18.453819106 XXXX 1      oap1    O  -0.800
O733    15.109467868    6.470145466   26.752837683 XXXX 1      oap1    O  -0.800
O741    33.793817756    6.713041539   10.253808984 XXXX 1      oap1    O  -0.800
O745    29.174052268    6.758286556   18.446852494 XXXX 1      oap1    O  -0.800
O749    24.525349889    6.637814080   26.696014375 XXXX 1      oap1    O  -0.800
O765    33.872665681    6.575674917   26.616846518 XXXX 1      oap1    O  -0.800
Ca293   21.279908231    6.492427293    9.268609330 XXXX 1      ca+h    Ca  1.500
Ca297   16.533836515    6.508668058   17.287403147 XXXX 1      ca+h    Ca  1.500
Ca301   11.765987210    6.621601690   25.334272852 XXXX 1      ca+h    Ca  1.500
Ca309   30.529732734    6.472284590    9.167485092 XXXX 1      ca+h    Ca  1.500
Ca313   25.973771422    6.571441892   17.244179795 XXXX 1      ca+h    Ca  1.500
Ca317   21.175819741    6.639000384   25.364605387 XXXX 1      ca+h    Ca  1.500
Ca329   35.307204095    6.490059641   17.181489289 XXXX 1      ca+h    Ca  1.500
Ca333   30.412292187    6.424221361   25.398476504 XXXX 1      ca+h    Ca  1.500
P101    21.067993394    6.577948465    6.100269458 XXXX 1      pap     P   1.000
P105    16.177273561    6.518333442   14.189068361 XXXX 1      pap     P   1.000
P109    11.403040818    6.425403035   22.171685688 XXXX 1      pap     P   1.000
P117    30.343462032    6.444974166    5.963058061 XXXX 1      pap     P   1.000
P121    25.735780625    6.515504586   14.210849236 XXXX 1      pap     P   1.000
P125    20.828667895    6.743447055   22.295158216 XXXX 1      pap     P   1.000
P137    35.038509339    6.494599596   14.152244275 XXXX 1      pap     P   1.000
P141    30.140347457    6.540524653   22.345800081 XXXX 1      pap     P   1.000
O773    22.362311393    6.747751359    5.174528566 XXXX 1      oap1    O  -0.800
O777    17.570889567    6.562554670   13.491286051 XXXX 1      oap1    O  -0.800
O781    12.755044476    6.608651339   21.392557234 XXXX 1      oap1    O  -0.800
O789    31.680719628    6.390824044    5.174303726 XXXX 1      oap1    O  -0.800
O793    26.999806932    6.553982090   13.398846359 XXXX 1      oap1    O  -0.800
O797    22.108476770    6.651357603   21.461793014 XXXX 1      oap1    O  -0.800
O809    36.288074807    6.322387254   13.342670787 XXXX 1      oap1    O  -0.800
O813    31.496432205    6.895319892   21.741627638 XXXX 1      oap1    O  -0.800
O821    19.794471104    6.396273576    5.256812181 XXXX 1      oap1    O  -0.800
O825    15.079787026    6.495730917   13.133585159 XXXX 1      oap1    O  -0.800
O829    10.135453820    6.393590709   21.320086391 XXXX 1      oap1    O  -0.800
O837    29.092252984    6.503112400    5.015332309 XXXX 1      oap1    O  -0.800
O841    24.436144315    6.570163501   13.356957086 XXXX 1      oap1    O  -0.800
O845    19.501546176    6.708857660   21.477942687 XXXX 1      oap1    O  -0.800
O857    33.793487309    6.670714581   13.287858181 XXXX 1      oap1    O  -0.800
O861    29.104229290    6.460666833   21.257912461 XXXX 1      oap1    O  -0.800
Ca341   29.527860353    3.023106050    7.062817287 XXXX 1      ca+h    Ca  1.500
Ca345   24.772697004    3.013004442   15.293429554 XXXX 1      ca+h    Ca  1.500
Ca349   20.132939899    3.220875228   23.395982966 XXXX 1      ca+h    Ca  1.500
Ca361   34.362636949    3.060624891   15.347306559 XXXX 1      ca+h    Ca  1.500
Ca365   29.378894831    2.980877845   23.284901874 XXXX 1      ca+h    Ca  1.500
P149    26.648675695    3.000697118    5.667773100 XXXX 1      pap     P   1.000
P153    22.061199966    3.032692399   13.824413249 XXXX 1      pap     P   1.000
P157    17.168789578    3.111050209   22.158883161 XXXX 1      pap     P   1.000
P165    36.010521154    3.049115916    5.681279484 XXXX 1      pap     P   1.000
P169    31.403421506    3.172045384   14.011943675 XXXX 1      pap     P   1.000
P173    26.693354536    3.174264571   21.995634076 XXXX 1      pap     P   1.000
P189    35.942964423    3.163097894   22.166014460 XXXX 1      pap     P   1.000
O869    26.569721328    2.962975166    4.144309839 XXXX 1      oap1    O  -0.800
O873    22.102189854    3.209531408   12.296147425 XXXX 1      oap1    O  -0.800
O877    17.185732666    3.400581444   20.681469145 XXXX 1      oap1    O  -0.800
O885    35.866896255    2.990473082    4.156463399 XXXX 1      oap1    O  -0.800
O889    31.321571289    3.140795593   12.418225410 XXXX 1      oap1    O  -0.800
O893    26.493541186    3.325214866   20.457492790 XXXX 1      oap1    O  -0.800
O909    35.801786325    3.334694808   20.647616960 XXXX 1      oap1    O  -0.800
O917    25.279747149    3.070850332    6.316753090 XXXX 1      oap1    O  -0.800
O921    20.600446071    2.985560092   14.427968082 XXXX 1      oap1    O  -0.800
O925    15.733472760    3.063640961   22.729060156 XXXX 1      oap1    O  -0.800
O933    34.681227931    3.090870536    6.439126633 XXXX 1      oap1    O  -0.800
O937    29.979060149    2.945530406   14.611105640 XXXX 1      oap1    O  -0.800
O941    25.364394411    3.109907984   22.785643998 XXXX 1      oap1    O  -0.800
O957    34.573307012    3.126317623   22.848868089 XXXX 1      oap1    O  -0.800
Ca389   24.789952868    2.720933746    2.560855629 XXXX 1      ca+h    Ca  1.500
Ca393   20.076752378    3.137161074   11.103745965 XXXX 1      ca+h    Ca  1.500
Ca397   15.388836298    3.224343791   19.231033069 XXXX 1      ca+h    Ca  1.500
Ca405   33.995683060    3.015744952    2.501823966 XXXX 1      ca+h    Ca  1.500
Ca409   29.299017700    2.964064037   10.970935555 XXXX 1      ca+h    Ca  1.500
Ca413   24.603630446    3.150710546   19.251070285 XXXX 1      ca+h    Ca  1.500
Ca429   33.932454725    3.187907258   19.233558384 XXXX 1      ca+h    Ca  1.500
P197    28.038376504    2.057461530    1.011753891 XXXX 1      pap     P   1.000
P201    22.547733667    3.124793422    9.291413292 XXXX 1      pap     P   1.000
P205    17.932224582    3.105633519   17.469066397 XXXX 1      pap     P   1.000
P213    37.246287154    2.205696591    0.989911410 XXXX 1      pap     P   1.000
P217    31.784767494    3.091691763    9.212803364 XXXX 1      pap     P   1.000
P221    27.145305979    3.042467631   17.395888018 XXXX 1      pap     P   1.000
P237    36.512281075    3.163297704   17.520156467 XXXX 1      pap     P   1.000
O965    28.412524502    3.158169535    2.044457111 XXXX 1      oap1    O  -0.800
O969    23.922528387    3.273404700    9.969442304 XXXX 1      oap1    O  -0.800
O973    19.151911038    3.271868832   18.337764495 XXXX 1      oap1    O  -0.800
O981    37.914614607    0.855076313    1.481216548 XXXX 1      oap1    O  -0.800
O985    33.090723651    3.273625123    9.908069461 XXXX 1      oap1    O  -0.800
O989    28.495779308    3.084259563   18.149892652 XXXX 1      oap1    O  -0.800
O1005   37.801606110    2.946122878   18.344461226 XXXX 1      oap1    O  -0.800
O1013   28.614244609    2.506092649   -0.303248543 XXXX 1      oap1    O  -0.800
O1017   22.775268624    3.084079547    7.749089019 XXXX 1      oap1    O  -0.800
O1021   18.391364410    3.097398960   15.999117191 XXXX 1      oap1    O  -0.800
O1029   37.786279273    2.815395102   -0.303336236 XXXX 1      oap1    O  -0.800
O1033   31.926372563    3.091731134    7.685921329 XXXX 1      oap1    O  -0.800
O1037   27.364238779    3.069282889   15.871603939 XXXX 1      oap1    O  -0.800
O1053   36.856122436    3.261269675   15.998577711 XXXX 1      oap1    O  -0.800
Ca437   30.642302696    3.172344560    0.832523174 XXXX 1      ca+h    Ca  1.500
Ca441   26.045254858    3.090312852    8.889870828 XXXX 1      ca+h    Ca  1.500
Ca445   21.241350288    3.060788668   17.120139741 XXXX 1      ca+h    Ca  1.500
Ca457   35.233627511    3.059657744    8.937343484 XXXX 1      ca+h    Ca  1.500
Ca461   30.727648327    3.177983886   17.095267866 XXXX 1      ca+h    Ca  1.500
P245    31.116442034    3.053905123    3.810520070 XXXX 1      pap     P   1.000
P249    26.333816651    2.968514154   12.083543012 XXXX 1      pap     P   1.000
P253    21.565931232    3.164515741   20.286246522 XXXX 1      pap     P   1.000
P265    35.636720118    3.114642292   12.023827979 XXXX 1      pap     P   1.000
P269    30.929862462    3.187867408   20.168649005 XXXX 1      pap     P   1.000
O1061   30.005134035    2.757552795    4.810791934 XXXX 1      oap1    O  -0.800
O1065   25.111079393    3.031076550   13.009776113 XXXX 1      oap1    O  -0.800
O1069   20.218942429    3.315570880   21.102372842 XXXX 1      oap1    O  -0.800
O1081   34.487385029    3.017016032   13.020875509 XXXX 1      oap1    O  -0.800
O1085   29.570463387    3.103409939   20.941304299 XXXX 1      oap1    O  -0.800
O1109   32.439792884    3.115530950    4.690083173 XXXX 1      oap1    O  -0.800
O1113   27.644674013    2.949004095   12.889411314 XXXX 1      oap1    O  -0.800
O1117   22.819911296    3.144171143   21.240706583 XXXX 1      oap1    O  -0.800
O1129   36.980871770    3.064686869   12.832587658 XXXX 1      oap1    O  -0.800
O1133   32.205772661    3.114326803   21.056602114 XXXX 1      oap1    O  -0.800
O1161   18.865415557    5.957823720    9.022763625 XXXX 1      oap2    O  -1.100
O1165   14.208024918    5.894741289   17.302992832 XXXX 1      oap2    O  -1.100
O1177   28.134215725    5.846190822    9.149461735 XXXX 1      oap2    O  -1.100
O1181   23.548590647    5.911470921   17.166246009 XXXX 1      oap2    O  -1.100
O1197   32.945923124    5.955011279   17.172626612 XXXX 1      oap2    O  -1.100
O1205   23.060725251    1.538789994    0.931258434 XXXX 1      oap2    O  -1.100
O1209   18.794710887    2.637760727    8.972105035 XXXX 1      oap2    O  -1.100
O1213   14.281343378    2.311637461   17.175761525 XXXX 1      oap2    O  -1.100
O1221   32.507079361    4.554755646    1.140582175 XXXX 1      oap2    O  -1.100
O1225   28.305497378    2.187217060    8.928351761 XXXX 1      oap2    O  -1.100
O1229   23.491462469    2.225430649   17.205159095 XXXX 1      oap2    O  -1.100
O1245   33.018173464    2.243945417   17.250718509 XXXX 1      oap2    O  -1.100
H9      18.925898547    5.047873794    8.972983814 XXXX 1      hop     H   0.200
H13     14.248018813    4.982574670   17.466153378 XXXX 1      hop     H   0.200
H25     27.973424098    4.963505576    8.961868429 XXXX 1      hop     H   0.200
H29     23.592916196    4.987688542   17.271018317 XXXX 1      hop     H   0.200
H45     33.290263059    5.283826391   16.653442011 XXXX 1      hop     H   0.200
H53     23.180069801    1.190776376    0.073925389 XXXX 1      hop     H   0.200
H57     18.728422641    1.700807016    8.850986527 XXXX 1      hop     H   0.200
H61     14.281686716    1.385857993   16.965930798 XXXX 1      hop     H   0.200
H69     33.111804354    4.730071167    0.448311389 XXXX 1      hop     H   0.200
H73     28.628580795    1.352882268    9.225889701 XXXX 1      hop     H   0.200
H77     23.221356231    1.337602629   17.277869933 XXXX 1      hop     H   0.200
H93     32.902473367    1.338935367   17.168443631 XXXX 1      hop     H   0.200
end
O21      5.527730694   34.993935493    3.499764189 XXXX 1      oap1    O  -0.800
O22      5.522654680   28.326268085    3.702907964 XXXX 1      oap1    O  -0.800
O23      5.570533386   21.496533060    3.652994807 XXXX 1      oap1    O  -0.800
O24      5.654333236   14.659835207    3.815238622 XXXX 1      oap1    O  -0.800
O25      0.776534538   35.343191815   11.755122278 XXXX 1      oap1    O  -0.800
O26      0.915445956   28.341319800   11.848131346 XXXX 1      oap1    O  -0.800
O27      0.853822493   21.389590280   11.941992138 XXXX 1      oap1    O  -0.800
O28      0.714457783   14.493364350   11.914692384 XXXX 1      oap1    O  -0.800
O37     15.228598758   35.216709973    3.294993296 XXXX 1      oap1    O  -0.800
O38     14.970898386   28.460270563    3.838189968 XXXX 1      oap1    O  -0.800
O39     15.006719981   21.516386483    3.715115602 XXXX 1      oap1    O  -0.800
O40     15.028519410   14.828194593    3.922555900 XXXX 1      oap1    O  -0.800
O41     10.177495356   35.334234333   11.817260237 XXXX 1      oap1    O  -0.800
O42     10.095134342   28.411565298   11.847435814 XXXX 1      oap1    O  -0.800
O43     10.338548881   21.499056930   11.827110131 XXXX 1      oap1    O  -0.800
O44     10.229015506   14.582298836   11.739312389 XXXX 1      oap1    O  -0.800
O45      5.529653365   35.249366306   19.886174427 XXXX 1      oap1    O  -0.800
O46      5.529512177   28.343436500   19.932040925 XXXX 1      oap1    O  -0.800
O47      5.538399589   21.401889548   19.964083330 XXXX 1      oap1    O  -0.800
O48      5.588985535   14.560767515   19.821892476 XXXX 1      oap1    O  -0.800
O69      6.854667955   34.964565034    8.560969678 XXXX 1      oap1    O  -0.800
O70      6.987481692   28.167164853    8.565836367 XXXX 1      oap1    O  -0.800
O71      6.575284451   21.538702865    8.295165059 XXXX 1      oap1    O  -0.800
O72      6.839510123   14.373616211    8.605019526 XXXX 1      oap1    O  -0.800
O73      2.119491021   35.031329088   16.600768485 XXXX 1      oap1    O  -0.800
O74      1.887633725   28.358489339   16.494912957 XXXX 1      oap1    O  -0.800
O75      1.945720615   21.512908186   16.514486137 XXXX 1      oap1    O  -0.800
O76      1.973076307   14.588271354   16.413056383 XXXX 1      oap1    O  -0.800
O85     16.173367625   35.254538744    8.345198985 XXXX 1      oap1    O  -0.800
O86     16.251525336   28.126707744    8.606271679 XXXX 1      oap1    O  -0.800
O87     16.168410283   21.590349844    8.399225555 XXXX 1      oap1    O  -0.800
O88     15.948335184   14.628432446    8.299846750 XXXX 1      oap1    O  -0.800
O89     11.520724018   35.197352031   16.507413566 XXXX 1      oap1    O  -0.800
O90     11.560840077   28.326020116   16.725149434 XXXX 1      oap1    O  -0.800
O91     11.251791662   21.479619324   16.436399085 XXXX 1      oap1    O  -0.800
O92     11.102415987   14.731409225   16.395944374 XXXX 1      oap1    O  -0.800
O93      6.577165407   35.305970719   24.500343597 XXXX 1      oap1    O  -0.800
O94      6.527288421   28.481519325   24.691975112 XXXX 1      oap1    O  -0.800
O95      6.857934364   21.354820881   24.668159426 XXXX 1      oap1    O  -0.800
O96      6.684592470   14.494808048   24.868550575 XXXX 1      oap1    O  -0.800
O117     2.019068002   35.192890089    6.668592685 XXXX 1      oap1    O  -0.800
O118     1.942376486   28.345699131    6.752914285 XXXX 1      oap1    O  -0.800
O119     2.070938192   21.445613268    6.924459781 XXXX 1      oap1    O  -0.800
O120     2.008642472   14.480012703    6.849429426 XXXX 1      oap1    O  -0.800
O133    11.325430837   35.294519610    6.950754869 XXXX 1      oap1    O  -0.800
O134    11.314652028   28.387210229    6.746560894 XXXX 1      oap1    O  -0.800
O135    11.472695383   21.494652196    6.879386296 XXXX 1      oap1    O  -0.800
O136    11.104435858   14.545352699    7.087381729 XXXX 1      oap1    O  -0.800
O137     6.763926688   35.277363654   14.989933470 XXXX 1      oap1    O  -0.800
O138     6.577749476   28.182506006   15.182612611 XXXX 1      oap1    O  -0.800
O139     6.607318472   21.366652793   15.316310947 XXXX 1      oap1    O  -0.800
O140     6.828925325   14.518979565   15.142211343 XXXX 1      oap1    O  -0.800
O141     1.693474701   35.200661182   23.258827524 XXXX 1      oap1    O  -0.800
O142     1.715873959   28.282558721   23.329656276 XXXX 1      oap1    O  -0.800
O143     1.560827515   21.327167153   23.291673347 XXXX 1      oap1    O  -0.800
O144     1.918041966   14.543958197   23.358186074 XXXX 1      oap1    O  -0.800
O165     8.528695417   31.810198196    6.173416981 XXXX 1      oap1    O  -0.800
O166     8.553838323   24.792020712    6.518939788 XXXX 1      oap1    O  -0.800
O167     8.648968701   18.040303217    6.331666442 XXXX 1      oap1    O  -0.800
O168     8.516404234   11.063918288    6.217206931 XXXX 1      oap1    O  -0.800
O169     3.947559191   31.785017119   14.241976056 XXXX 1      oap1    O  -0.800
O170     3.917836460   24.878225855   14.408298555 XXXX 1      oap1    O  -0.800
O171     3.786226727   17.960659564   14.722632530 XXXX 1      oap1    O  -0.800
O172     3.940291110   11.172360285   14.283398568 XXXX 1      oap1    O  -0.800
O181    18.012115823   31.700256922    6.212780376 XXXX 1      oap1    O  -0.800
O182    18.145345190   24.937497765    6.022905791 XXXX 1      oap1    O  -0.800
O183    18.217956710   18.098643559    6.142663676 XXXX 1      oap1    O  -0.800
O184    18.038693921   11.149195209    6.183823886 XXXX 1      oap1    O  -0.800
O185    13.268588556   31.797077341   14.445289972 XXXX 1      oap1    O  -0.800
O186    13.438396451   24.946578561   14.501706574 XXXX 1      oap1    O  -0.800
O187    13.510703009   18.187774706   14.461524433 XXXX 1      oap1    O  -0.800
O188    13.207796213   11.192764043   14.543766759 XXXX 1      oap1    O  -0.800
O189     8.450395766   31.837227695   22.607302809 XXXX 1      oap1    O  -0.800
O190     8.660741384   24.904952394   22.751259489 XXXX 1      oap1    O  -0.800
O191     8.456411881   17.919506261   22.799418671 XXXX 1      oap1    O  -0.800
O192     8.481147687   11.206376580   22.684268725 XXXX 1      oap1    O  -0.800
O213     9.550036614   30.409364887    2.206442252 XXXX 1      oap1    O  -0.800
O214     7.437617887   25.263410950    2.051575060 XXXX 1      oap1    O  -0.800
O215     9.034758847   16.595302955    2.422565698 XXXX 1      oap1    O  -0.800
O216     9.196899480    9.978479362    1.539048086 XXXX 1      oap1    O  -0.800
O217     2.737676083   31.863444145    9.634145585 XXXX 1      oap1    O  -0.800
O218     2.918112442   24.903366393    9.767062838 XXXX 1      oap1    O  -0.800
O219     2.708159854   17.986631175    9.713967073 XXXX 1      oap1    O  -0.800
O220     2.994197629   11.224178171    9.808990306 XXXX 1      oap1    O  -0.800
O229    18.913799222   30.547370407    2.174366689 XXXX 1      oap1    O  -0.800
O230    16.814239013   25.491083037    1.782523324 XXXX 1      oap1    O  -0.800
O231    16.893338377   15.966085337    0.946814062 XXXX 1      oap1    O  -0.800
O232    16.762626340   11.534598396    2.015963649 XXXX 1      oap1    O  -0.800
O233    12.215924788   31.881816372    9.919579944 XXXX 1      oap1    O  -0.800
O234    12.104401542   24.858830249    9.610228487 XXXX 1      oap1    O  -0.800
O235    12.147136621   17.906454991    9.708747517 XXXX 1      oap1    O  -0.800
O236    12.166236630   11.161293966    9.618456934 XXXX 1      oap1    O  -0.800
O237     7.545739839   31.750239416   17.772473906 XXXX 1      oap1    O  -0.800
O238     7.368196928   24.905231990   17.896352050 XXXX 1      oap1    O  -0.800
O239     7.492417772   17.997666762   17.962651814 XXXX 1      oap1    O  -0.800
O240     7.479356683   11.300293781   17.913130994 XXXX 1      oap1    O  -0.800
O245     2.362899712   31.436599730    2.723825748 XXXX 1      oap1    O  -0.800
O246     2.902761994   24.672855289    2.845144927 XXXX 1      oap1    O  -0.800
O247     2.320428610   17.919206952    3.092087207 XXXX 1      oap1    O  -0.800
O248     2.852709169   11.311075068    2.974422041 XXXX 1      oap1    O  -0.800
O261    11.853522900   31.800199651    2.856292594 XXXX 1      oap1    O  -0.800
O262    12.404198177   24.810555540    2.833190432 XXXX 1      oap1    O  -0.800
O263    11.834942960   18.256825175    3.187102522 XXXX 1      oap1    O  -0.800
O264    12.386994014   11.404507509    2.972369424 XXXX 1      oap1    O  -0.800
O265     7.215269586   31.769738941   11.153238540 XXXX 1      oap1    O  -0.800
O266     7.185270098   24.926607496   11.263584110 XXXX 1      oap1    O  -0.800
O267     7.379313814   17.993526357   11.175078498 XXXX 1      oap1    O  -0.800
O268     7.495819934   11.191825658   11.137717300 XXXX 1      oap1    O  -0.800
O269     2.745223254   31.801436974   19.269699977 XXXX 1      oap1    O  -0.800
O270     2.858986987   24.920456062   19.186157047 XXXX 1      oap1    O  -0.800
O271     2.452285584   18.048828106   19.401750273 XXXX 1      oap1    O  -0.800
O272     2.675631919   11.172500163   19.216258791 XXXX 1      oap1    O  -0.800
O277    21.420644777   31.843008687    2.888242633 XXXX 1      oap1    O  -0.800
O278    21.746940619   24.725173814    2.975021735 XXXX 1      oap1    O  -0.800
O279    21.249431350   18.203823750    3.194664212 XXXX 1      oap1    O  -0.800
O280    21.768355690   11.287279620    2.898135488 XXXX 1      oap1    O  -0.800
O281    16.846596937   31.763258795   10.814284437 XXXX 1      oap1    O  -0.800
O282    16.764714694   25.059768834   11.246090568 XXXX 1      oap1    O  -0.800
O283    16.957411286   18.124239558   11.127527834 XXXX 1      oap1    O  -0.800
O284    16.689157109   11.368064033   11.400527260 XXXX 1      oap1    O  -0.800
O285    12.268327828   31.964663295   19.341296360 XXXX 1      oap1    O  -0.800
O286    11.978190751   24.861371492   19.322767134 XXXX 1      oap1    O  -0.800
O287    12.080414102   18.088211450   19.378156926 XXXX 1      oap1    O  -0.800
O288    12.139718243   11.279370305   19.281392163 XXXX 1      oap1    O  -0.800
O309     8.640576987   29.398664777    6.213541599 XXXX 1      oap1    O  -0.800
O310     8.632937922   22.398806726    6.169950670 XXXX 1      oap1    O  -0.800
O311     8.461892568   15.543585304    6.251343943 XXXX 1      oap1    O  -0.800
O312     8.505506371    8.644142895    6.016465806 XXXX 1      oap1    O  -0.800
O313     3.905018556   29.421830210   14.499968998 XXXX 1      oap1    O  -0.800
O314     3.868788705   22.449652309   14.101749669 XXXX 1      oap1    O  -0.800
O315     3.758701941   15.504728585   14.193311104 XXXX 1      oap1    O  -0.800
O316     3.989618055    8.725273540   14.344540775 XXXX 1      oap1    O  -0.800
O325    17.858873106   29.209588827    5.964245986 XXXX 1      oap1    O  -0.800
O326    18.033505990   22.441720239    6.196216191 XXXX 1      oap1    O  -0.800
O327    18.034767785   15.653845183    6.120410902 XXXX 1      oap1    O  -0.800
O328    17.792398354    8.799141815    6.478111657 XXXX 1      oap1    O  -0.800
O329    13.276146120   29.269423795   14.195479068 XXXX 1      oap1    O  -0.800
O330    13.339884183   22.519734120   14.337147302 XXXX 1      oap1    O  -0.800
O331    13.391724532   15.664682109   14.257639752 XXXX 1      oap1    O  -0.800
O332    13.262450097    8.810249265   14.169730096 XXXX 1      oap1    O  -0.800
O333     8.555367331   29.337511207   22.348012941 XXXX 1      oap1    O  -0.800
O334     8.593875052   22.406579591   22.442081775 XXXX 1      oap1    O  -0.800
O335     8.447502656   15.487030270   22.528421391 XXXX 1      oap1    O  -0.800
O336     8.448509744    8.735617315   22.469895183 XXXX 1      oap1    O  -0.800
O357     7.635417226   29.387668969    1.044257260 XXXX 1      oap1    O  -0.800
O358     6.965371306   23.163808573    0.940597757 XXXX 1      oap1    O  -0.800
O359     7.723320828   15.406047325    0.718498683 XXXX 1      oap1    O  -0.800
O360     7.458758263   11.605836695    1.589008668 XXXX 1      oap1    O  -0.800
O361     2.773104740   29.331612081    9.722349237 XXXX 1      oap1    O  -0.800
O362     2.849807081   22.452483455    9.893794670 XXXX 1      oap1    O  -0.800
O363     2.941224610   15.550486710    9.841984675 XXXX 1      oap1    O  -0.800
O364     2.995544465    8.873277970    9.904387822 XXXX 1      oap1    O  -0.800
O373    17.115429256   29.558295017    0.765692931 XXXX 1      oap1    O  -0.800
O374    16.146234425   23.355610899    0.844303845 XXXX 1      oap1    O  -0.800
O375    18.766109320   14.538576267    1.738772755 XXXX 1      oap1    O  -0.800
O376    15.923242820    9.394930632    0.840445010 XXXX 1      oap1    O  -0.800
O377    12.041425061   29.372250244    9.609660764 XXXX 1      oap1    O  -0.800
O378    12.211483660   22.398314620    9.864313777 XXXX 1      oap1    O  -0.800
O379    12.420232593   15.523438108    9.911954188 XXXX 1      oap1    O  -0.800
O380    12.396975665    8.704089963    9.780401926 XXXX 1      oap1    O  -0.800
O381     7.587061293   29.379005693   17.852206166 XXXX 1      oap1    O  -0.800
O382     7.587109256   22.411261205   18.022092677 XXXX 1      oap1    O  -0.800
O383     7.675619112   15.587022132   18.175383301 XXXX 1      oap1    O  -0.800
O384     7.757576701    8.803716607   18.014115078 XXXX 1      oap1    O  -0.800
O389     2.707747391   28.983901003    3.172615120 XXXX 1      oap1    O  -0.800
O390     2.682355261   22.135539021    3.220276605 XXXX 1      oap1    O  -0.800
O391     2.690989867   15.446581368    3.377963649 XXXX 1      oap1    O  -0.800
O392     2.991765441    8.729503237    2.950840567 XXXX 1      oap1    O  -0.800
O405    12.083133315   29.329857059    3.152404444 XXXX 1      oap1    O  -0.800
O406    12.146837589   22.349144535    3.142953271 XXXX 1      oap1    O  -0.800
O407    12.034885967   15.711553742    2.996078102 XXXX 1      oap1    O  -0.800
O408    12.502411866    8.898533913    2.868283439 XXXX 1      oap1    O  -0.800
O409     7.210247313   29.361020042   11.264326577 XXXX 1      oap1    O  -0.800
O410     7.492036206   22.359727567   11.253150356 XXXX 1      oap1    O  -0.800
O411     7.210050671   15.576511480   11.222644711 XXXX 1      oap1    O  -0.800
O412     7.335557491    8.679374417   11.139914532 XXXX 1      oap1    O  -0.800
O413     2.488647970   29.287599398   19.483575831 XXXX 1      oap1    O  -0.800
O414     2.591566319   22.405089996   19.285738704 XXXX 1      oap1    O  -0.800
O415     2.760453235   15.593766562   19.292862703 XXXX 1      oap1    O  -0.800
O416     2.514641847    8.689982397   19.335663894 XXXX 1      oap1    O  -0.800
O421    21.485536425   29.337597293    3.000974346 XXXX 1      oap1    O  -0.800
O422    21.640445638   22.162260349    3.008140074 XXXX 1      oap1    O  -0.800
O423    21.289130081   15.608235289    3.150421717 XXXX 1      oap1    O  -0.800
O424    21.963640714    8.785366439    2.988440437 XXXX 1      oap1    O  -0.800
O425    16.544048722   29.299502849   11.161233196 XXXX 1      oap1    O  -0.800
O426    16.781277498   22.489508175   11.145631543 XXXX 1      oap1    O  -0.800
O427    16.570481617   15.689840627   11.015284060 XXXX 1      oap1    O  -0.800
O428    16.814508345    8.947806352   11.141856170 XXXX 1      oap1    O  -0.800
O429    12.053591759   29.500872095   19.301961042 XXXX 1      oap1    O  -0.800
O430    11.993286548   22.392127624   19.252181133 XXXX 1      oap1    O  -0.800
O431    12.047909107   15.579091974   19.278845184 XXXX 1      oap1    O  -0.800
O432    12.157363129    8.850256686   19.189537276 XXXX 1      oap1    O  -0.800
O453     5.645581201   32.581692769    3.690662544 XXXX 1      oap1    O  -0.800
O454     5.635591930   25.922216380    3.758698526 XXXX 1      oap1    O  -0.800
O455     5.801239708   18.936210719    3.756528331 XXXX 1      oap1    O  -0.800
O456     5.603210207   12.147352362    3.806124381 XXXX 1      oap1    O  -0.800
O457     0.869240747   32.850646904   11.923429484 XXXX 1      oap1    O  -0.800
O458     0.789144372   25.838116523   11.878776626 XXXX 1      oap1    O  -0.800
O459     0.810827406   18.952691644   11.939898945 XXXX 1      oap1    O  -0.800
O460     0.850771073   12.053355565   12.077430965 XXXX 1      oap1    O  -0.800
O469    15.288847751   32.826626778    3.359038957 XXXX 1      oap1    O  -0.800
O470    14.884978582   25.944787061    3.838678621 XXXX 1      oap1    O  -0.800
O471    15.072275337   19.001286147    3.763827421 XXXX 1      oap1    O  -0.800
O472    14.869047803   12.361848758    3.730795271 XXXX 1      oap1    O  -0.800
O473    10.186303364   32.847324486   11.985135661 XXXX 1      oap1    O  -0.800
O474    10.241994748   25.945399411   12.079551497 XXXX 1      oap1    O  -0.800
O475    10.246915574   19.080862814   11.865896136 XXXX 1      oap1    O  -0.800
O476    10.136990669   12.146824191   11.941397183 XXXX 1      oap1    O  -0.800
O477     5.395389028   32.797917877   19.969135236 XXXX 1      oap1    O  -0.800
O478     5.559453659   25.890763778   20.052323815 XXXX 1      oap1    O  -0.800
O479     5.422715529   18.936070856   20.283012485 XXXX 1      oap1    O  -0.800
O480     5.416302389   12.131465146   20.182040340 XXXX 1      oap1    O  -0.800
O501     6.211616109   32.586107129    8.360095168 XXXX 1      oap1    O  -0.800
O502     6.225783876   25.829408351    8.311055095 XXXX 1      oap1    O  -0.800
O503     6.631977921   18.983206574    8.425359459 XXXX 1      oap1    O  -0.800
O504     6.362038116   12.019713085    8.226492537 XXXX 1      oap1    O  -0.800
O505     1.657631660   32.659031083   16.406450926 XXXX 1      oap1    O  -0.800
O506     1.747306197   25.826114781   16.551887448 XXXX 1      oap1    O  -0.800
O507     1.962755534   18.984193586   16.529770188 XXXX 1      oap1    O  -0.800
O508     1.849417654   12.078758000   16.579970370 XXXX 1      oap1    O  -0.800
O517    15.994867952   32.804752616    8.278273446 XXXX 1      oap1    O  -0.800
O518    15.510388182   25.826142048    8.216521577 XXXX 1      oap1    O  -0.800
O519    15.919552752   19.095707593    8.277731267 XXXX 1      oap1    O  -0.800
O520    16.104294566   12.234273133    8.469925884 XXXX 1      oap1    O  -0.800
O521    10.961235427   32.756865935   16.493845676 XXXX 1      oap1    O  -0.800
O522    10.955718749   25.871341089   16.411602849 XXXX 1      oap1    O  -0.800
O523    11.210006931   18.980652135   16.432323618 XXXX 1      oap1    O  -0.800
O524    11.193926805   12.267102722   16.245257606 XXXX 1      oap1    O  -0.800
O525     6.254187510   32.892757164   24.374214335 XXXX 1      oap1    O  -0.800
O526     6.468772292   25.939009420   24.614542553 XXXX 1      oap1    O  -0.800
O527     6.251367542   18.918129543   24.697626152 XXXX 1      oap1    O  -0.800
O528     6.278382635   12.053982170   24.638436789 XXXX 1      oap1    O  -0.800
O549     2.275877232   32.740503806    6.797344494 XXXX 1      oap1    O  -0.800
O550     2.249659427   25.804937353    7.067210400 XXXX 1      oap1    O  -0.800
O551     1.975294120   18.885199729    7.027243815 XXXX 1      oap1    O  -0.800
O552     2.333112121   12.012687595    6.999856326 XXXX 1      oap1    O  -0.800
O565    11.658785205   32.866811396    6.845563960 XXXX 1      oap1    O  -0.800
O566    11.665290055   25.985854622    6.973943673 XXXX 1      oap1    O  -0.800
O567    11.631951221   19.006806882    6.845539527 XXXX 1      oap1    O  -0.800
O568    11.536642266   12.080928411    6.896694054 XXXX 1      oap1    O  -0.800
O569     6.735020648   32.784432418   15.021197381 XXXX 1      oap1    O  -0.800
O570     6.899698277   25.766368141   15.138075033 XXXX 1      oap1    O  -0.800
O571     6.997274283   18.890300120   15.107695875 XXXX 1      oap1    O  -0.800
O572     7.033182512   12.066172747   14.909536382 XXXX 1      oap1    O  -0.800
O573     2.155833529   32.790489696   23.228578687 XXXX 1      oap1    O  -0.800
O574     2.177876175   25.946009318   23.338890608 XXXX 1      oap1    O  -0.800
O575     2.051792128   18.935709570   23.246272302 XXXX 1      oap1    O  -0.800
O576     1.929119035   12.062867724   23.129354089 XXXX 1      oap1    O  -0.800
Ca5     -0.173143011   35.558106625    3.792826934 XXXX 1      ca+h    Ca  1.500
Ca6      0.071406362   28.684857439    4.051228704 XXXX 1      ca+h    Ca  1.500
Ca7      0.207677633   21.860716810    3.625533992 XXXX 1      ca+h    Ca  1.500
Ca8     -0.054296449   14.904195475    4.297805621 XXXX 1      ca+h    Ca  1.500
Ca21     9.273459619   35.691401841    3.794518037 XXXX 1      ca+h    Ca  1.500
Ca22     9.556752725   28.764779216    4.021767325 XXXX 1      ca+h    Ca  1.500
Ca23     9.387806776   22.121156512    3.658984854 XXXX 1      ca+h    Ca  1.500
Ca24     9.462027901   15.138221665    4.185038186 XXXX 1      ca+h    Ca  1.500
Ca25     4.848341676   35.772516634   11.796818412 XXXX 1      ca+h    Ca  1.500
Ca26     4.686938093   28.841477836   11.766672752 XXXX 1      ca+h    Ca  1.500
Ca27     4.711918554   21.941482166   11.901763661 XXXX 1      ca+h    Ca  1.500
Ca28     4.827998837   15.111855196   11.841137237 XXXX 1      ca+h    Ca  1.500
Ca29     0.207119540   35.753093471   19.925111316 XXXX 1      ca+h    Ca  1.500
Ca30     0.159170382   28.880080512   20.098468546 XXXX 1      ca+h    Ca  1.500
Ca31     0.088235240   21.894638844   19.909937765 XXXX 1      ca+h    Ca  1.500
Ca32    -0.099563077   15.129184545   19.909481692 XXXX 1      ca+h    Ca  1.500
Ca37    18.818041842   35.975469308    3.757080745 XXXX 1      ca+h    Ca  1.500
Ca38    18.959734382   28.876724489    3.942559425 XXXX 1      ca+h    Ca  1.500
Ca39    18.938446006   21.966010389    3.285169392 XXXX 1      ca+h    Ca  1.500
Ca40    18.955884382   15.023578601    3.998669041 XXXX 1      ca+h    Ca  1.500
Ca41    14.045439777   35.917733894   11.611788093 XXXX 1      ca+h    Ca  1.500
Ca42    14.096935643   28.990133845   11.708541841 XXXX 1      ca+h    Ca  1.500
Ca43    14.164565990   22.021031384   11.759004168 XXXX 1      ca+h    Ca  1.500
Ca44    14.055851266   15.174705275   11.698668389 XXXX 1      ca+h    Ca  1.500
Ca45     9.329411244   35.714487215   19.861217439 XXXX 1      ca+h    Ca  1.500
Ca46     9.407638474   28.954586924   19.910728545 XXXX 1      ca+h    Ca  1.500
Ca47     9.419947277   22.078217654   19.895388470 XXXX 1      ca+h    Ca  1.500
Ca48     9.257504177   15.116971884   20.058039587 XXXX 1      ca+h    Ca  1.500
Ca69     4.618447818   32.148358737    6.289169227 XXXX 1      ca+h    Ca  1.500
Ca70     5.039311696   25.339878307    6.444828283 XXXX 1      ca+h    Ca  1.500
Ca71     4.851801003   18.585668939    6.493766715 XXXX 1      ca+h    Ca  1.500
Ca72     4.680461779   11.670968159    6.354331833 XXXX 1      ca+h    Ca  1.500
Ca73    -0.011155256   32.364309229   14.572410670 XXXX 1      ca+h    Ca  1.500
Ca74     0.065644971   25.493784634   14.504310770 XXXX 1      ca+h    Ca  1.500
Ca75     0.059966068   18.578713324   14.602694591 XXXX 1      ca+h    Ca  1.500
Ca76     0.222395100   11.708741939   14.490134693 XXXX 1      ca+h    Ca  1.500
Ca85    14.202136313   32.368162827    6.473352975 XXXX 1      ca+h    Ca  1.500
Ca86    13.997137558   25.448521828    6.354901521 XXXX 1      ca+h    Ca  1.500
Ca87    14.231088610   18.606815681    6.419247530 XXXX 1      ca+h    Ca  1.500
Ca88    14.045939257   11.764052867    6.396895127 XXXX 1      ca+h    Ca  1.500
Ca89     9.455953443   32.372589528   14.432002450 XXXX 1      ca+h    Ca  1.500
Ca90     9.550553512   25.426104673   14.505533768 XXXX 1      ca+h    Ca  1.500
Ca91     9.446648408   18.614435396   14.554902184 XXXX 1      ca+h    Ca  1.500
Ca92     9.398311643   11.705909872   14.425788983 XXXX 1      ca+h    Ca  1.500
Ca93     4.626877119   32.339625756   22.680806895 XXXX 1      ca+h    Ca  1.500
Ca94     4.634584295   25.464730582   22.658915026 XXXX 1      ca+h    Ca  1.500
Ca95     4.743768569   18.566629470   22.766220193 XXXX 1      ca+h    Ca  1.500
Ca96     4.744029916   11.768833821   22.681707128 XXXX 1      ca+h    Ca  1.500
Ca117    4.521585428   28.870616598    6.121255471 XXXX 1      ca+h    Ca  1.500
Ca118    4.750387666   21.918700082    6.319045483 XXXX 1      ca+h    Ca  1.500
Ca119    4.685729368   15.208593175    6.230243294 XXXX 1      ca+h    Ca  1.500
Ca120    4.534700835    8.311651362    6.216221628 XXXX 1      ca+h    Ca  1.500
Ca121    0.168530317   28.914307303   14.442834584 XXXX 1      ca+h    Ca  1.500
Ca122   -0.014911576   21.941307003   14.459603794 XXXX 1      ca+h    Ca  1.500
Ca123   -0.084542200   15.008905471   14.559666660 XXXX 1      ca+h    Ca  1.500
Ca124    0.067547291    8.286682770   14.514285581 XXXX 1      ca+h    Ca  1.500
Ca133   13.936108375   29.014981833    6.083118049 XXXX 1      ca+h    Ca  1.500
Ca134   14.228262105   22.001659296    6.162951501 XXXX 1      ca+h    Ca  1.500
Ca135   14.453558080   15.236701070    6.353323646 XXXX 1      ca+h    Ca  1.500
Ca136   14.323723116    8.203594769    6.340590036 XXXX 1      ca+h    Ca  1.500
Ca137    9.412324827   28.904528113   14.391786878 XXXX 1      ca+h    Ca  1.500
Ca138    9.565202786   22.041487510   14.493531092 XXXX 1      ca+h    Ca  1.500
Ca139    9.463031126   15.131081491   14.417382699 XXXX 1      ca+h    Ca  1.500
Ca140    9.281379042    8.221117027   14.661783625 XXXX 1      ca+h    Ca  1.500
Ca141    4.659447767   28.885237393   22.632762939 XXXX 1      ca+h    Ca  1.500
Ca142    4.718600917   22.062697926   22.674721270 XXXX 1      ca+h    Ca  1.500
Ca143    4.548093185   15.078344213   22.631010775 XXXX 1      ca+h    Ca  1.500
Ca144    4.484385569    8.293996615   22.706007097 XXXX 1      ca+h    Ca  1.500
Ca149    0.034191124   31.991836377    3.443156493 XXXX 1      ca+h    Ca  1.500
Ca150   -0.121050045   25.246180980    3.527153591 XXXX 1      ca+h    Ca  1.500
Ca151   -0.094715126   18.328330137    3.902297867 XXXX 1      ca+h    Ca  1.500
Ca152   -0.023367311   11.744947711    3.325680665 XXXX 1      ca+h    Ca  1.500
Ca165    9.453059525   32.134978049    3.727096014 XXXX 1      ca+h    Ca  1.500
Ca166    9.468748899   25.470044389    3.344197943 XXXX 1      ca+h    Ca  1.500
Ca167    9.315087637   18.511025037    3.889969947 XXXX 1      ca+h    Ca  1.500
Ca168    9.298961724   11.671676646    3.242161504 XXXX 1      ca+h    Ca  1.500
Ca169    4.646590107   32.292719631   11.792059196 XXXX 1      ca+h    Ca  1.500
Ca170    4.860913084   25.302830187   11.651851210 XXXX 1      ca+h    Ca  1.500
Ca171    4.789696324   18.644197409   11.796239933 XXXX 1      ca+h    Ca  1.500
Ca172    4.513373159   11.567374286   11.765733289 XXXX 1      ca+h    Ca  1.500
Ca173   -0.131953982   32.332325438   19.857161591 XXXX 1      ca+h    Ca  1.500
Ca174    0.059035485   25.407576309   19.890938071 XXXX 1      ca+h    Ca  1.500
Ca175   -0.020956775   18.393699220   19.944107595 XXXX 1      ca+h    Ca  1.500
Ca176   -0.278751676   11.698217316   19.924039351 XXXX 1      ca+h    Ca  1.500
Ca181   18.928559126   32.137015543    3.799419432 XXXX 1      ca+h    Ca  1.500
Ca182   18.549835521   25.377598430    3.559086912 XXXX 1      ca+h    Ca  1.500
Ca183   18.856906946   18.538970726    3.823293307 XXXX 1      ca+h    Ca  1.500
Ca184   18.698675021   11.308690442    3.457727779 XXXX 1      ca+h    Ca  1.500
Ca185   14.000820960   32.425461392   11.622178816 XXXX 1      ca+h    Ca  1.500
Ca186   13.982250203   25.476831337   11.779805688 XXXX 1      ca+h    Ca  1.500
Ca187   14.226103431   18.599367594   11.811753703 XXXX 1      ca+h    Ca  1.500
Ca188   14.124179875   11.776747959   11.755241866 XXXX 1      ca+h    Ca  1.500
Ca189    9.468623543   32.312841703   19.868729814 XXXX 1      ca+h    Ca  1.500
Ca190    9.514233107   25.464906930   19.985909830 XXXX 1      ca+h    Ca  1.500
Ca191    9.495391317   18.570566794   19.934469716 XXXX 1      ca+h    Ca  1.500
Ca192    9.361204273   11.688890063   20.105527907 XXXX 1      ca+h    Ca  1.500
Ca213    3.830516168   33.476558475    2.501542314 XXXX 1      ca+h    Ca  1.500
Ca214    3.627126413   26.905253328    2.822179923 XXXX 1      ca+h    Ca  1.500
Ca215    3.631727005   19.892513236    2.866283776 XXXX 1      ca+h    Ca  1.500
Ca216    3.806469692   13.473490205    2.852921939 XXXX 1      ca+h    Ca  1.500
Ca229   13.194810626   33.858825504    2.729972103 XXXX 1      ca+h    Ca  1.500
Ca230   13.179926534   27.258989083    2.630599275 XXXX 1      ca+h    Ca  1.500
Ca231   13.212563230   20.166643694    2.776027905 XXXX 1      ca+h    Ca  1.500
Ca232   13.026278130   13.684002837    3.097163832 XXXX 1      ca+h    Ca  1.500
Ca233    8.132924722   33.998709315   10.853020300 XXXX 1      ca+h    Ca  1.500
Ca234    8.144606092   27.070333677   11.115436250 XXXX 1      ca+h    Ca  1.500
Ca235    8.306214451   20.203138322   11.098350432 XXXX 1      ca+h    Ca  1.500
Ca236    8.043873736   13.378725113   10.860434869 XXXX 1      ca+h    Ca  1.500
Ca237    3.456161714   34.069060435   19.105942871 XXXX 1      ca+h    Ca  1.500
Ca238    3.385577002   27.122963917   19.210914098 XXXX 1      ca+h    Ca  1.500
Ca239    3.443524608   20.132494839   19.216718870 XXXX 1      ca+h    Ca  1.500
Ca240    3.408102070   13.312337853   19.223573282 XXXX 1      ca+h    Ca  1.500
P21      6.318652968   33.863031516    4.149847599 XXXX 1      pap     P   1.000
P22      6.360586816   27.186965518    4.295236419 XXXX 1      pap     P   1.000
P23      6.413958041   20.301645290    4.155402678 XXXX 1      pap     P   1.000
P24      6.402285029   13.328991963    4.319653415 XXXX 1      pap     P   1.000
P25      1.603850084   34.142153244   12.301833284 XXXX 1      pap     P   1.000
P26      1.673386445   27.092909257   12.211700374 XXXX 1      pap     P   1.000
P27      1.628336688   20.171141432   12.440354366 XXXX 1      pap     P   1.000
P28      1.610164406   13.332176630   12.406348195 XXXX 1      pap     P   1.000
P37     15.984860898   34.083956372    3.927889255 XXXX 1      pap     P   1.000
P38     15.690557538   27.162406851    4.302627811 XXXX 1      pap     P   1.000
P39     15.815291956   20.272038470    4.153472252 XXXX 1      pap     P   1.000
P40     15.739648996   13.494842641    4.217556545 XXXX 1      pap     P   1.000
P41     11.018302601   34.104395552   12.326045299 XXXX 1      pap     P   1.000
P42     10.976366295   27.227736546   12.355063315 XXXX 1      pap     P   1.000
P43     11.104994348   20.255750347   12.259224744 XXXX 1      pap     P   1.000
P44     11.031113149   13.359208966   12.268646145 XXXX 1      pap     P   1.000
P45      6.261151428   34.019996359   20.400704785 XXXX 1      pap     P   1.000
P46      6.314758496   27.187343915   20.420822517 XXXX 1      pap     P   1.000
P47      6.275707742   20.203040648   20.527628155 XXXX 1      pap     P   1.000
P48      6.255597183   13.404359518   20.475448752 XXXX 1      pap     P   1.000
O597     6.154571162   34.053270068    5.628975484 XXXX 1      oap1    O  -0.800
O598     6.239146674   27.282603573    5.805212744 XXXX 1      oap1    O  -0.800
O599     6.400849672   20.218063363    5.653356481 XXXX 1      oap1    O  -0.800
O600     6.318601117   13.358308854    5.841232483 XXXX 1      oap1    O  -0.800
O601     1.643771254   34.086919313   13.841406391 XXXX 1      oap1    O  -0.800
O602     1.730844785   27.109702764   13.744616913 XXXX 1      oap1    O  -0.800
O603     1.703554326   20.168343232   13.932336377 XXXX 1      oap1    O  -0.800
O604     1.669042567   13.448877924   13.947792677 XXXX 1      oap1    O  -0.800
O613    15.674648438   34.163015813    5.497932662 XXXX 1      oap1    O  -0.800
O614    15.569472148   27.139144873    5.832683505 XXXX 1      oap1    O  -0.800
O615    15.912849868   20.291425816    5.720920185 XXXX 1      oap1    O  -0.800
O616    15.794339136   13.438653673    5.735022809 XXXX 1      oap1    O  -0.800
O617    11.098823585   34.171981591   13.810279538 XXXX 1      oap1    O  -0.800
O618    11.140331370   27.249958274   13.906489216 XXXX 1      oap1    O  -0.800
O619    11.135374614   20.238435284   13.827049421 XXXX 1      oap1    O  -0.800
O620    11.029611562   13.522704303   13.821495535 XXXX 1      oap1    O  -0.800
O621     6.234539496   33.976983084   21.946023409 XXXX 1      oap1    O  -0.800
O622     6.349089406   27.184182551   21.960267413 XXXX 1      oap1    O  -0.800
O623     6.246573437   20.320970291   22.049339472 XXXX 1      oap1    O  -0.800
O624     6.220751314   13.560108636   22.006544523 XXXX 1      oap1    O  -0.800
O645     7.804856206   33.866278234    3.880057533 XXXX 1      oap1    O  -0.800
O646     7.859527901   27.252147260    3.884011002 XXXX 1      oap1    O  -0.800
O647     7.836882783   20.385599963    3.636882080 XXXX 1      oap1    O  -0.800
O648     7.891054399   13.344051295    3.953473976 XXXX 1      oap1    O  -0.800
O649     3.035575339   34.084281023   11.698936804 XXXX 1      oap1    O  -0.800
O650     3.029201850   27.030854542   11.484906481 XXXX 1      oap1    O  -0.800
O651     3.003345677   20.201020622   11.716664260 XXXX 1      oap1    O  -0.800
O652     3.031861989   13.309519628   11.754449076 XXXX 1      oap1    O  -0.800
O661    17.516063459   34.024070642    3.622045465 XXXX 1      oap1    O  -0.800
O662    17.175533720   27.153193908    3.902144935 XXXX 1      oap1    O  -0.800
O663    17.304589222   20.302291090    3.620053872 XXXX 1      oap1    O  -0.800
O664    17.187403496   13.486141051    3.675221618 XXXX 1      oap1    O  -0.800
O665    12.424356447   34.115007089   11.720834086 XXXX 1      oap1    O  -0.800
O666    12.372352731   27.311202708   11.579129068 XXXX 1      oap1    O  -0.800
O667    12.474155350   20.221775680   11.560786664 XXXX 1      oap1    O  -0.800
O668    12.446856049   13.356025571   11.718218872 XXXX 1      oap1    O  -0.800
O669     7.689770420   33.887746569   19.805990368 XXXX 1      oap1    O  -0.800
O670     7.774306020   27.066488529   19.824223597 XXXX 1      oap1    O  -0.800
O671     7.732940217   20.162697536   19.991540521 XXXX 1      oap1    O  -0.800
O672     7.687822312   13.271706327   19.861764979 XXXX 1      oap1    O  -0.800
Ca261    8.269283988   34.081384234    6.901937429 XXXX 1      ca+h    Ca  1.500
Ca262    8.401123327   27.170160542    7.047272891 XXXX 1      ca+h    Ca  1.500
Ca263    8.428137336   20.275849387    7.077805699 XXXX 1      ca+h    Ca  1.500
Ca264    8.322732466   13.331208772    6.914097175 XXXX 1      ca+h    Ca  1.500
Ca265    3.655611846   34.071037896   15.038465613 XXXX 1      ca+h    Ca  1.500
Ca266    3.620082890   27.113997122   15.110064877 XXXX 1      ca+h    Ca  1.500
Ca267    3.775241300   20.404283830   15.289678055 XXXX 1      ca+h    Ca  1.500
Ca268    3.705480932   13.365231785   15.138117756 XXXX 1      ca+h    Ca  1.500
Ca277   17.722781008   34.036891220    6.881284034 XXXX 1      ca+h    Ca  1.500
Ca278   17.636185842   27.066420687    6.970210508 XXXX 1      ca+h    Ca  1.500
Ca279   17.848508988   20.275205706    7.008777987 XXXX 1      ca+h    Ca  1.500
Ca280   17.795707109   13.389422306    6.950318407 XXXX 1      ca+h    Ca  1.500
Ca281   13.014496421   34.135019251   15.113977355 XXXX 1      ca+h    Ca  1.500
Ca282   13.116875231   27.189341473   15.221389902 XXXX 1      ca+h    Ca  1.500
Ca283   13.033569495   20.321664464   15.202467480 XXXX 1      ca+h    Ca  1.500
Ca284   12.916515956   13.566203630   15.110607184 XXXX 1      ca+h    Ca  1.500
Ca285    8.316145306   34.022426941   23.137623016 XXXX 1      ca+h    Ca  1.500
Ca286    8.415089496   27.195731801   23.364604821 XXXX 1      ca+h    Ca  1.500
Ca287    8.312977373   20.141609745   23.136610623 XXXX 1      ca+h    Ca  1.500
Ca288    8.480862807   13.458476515   23.571767806 XXXX 1      ca+h    Ca  1.500
P69      5.697939202   33.961318546    8.770326101 XXXX 1      pap     P   1.000
P70      5.844881197   27.189452742    8.872027775 XXXX 1      pap     P   1.000
P71      5.861777292   20.259606145    8.817377439 XXXX 1      pap     P   1.000
P72      5.744373208   13.304030556    8.806095533 XXXX 1      pap     P   1.000
P73      1.116270995   33.956673017   16.968881919 XXXX 1      pap     P   1.000
P74      1.057754165   27.147860923   16.968623201 XXXX 1      pap     P   1.000
P75      1.217850261   20.233278027   16.934373059 XXXX 1      pap     P   1.000
P76      1.163651265   13.419798614   16.962454301 XXXX 1      pap     P   1.000
P85     15.250438916   34.103409262    8.766266395 XXXX 1      pap     P   1.000
P86     15.074759871   27.170994682    8.840633364 XXXX 1      pap     P   1.000
P87     15.231561259   20.415577761    8.773459148 XXXX 1      pap     P   1.000
P88     15.247722587   13.433629639    8.863845237 XXXX 1      pap     P   1.000
P89     10.474364624   34.131207822   16.909945784 XXXX 1      pap     P   1.000
P90     10.525031891   27.219759276   17.001586814 XXXX 1      pap     P   1.000
P91     10.523962464   20.190309823   16.908209844 XXXX 1      pap     P   1.000
P92     10.400290279   13.423637678   16.897644952 XXXX 1      pap     P   1.000
P93      5.722935375   34.150878315   25.032124795 XXXX 1      pap     P   1.000
P94      5.735563441   27.224084931   25.119460085 XXXX 1      pap     P   1.000
P95      5.857981105   20.323262009   25.171409094 XXXX 1      pap     P   1.000
P96      5.699746053   13.343013071   25.199253790 XXXX 1      pap     P   1.000
O693     4.475609142   34.300723701    7.970882606 XXXX 1      oap1    O  -0.800
O694     4.477039162   27.529522919    8.166356356 XXXX 1      oap1    O  -0.800
O695     4.530891830   20.325265150    8.014189797 XXXX 1      oap1    O  -0.800
O696     4.472511205   13.700192460    7.950575082 XXXX 1      oap1    O  -0.800
O697    -0.189907509   34.228581041   16.200933910 XXXX 1      oap1    O  -0.800
O698    -0.240496079   27.202258727   16.163069234 XXXX 1      oap1    O  -0.800
O699    -0.163747753   20.220460665   16.191861909 XXXX 1      oap1    O  -0.800
O700    -0.186396669   13.469665494   16.286095788 XXXX 1      oap1    O  -0.800
O709    13.867874721   34.183693188    8.003071544 XXXX 1      oap1    O  -0.800
O710    13.810060460   27.636713526    8.131546554 XXXX 1      oap1    O  -0.800
O711    13.904643899   20.456218012    8.072473305 XXXX 1      oap1    O  -0.800
O712    13.836071843   13.335360523    8.271117062 XXXX 1      oap1    O  -0.800
O713     9.127917129   34.230531152   16.198467084 XXXX 1      oap1    O  -0.800
O714     9.193462988   27.639841155   16.380893962 XXXX 1      oap1    O  -0.800
O715     9.189519384   20.321999246   16.191640153 XXXX 1      oap1    O  -0.800
O716     9.019330117   13.415365199   16.242682355 XXXX 1      oap1    O  -0.800
O717     4.288606096   34.323781244   24.461416144 XXXX 1      oap1    O  -0.800
O718     4.385172988   27.269382376   24.391937319 XXXX 1      oap1    O  -0.800
O719     4.478542245   20.541014823   24.441174885 XXXX 1      oap1    O  -0.800
O720     4.328778120   13.539312000   24.527878439 XXXX 1      oap1    O  -0.800
O741     5.311478597   34.065302480   10.272653064 XXXX 1      oap1    O  -0.800
O742     5.582379885   27.196789372   10.418582699 XXXX 1      oap1    O  -0.800
O743     5.608707581   20.332971439   10.306847189 XXXX 1      oap1    O  -0.800
O744     5.475940950   13.179269371   10.308117240 XXXX 1      oap1    O  -0.800
O745     0.846204774   33.883260046   18.479858152 XXXX 1      oap1    O  -0.800
O746     0.850832462   27.167506551   18.545283598 XXXX 1      oap1    O  -0.800
O747     0.968179982   20.267856860   18.462202309 XXXX 1      oap1    O  -0.800
O748     0.916999802   13.448467521   18.515162843 XXXX 1      oap1    O  -0.800
O757    15.058652444   34.146878058   10.277941589 XXXX 1      oap1    O  -0.800
O758    14.861397072   27.076590827   10.376917826 XXXX 1      oap1    O  -0.800
O759    15.171632010   20.243578198   10.310007652 XXXX 1      oap1    O  -0.800
O760    15.078894894   13.484621422   10.415792596 XXXX 1      oap1    O  -0.800
O761    10.229133186   34.120215274   18.459905935 XXXX 1      oap1    O  -0.800
O762    10.395590263   27.110740479   18.573984706 XXXX 1      oap1    O  -0.800
O763    10.378481377   20.240973677   18.464649938 XXXX 1      oap1    O  -0.800
O764    10.345758337   13.375951182   18.482784827 XXXX 1      oap1    O  -0.800
O765     5.681684972   34.105106444   26.597600159 XXXX 1      oap1    O  -0.800
O766     5.621262119   27.209897608   26.620819362 XXXX 1      oap1    O  -0.800
O767     5.743859693   20.353377557   26.692463667 XXXX 1      oap1    O  -0.800
O768     5.698856749   13.299727579   26.725105317 XXXX 1      oap1    O  -0.800
Ca306    7.111656815   27.163271636    0.565575180 XXXX 1      ca+h    Ca  1.500
Ca308    8.071310152   13.193550304   -0.045375756 XXXX 1      ca+h    Ca  1.500
Ca309    2.396981840   34.029240529    9.065190323 XXXX 1      ca+h    Ca  1.500
Ca310    2.325711330   27.056303647    9.211574021 XXXX 1      ca+h    Ca  1.500
Ca311    2.412043001   20.274336763    9.256297707 XXXX 1      ca+h    Ca  1.500
Ca312    2.354330666   13.446326956    9.115498362 XXXX 1      ca+h    Ca  1.500
Ca322   17.392242198   27.082421045    0.123895761 XXXX 1      ca+h    Ca  1.500
Ca324   16.800857549   13.616526455    0.856471731 XXXX 1      ca+h    Ca  1.500
Ca325   11.725623522   34.132890611    9.145863812 XXXX 1      ca+h    Ca  1.500
Ca326   11.737754372   27.112608483    9.116985027 XXXX 1      ca+h    Ca  1.500
Ca327   11.896454404   20.149963664    9.102098468 XXXX 1      ca+h    Ca  1.500
Ca328   11.625160850   13.382455541    9.238042429 XXXX 1      ca+h    Ca  1.500
Ca329    6.995123270   34.024918424   17.086404028 XXXX 1      ca+h    Ca  1.500
Ca330    7.017346580   27.222151974   17.419472055 XXXX 1      ca+h    Ca  1.500
Ca331    7.157553553   20.209087173   17.414510881 XXXX 1      ca+h    Ca  1.500
Ca332    6.936877155   13.437488817   17.344385775 XXXX 1      ca+h    Ca  1.500
Ca333    2.211768388   34.066782324   25.445980819 XXXX 1      ca+h    Ca  1.500
Ca334    2.144644245   27.357628284   25.579353008 XXXX 1      ca+h    Ca  1.500
Ca335    2.224893060   20.229274022   25.442053922 XXXX 1      ca+h    Ca  1.500
Ca336    2.255363866   13.406255411   25.463523924 XXXX 1      ca+h    Ca  1.500
P117     2.049485680   33.948748567    5.811098063 XXXX 1      pap     P   1.000
P118     2.096986943   26.956581507    6.052214902 XXXX 1      pap     P   1.000
P119     2.086503427   20.116402166    6.049274908 XXXX 1      pap     P   1.000
P120     2.169426985   13.173906706    6.017439563 XXXX 1      pap     P   1.000
P133    11.452230214   34.113381420    5.970376071 XXXX 1      pap     P   1.000
P134    11.394202318   27.082837567    5.996724726 XXXX 1      pap     P   1.000
P135    11.570493472   20.252762319    5.953667832 XXXX 1      pap     P   1.000
P136    11.445143997   13.411209740    6.085911991 XXXX 1      pap     P   1.000
P137     6.742303449   34.034141581   14.142457653 XXXX 1      pap     P   1.000
P138     6.750740116   27.019121910   14.227440343 XXXX 1      pap     P   1.000
P139     6.798020724   20.188927641   14.301432926 XXXX 1      pap     P   1.000
P140     6.821802278   13.342037780   14.102060108 XXXX 1      pap     P   1.000
P141     1.948526329   34.024411999   22.308063599 XXXX 1      pap     P   1.000
P142     1.979487784   27.099131290   22.392861424 XXXX 1      pap     P   1.000
P143     1.888036284   20.191272335   22.404162388 XXXX 1      pap     P   1.000
P144     1.937873614   13.385190776   22.330648724 XXXX 1      pap     P   1.000
O789     3.283809015   34.050547944    4.914990460 XXXX 1      oap1    O  -0.800
O790     3.415901802   27.037698674    5.260861196 XXXX 1      oap1    O  -0.800
O791     3.389337741   20.073975615    5.248479268 XXXX 1      oap1    O  -0.800
O792     3.472995946   13.303954055    5.235312976 XXXX 1      oap1    O  -0.800
O805    12.703806699   34.254651222    5.104075968 XXXX 1      oap1    O  -0.800
O806    12.534688869   27.116468323    5.032417722 XXXX 1      oap1    O  -0.800
O807    12.868459088   20.334246069    5.110859914 XXXX 1      oap1    O  -0.800
O808    12.809900459   13.715816561    5.526355515 XXXX 1      oap1    O  -0.800
O809     8.054022157   34.063298721   13.277275932 XXXX 1      oap1    O  -0.800
O810     8.045504880   27.250975248   13.549336201 XXXX 1      oap1    O  -0.800
O811     8.043083517   20.394961199   13.468259342 XXXX 1      oap1    O  -0.800
O812     8.000251491   13.563971940   13.181131662 XXXX 1      oap1    O  -0.800
O813     3.269361244   34.285310075   21.562591185 XXXX 1      oap1    O  -0.800
O814     3.284280390   27.272816631   21.543199321 XXXX 1      oap1    O  -0.800
O815     3.236956399   20.472542242   21.749055186 XXXX 1      oap1    O  -0.800
O816     3.307105546   13.498357907   21.569209303 XXXX 1      oap1    O  -0.800
O837     0.782251511   33.722782931    4.938680784 XXXX 1      oap1    O  -0.800
O838     0.871103640   26.781366329    5.100312990 XXXX 1      oap1    O  -0.800
O839     0.921794510   20.123571856    5.077357474 XXXX 1      oap1    O  -0.800
O840     1.004213690   12.935486210    5.063941864 XXXX 1      oap1    O  -0.800
O853    10.165096820   33.820291087    5.125160037 XXXX 1      oap1    O  -0.800
O854    10.093884529   26.805148300    5.226417642 XXXX 1      oap1    O  -0.800
O855    10.299792539   20.165384384    5.057357925 XXXX 1      oap1    O  -0.800
O856    10.412000366   13.224561450    4.928806472 XXXX 1      oap1    O  -0.800
O857     5.537276606   34.078827319   13.267769611 XXXX 1      oap1    O  -0.800
O858     5.588901718   26.978551737   13.232785935 XXXX 1      oap1    O  -0.800
O859     5.439895135   20.078407205   13.487428551 XXXX 1      oap1    O  -0.800
O860     5.476437397   13.351029304   13.243492531 XXXX 1      oap1    O  -0.800
O861     0.704214470   33.914070613   21.407199093 XXXX 1      oap1    O  -0.800
O862     0.767690743   26.889660197   21.429672874 XXXX 1      oap1    O  -0.800
O863     0.807487883   20.017772012   21.364766851 XXXX 1      oap1    O  -0.800
O864     0.732170787   13.486841610   21.376102173 XXXX 1      oap1    O  -0.800
Ca341    1.205084814   30.644396056    7.186974793 XXXX 1      ca+h    Ca  1.500
Ca342    1.304698682   23.634120419    7.071778569 XXXX 1      ca+h    Ca  1.500
Ca343    1.292709072   16.814016708    7.424291164 XXXX 1      ca+h    Ca  1.500
Ca344    1.323056054    9.941643728    6.933464842 XXXX 1      ca+h    Ca  1.500
Ca357   10.550431112   30.656018296    7.092231247 XXXX 1      ca+h    Ca  1.500
Ca358   10.670417825   23.768049196    7.130092781 XXXX 1      ca+h    Ca  1.500
Ca359   10.635230473   16.848408523    7.271180351 XXXX 1      ca+h    Ca  1.500
Ca360   10.683346685    9.807131232    6.723536888 XXXX 1      ca+h    Ca  1.500
Ca361    5.905305383   30.603305869   15.414126908 XXXX 1      ca+h    Ca  1.500
Ca362    6.054765723   23.688914670   15.240312163 XXXX 1      ca+h    Ca  1.500
Ca363    5.940570551   16.730528320   15.396986050 XXXX 1      ca+h    Ca  1.500
Ca364    5.953481861   10.029424920   15.044467265 XXXX 1      ca+h    Ca  1.500
Ca365    1.215329148   30.599568994   23.434293920 XXXX 1      ca+h    Ca  1.500
Ca366    1.156198936   23.712144719   23.435167329 XXXX 1      ca+h    Ca  1.500
Ca367    1.153410726   16.865056506   23.397298852 XXXX 1      ca+h    Ca  1.500
Ca368    1.116030508    9.927287962   23.337587619 XXXX 1      ca+h    Ca  1.500
Ca373   19.995263130   30.776858240    7.192492890 XXXX 1      ca+h    Ca  1.500
Ca374   20.132719795   23.629810469    6.933119414 XXXX 1      ca+h    Ca  1.500
Ca375   20.264636814   16.870088051    7.264394809 XXXX 1      ca+h    Ca  1.500
Ca376   20.141314989    9.955270376    6.937926823 XXXX 1      ca+h    Ca  1.500
Ca377   15.338576744   30.692642816   15.157911897 XXXX 1      ca+h    Ca  1.500
Ca378   15.355757284   23.757473233   15.144586008 XXXX 1      ca+h    Ca  1.500
Ca379   15.485064756   16.914631290   15.311306786 XXXX 1      ca+h    Ca  1.500
Ca380   15.382793270   10.058299010   15.330636050 XXXX 1      ca+h    Ca  1.500
Ca381   10.563664877   30.710728446   23.362636907 XXXX 1      ca+h    Ca  1.500
Ca382   10.662630705   23.832350856   23.400475716 XXXX 1      ca+h    Ca  1.500
Ca383   10.671086669   16.848349386   23.496857388 XXXX 1      ca+h    Ca  1.500
Ca384   10.684342590   10.022966910   23.383962755 XXXX 1      ca+h    Ca  1.500
P165     7.751245702   30.554117627    5.774177448 XXXX 1      pap     P   1.000
P166     7.769852491   23.611558294    5.855720645 XXXX 1      pap     P   1.000
P167     7.725169298   16.838058155    5.981148693 XXXX 1      pap     P   1.000
P168     7.749119102    9.897529930    5.612436572 XXXX 1      pap     P   1.000
P169     3.175639560   30.585603428   13.933362440 XXXX 1      pap     P   1.000
P170     3.035868016   23.765507688   13.862737762 XXXX 1      pap     P   1.000
P171     3.059290980   16.858123344   13.957706878 XXXX 1      pap     P   1.000
P172     3.110881974    9.914629752   13.976808025 XXXX 1      pap     P   1.000
P181    17.126858888   30.522189028    5.758401290 XXXX 1      pap     P   1.000
P182    17.294697106   23.655406846    5.749399503 XXXX 1      pap     P   1.000
P183    17.299646805   16.904727872    5.786594051 XXXX 1      pap     P   1.000
P184    17.126144360    9.991486309    5.823809897 XXXX 1      pap     P   1.000
P185    12.538508088   30.546584835   13.914225394 XXXX 1      pap     P   1.000
P186    12.577554902   23.789429610   14.012040082 XXXX 1      pap     P   1.000
P187    12.667682109   16.992394245   13.876076036 XXXX 1      pap     P   1.000
P188    12.408620101   10.050809361   13.929247386 XXXX 1      pap     P   1.000
P189     7.725396297   30.621313610   22.029171614 XXXX 1      pap     P   1.000
P190     7.858784543   23.714822549   22.201208363 XXXX 1      pap     P   1.000
P191     7.696266017   16.782077972   22.143456389 XXXX 1      pap     P   1.000
P192     7.675178539   10.021161600   22.141850827 XXXX 1      pap     P   1.000
O885     7.704093639   30.522794493    4.231812446 XXXX 1      oap1    O  -0.800
O886     7.769792422   23.743080016    4.286309585 XXXX 1      oap1    O  -0.800
O887     7.425498979   16.824751063    4.482197749 XXXX 1      oap1    O  -0.800
O888     7.684928685   10.060061323    4.067976022 XXXX 1      oap1    O  -0.800
O889     3.123019344   30.431929126   12.432716137 XXXX 1      oap1    O  -0.800
O890     2.934429529   23.889192924   12.364760502 XXXX 1      oap1    O  -0.800
O891     3.097173084   16.993512045   12.502159317 XXXX 1      oap1    O  -0.800
O892     2.982668311    9.857652013   12.458529403 XXXX 1      oap1    O  -0.800
O901    16.920183713   30.624156164    4.215450987 XXXX 1      oap1    O  -0.800
O902    17.082028266   23.545286698    4.250265638 XXXX 1      oap1    O  -0.800
O903    17.127963549   16.888372062    4.274591765 XXXX 1      oap1    O  -0.800
O904    17.006671694    9.830354326    4.308702861 XXXX 1      oap1    O  -0.800
O905    12.433040938   30.737928398   12.382492590 XXXX 1      oap1    O  -0.800
O906    12.408378458   23.861972656   12.477088246 XXXX 1      oap1    O  -0.800
O907    12.616169384   17.065459888   12.396842372 XXXX 1      oap1    O  -0.800
O908    12.381156798   10.234299361   12.411504194 XXXX 1      oap1    O  -0.800
O909     7.807402462   30.747228625   20.523531897 XXXX 1      oap1    O  -0.800
O910     7.914976497   23.881702699   20.660823193 XXXX 1      oap1    O  -0.800
O911     7.832179626   16.937453606   20.641650559 XXXX 1      oap1    O  -0.800
O912     7.713280272   10.094160532   20.625916853 XXXX 1      oap1    O  -0.800
O933     6.404548861   30.419471070    6.491379070 XXXX 1      oap1    O  -0.800
O934     6.383485542   23.518948765    6.486768223 XXXX 1      oap1    O  -0.800
O935     6.385869412   16.858183945    6.741145999 XXXX 1      oap1    O  -0.800
O936     6.380361403    9.837051653    6.208369918 XXXX 1      oap1    O  -0.800
O937     1.742046088   30.673505572   14.588950783 XXXX 1      oap1    O  -0.800
O938     1.659077195   23.733140384   14.543001582 XXXX 1      oap1    O  -0.800
O939     1.631488618   16.733599824   14.553588536 XXXX 1      oap1    O  -0.800
O940     1.720238571    9.901527500   14.676308031 XXXX 1      oap1    O  -0.800
O949    15.792797005   30.633664638    6.543817763 XXXX 1      oap1    O  -0.800
O950    16.016401404   23.698371315    6.545859104 XXXX 1      oap1    O  -0.800
O951    15.954398846   16.954531216    6.554397734 XXXX 1      oap1    O  -0.800
O952    15.739961971   10.123643692    6.483185233 XXXX 1      oap1    O  -0.800
O953    11.122364498   30.488575852   14.496873648 XXXX 1      oap1    O  -0.800
O954    11.157798205   23.761283237   14.655244446 XXXX 1      oap1    O  -0.800
O955    11.227420334   17.028847872   14.474395790 XXXX 1      oap1    O  -0.800
O956    10.986396542    9.917545212   14.539050349 XXXX 1      oap1    O  -0.800
O957     6.267074680   30.573150828   22.548025182 XXXX 1      oap1    O  -0.800
O958     6.434849654   23.675094690   22.766779391 XXXX 1      oap1    O  -0.800
O959     6.263819976   16.708666507   22.640957937 XXXX 1      oap1    O  -0.800
O960     6.303686425    9.923452407   22.784792547 XXXX 1      oap1    O  -0.800
Ca405    5.980090635   30.480798268    2.626411155 XXXX 1      ca+h    Ca  1.500
Ca406    5.823462959   23.732906401    2.921580653 XXXX 1      ca+h    Ca  1.500
Ca407    5.886296674   16.755525121    2.396229740 XXXX 1      ca+h    Ca  1.500
Ca408    5.622441474   10.083528149    2.629195038 XXXX 1      ca+h    Ca  1.500
Ca409    1.122060306   30.659438521   11.080896325 XXXX 1      ca+h    Ca  1.500
Ca410    1.025272864   23.615126288   11.126831142 XXXX 1      ca+h    Ca  1.500
Ca411    1.173584020   16.753437287   11.334100418 XXXX 1      ca+h    Ca  1.500
Ca412    1.107456075   10.035118341   11.088411128 XXXX 1      ca+h    Ca  1.500
Ca421   15.391979740   30.511578566    2.275361575 XXXX 1      ca+h    Ca  1.500
Ca422   15.098864278   23.755645746    2.861442130 XXXX 1      ca+h    Ca  1.500
Ca423   15.292269580   16.718462401    2.680124602 XXXX 1      ca+h    Ca  1.500
Ca424   15.019446141   10.154239509    3.031826713 XXXX 1      ca+h    Ca  1.500
Ca425   10.415183909   30.662442496   11.148525853 XXXX 1      ca+h    Ca  1.500
Ca426   10.465604795   23.719147305   11.152656886 XXXX 1      ca+h    Ca  1.500
Ca427   10.563222886   16.787921361   11.175710928 XXXX 1      ca+h    Ca  1.500
Ca428   10.452542057   10.025235530   11.002485877 XXXX 1      ca+h    Ca  1.500
Ca429    5.803689666   30.574134925   19.215111154 XXXX 1      ca+h    Ca  1.500
Ca430    5.879514110   23.692926734   19.408490441 XXXX 1      ca+h    Ca  1.500
Ca431    5.829815603   16.722001293   19.253889470 XXXX 1      ca+h    Ca  1.500
Ca432    5.832815835   10.036722196   19.191964284 XXXX 1      ca+h    Ca  1.500
P213     9.146944133   29.312048958    1.190566764 XXXX 1      pap     P   1.000
P214     8.089346473   24.263680089    1.046945924 XXXX 1      pap     P   1.000
P215     9.148059931   15.562431348    1.272752769 XXXX 1      pap     P   1.000
P216     7.999236408   10.425404449    0.744094328 XXXX 1      pap     P   1.000
P217     3.504543948   30.575457168    9.333558768 XXXX 1      pap     P   1.000
P218     3.663924245   23.648741803    9.387035198 XXXX 1      pap     P   1.000
P219     3.618270231   16.864884305    9.380924549 XXXX 1      pap     P   1.000
P220     3.730503332   10.025055481    9.241113270 XXXX 1      pap     P   1.000
P229    18.590677014   29.458865426    1.116532337 XXXX 1      pap     P   1.000
P230    17.364594231   24.306761401    0.981297387 XXXX 1      pap     P   1.000
P231    18.442494677   16.002856951    1.145152655 XXXX 1      pap     P   1.000
P232    17.026307141   10.569242977    0.795463024 XXXX 1      pap     P   1.000
P233    12.886254549   30.618418866    9.235716226 XXXX 1      pap     P   1.000
P234    12.993801670   23.626644333    9.314035476 XXXX 1      pap     P   1.000
P235    13.030535621   16.764923310    9.243170706 XXXX 1      pap     P   1.000
P236    13.078764267    9.963447761    9.272022599 XXXX 1      pap     P   1.000
P237     8.433873381   30.578432151   17.438100960 XXXX 1      pap     P   1.000
P238     8.276022356   23.709512713   17.462063494 XXXX 1      pap     P   1.000
P239     8.417785043   16.763370361   17.543784535 XXXX 1      pap     P   1.000
P240     8.405322274   10.156663477   17.523913854 XXXX 1      pap     P   1.000
O981     9.420590966   27.953989878    1.786660390 XXXX 1      oap1    O  -0.800
O982     9.379423164   23.736225361    1.762020639 XXXX 1      oap1    O  -0.800
O983     9.580196364   14.167170614    1.956955373 XXXX 1      oap1    O  -0.800
O984     6.879387577    9.338881418    0.856677704 XXXX 1      oap1    O  -0.800
O985     4.811611864   30.655020491   10.160756073 XXXX 1      oap1    O  -0.800
O986     5.028601525   23.556512682   10.150596611 XXXX 1      oap1    O  -0.800
O987     4.958374431   16.963111832   10.132832548 XXXX 1      oap1    O  -0.800
O988     5.131889271   10.012138507    9.886225623 XXXX 1      oap1    O  -0.800
O997    18.797823378   28.060578277    1.779105072 XXXX 1      oap1    O  -0.800
O998    18.476581819   23.729534225    1.872900993 XXXX 1      oap1    O  -0.800
O999    18.816963685   16.938012935    2.286904104 XXXX 1      oap1    O  -0.800
O1000   18.374020714    9.915432423    1.167135160 XXXX 1      oap1    O  -0.800
O1001   14.240725626   30.525436739    9.909350374 XXXX 1      oap1    O  -0.800
O1002   14.317839915   23.731935093   10.099685979 XXXX 1      oap1    O  -0.800
O1003   14.376051411   17.046787846    9.893237250 XXXX 1      oap1    O  -0.800
O1004   14.405222563   10.060483402   10.001877947 XXXX 1      oap1    O  -0.800
O1005    9.722387965   30.651326675   18.232877005 XXXX 1      oap1    O  -0.800
O1006    9.606222319   23.736526593   18.225586170 XXXX 1      oap1    O  -0.800
O1007    9.739545531   16.879601359   18.238237140 XXXX 1      oap1    O  -0.800
O1008    9.706368176   10.223883018   18.307077570 XXXX 1      oap1    O  -0.800
O1029    9.994100795   29.498796599   -0.091461298 XXXX 1      oap1    O  -0.800
O1030    8.322884773   25.129500185   -0.185182150 XXXX 1      oap1    O  -0.800
O1031   10.197564498   15.935965208    0.237378214 XXXX 1      oap1    O  -0.800
O1032    8.268285950   11.034607577   -0.641247056 XXXX 1      oap1    O  -0.800
O1033    3.724878930   30.520532370    7.802770552 XXXX 1      oap1    O  -0.800
O1034    3.766943995   23.670050483    7.894787679 XXXX 1      oap1    O  -0.800
O1035    3.824142480   16.800142421    7.893521922 XXXX 1      oap1    O  -0.800
O1036    3.688399657    9.867264050    7.723867937 XXXX 1      oap1    O  -0.800
O1045   19.510099653   29.598590891   -0.114155111 XXXX 1      oap1    O  -0.800
O1046   17.862720304   24.977520128   -0.312114558 XXXX 1      oap1    O  -0.800
O1047   19.297110636   16.246136694   -0.094724076 XXXX 1      oap1    O  -0.800
O1048   17.042214538   11.558469546   -0.376956578 XXXX 1      oap1    O  -0.800
O1049   13.017054707   30.820022874    7.750693803 XXXX 1      oap1    O  -0.800
O1050   13.288065003   23.526147895    7.757759700 XXXX 1      oap1    O  -0.800
O1051   13.132394320   16.777011961    7.657231537 XXXX 1      oap1    O  -0.800
O1052   13.199630157    9.796741222    7.796283339 XXXX 1      oap1    O  -0.800
O1053    8.660495302   30.640290168   15.873616752 XXXX 1      oap1    O  -0.800
O1054    8.522892448   23.644685837   15.922239754 XXXX 1      oap1    O  -0.800
O1055    8.582913568   16.749710663   15.970269851 XXXX 1      oap1    O  -0.800
O1056    8.525819267    9.994421420   15.991493196 XXXX 1      oap1    O  -0.800
Ca437    2.794972747   29.850670899    0.700970337 XXXX 1      ca+h    Ca  1.500
Ca439    2.485726551   16.510484347    1.077038597 XXXX 1      ca+h    Ca  1.500
Ca453   11.988784204   30.545572727    0.822539935 XXXX 1      ca+h    Ca  1.500
Ca455   12.298198406   16.587328502    0.936339909 XXXX 1      ca+h    Ca  1.500
Ca457    6.866614603   30.419632208    8.979182845 XXXX 1      ca+h    Ca  1.500
Ca458    7.115529812   23.677245972    8.962351339 XXXX 1      ca+h    Ca  1.500
Ca459    7.071294187   16.668776870    9.031447999 XXXX 1      ca+h    Ca  1.500
Ca460    7.200979900   10.016354453    8.804364734 XXXX 1      ca+h    Ca  1.500
Ca461    2.349435944   30.526083818   17.080970283 XXXX 1      ca+h    Ca  1.500
Ca462    2.564825342   23.633727335   17.155003837 XXXX 1      ca+h    Ca  1.500
Ca463    2.483345917   16.857005356   17.102319685 XXXX 1      ca+h    Ca  1.500
Ca464    2.444683177    9.925073832   17.154264049 XXXX 1      ca+h    Ca  1.500
Ca469   21.555723374   30.317828916    0.791222345 XXXX 1      ca+h    Ca  1.500
Ca471   21.437308433   16.473076346    0.730632434 XXXX 1      ca+h    Ca  1.500
Ca473   16.388526500   30.449158737    8.813543835 XXXX 1      ca+h    Ca  1.500
Ca474   16.459169274   23.845386935    9.077887189 XXXX 1      ca+h    Ca  1.500
Ca475   16.567415736   16.896387545    8.944992168 XXXX 1      ca+h    Ca  1.500
Ca476   16.494180312    9.924309687    8.864977603 XXXX 1      ca+h    Ca  1.500
Ca477   11.780873298   30.642986801   17.144641966 XXXX 1      ca+h    Ca  1.500
Ca478   11.727626639   23.683234127   17.095008503 XXXX 1      ca+h    Ca  1.500
Ca479   11.863420394   16.807379183   17.118417501 XXXX 1      ca+h    Ca  1.500
Ca480   11.777825937   10.098148687   16.964418110 XXXX 1      ca+h    Ca  1.500
P245     2.717476801   30.392403453    3.779695398 XXXX 1      pap     P   1.000
P246     2.732261641   23.542000247    3.906635669 XXXX 1      pap     P   1.000
P247     2.583353208   16.814175874    4.099538926 XXXX 1      pap     P   1.000
P248     2.744989975   10.013434491    3.786496863 XXXX 1      pap     P   1.000
P261    12.133361008   30.677181717    3.920954190 XXXX 1      pap     P   1.000
P262    12.227250589   23.670728343    3.856021795 XXXX 1      pap     P   1.000
P263    12.062064883   16.918534113    3.983450925 XXXX 1      pap     P   1.000
P264    12.158378534   10.088853882    3.736303851 XXXX 1      pap     P   1.000
P265     7.335381359   30.593730822   12.102643151 XXXX 1      pap     P   1.000
P266     7.405549358   23.649169350   12.174134540 XXXX 1      pap     P   1.000
P267     7.437953379   16.832615317   12.111505828 XXXX 1      pap     P   1.000
P268     7.418577253    9.970628934   12.056694314 XXXX 1      pap     P   1.000
P269     2.712861150   30.623608685   20.243410860 XXXX 1      pap     P   1.000
P270     2.777475191   23.689428843   20.131745666 XXXX 1      pap     P   1.000
P271     2.615382704   16.795740374   20.275270985 XXXX 1      pap     P   1.000
P272     2.672258761    9.953324390   20.145065851 XXXX 1      pap     P   1.000
P277    21.600937633   30.599822194    3.803467642 XXXX 1      pap     P   1.000
P278    21.619945123   23.463678832    3.853821762 XXXX 1      pap     P   1.000
P279    21.462373900   16.877046435    4.057823356 XXXX 1      pap     P   1.000
P280    21.678210325   10.026173368    3.855353608 XXXX 1      pap     P   1.000
P281    16.710112613   30.688150524   11.898523429 XXXX 1      pap     P   1.000
P282    16.795477941   23.700190766   12.051276220 XXXX 1      pap     P   1.000
P283    16.798215803   16.830349798   12.030692678 XXXX 1      pap     P   1.000
P284    16.777042250   10.070054673   12.172207180 XXXX 1      pap     P   1.000
P285    12.243437801   30.696125367   20.193743363 XXXX 1      pap     P   1.000
P286    12.120110732   23.628051358   20.182179097 XXXX 1      pap     P   1.000
P287    12.163577092   16.813929939   20.210637403 XXXX 1      pap     P   1.000
P288    12.158715548    9.989731090   20.185345749 XXXX 1      pap     P   1.000
O1061    1.616452508   30.399485592    4.836666057 XXXX 1      oap1    O  -0.800
O1062    1.354222366   23.691641461    4.642014170 XXXX 1      oap1    O  -0.800
O1063    1.351666800   16.830053424    5.009314206 XXXX 1      oap1    O  -0.800
O1064    1.279974063    9.975758264    4.353547021 XXXX 1      oap1    O  -0.800
O1077   10.889347930   30.669830170    4.815883103 XXXX 1      oap1    O  -0.800
O1078   10.925108096   23.874706382    4.638572083 XXXX 1      oap1    O  -0.800
O1079   10.853152678   16.794428146    4.906598269 XXXX 1      oap1    O  -0.800
O1080   10.676190369   10.066913222    4.237564283 XXXX 1      oap1    O  -0.800
O1081    6.108803572   30.617278167   13.047854275 XXXX 1      oap1    O  -0.800
O1082    6.133204775   23.536601166   13.015129942 XXXX 1      oap1    O  -0.800
O1083    6.239697477   16.980099206   13.057943084 XXXX 1      oap1    O  -0.800
O1084    6.101318579   10.057511697   12.763093669 XXXX 1      oap1    O  -0.800
O1085    1.458157340   30.744687025   21.077871923 XXXX 1      oap1    O  -0.800
O1086    1.470037671   23.767067850   20.962163204 XXXX 1      oap1    O  -0.800
O1087    1.320425821   16.526109416   21.112725465 XXXX 1      oap1    O  -0.800
O1088    1.383483141   10.010564678   20.973577568 XXXX 1      oap1    O  -0.800
O1093   20.471957005   30.625678162    4.821472889 XXXX 1      oap1    O  -0.800
O1094   20.256438729   23.503770928    4.544411107 XXXX 1      oap1    O  -0.800
O1095   20.208599068   16.967505034    4.960232483 XXXX 1      oap1    O  -0.800
O1096   20.259776871    9.964236476    4.519346854 XXXX 1      oap1    O  -0.800
O1097   15.403120475   30.865689743   12.681242241 XXXX 1      oap1    O  -0.800
O1098   15.556648821   23.660630733   12.881549970 XXXX 1      oap1    O  -0.800
O1099   15.541070429   16.914449799   12.850498818 XXXX 1      oap1    O  -0.800
O1100   15.414081867    9.995808589   12.936501005 XXXX 1      oap1    O  -0.800
O1101   10.934493694   30.725311287   20.992101808 XXXX 1      oap1    O  -0.800
O1102   10.909533634   23.610332346   21.049300764 XXXX 1      oap1    O  -0.800
O1103   10.834457113   16.750091942   21.043875134 XXXX 1      oap1    O  -0.800
O1104   10.735810981    9.939139077   20.925343419 XXXX 1      oap1    O  -0.800
O1109    4.061909373   30.644975128    4.452798910 XXXX 1      oap1    O  -0.800
O1110    3.974082021   23.665218699    4.865797164 XXXX 1      oap1    O  -0.800
O1111    3.866258808   16.965698832    4.978650915 XXXX 1      oap1    O  -0.800
O1112    3.698179171   10.033076018    4.953484128 XXXX 1      oap1    O  -0.800
O1125   13.357799983   30.843859573    4.779058117 XXXX 1      oap1    O  -0.800
O1126   13.399056614   23.758182438    4.831498666 XXXX 1      oap1    O  -0.800
O1127   13.392757211   16.992661034    4.737793535 XXXX 1      oap1    O  -0.800
O1128   13.159319699   10.121463961    4.924091776 XXXX 1      oap1    O  -0.800
O1129    8.634006888   30.597542139   12.916424421 XXXX 1      oap1    O  -0.800
O1130    8.669218989   23.698297943   13.115713762 XXXX 1      oap1    O  -0.800
O1131    8.768645911   16.833239236   12.902850446 XXXX 1      oap1    O  -0.800
O1132    8.595637323    9.881470256   13.008186718 XXXX 1      oap1    O  -0.800
O1133    3.961288166   30.598056162   21.134766230 XXXX 1      oap1    O  -0.800
O1134    3.994156521   23.581300571   21.124300010 XXXX 1      oap1    O  -0.800
O1135    3.872596706   16.866751656   21.152283025 XXXX 1      oap1    O  -0.800
O1136    3.917347856    9.918420026   20.939128811 XXXX 1      oap1    O  -0.800
O1141   22.914682098   30.613244747    4.620158150 XXXX 1      oap1    O  -0.800
O1142   22.812692361   23.572668865    4.836215055 XXXX 1      oap1    O  -0.800
O1143   22.716793974   16.943413446    4.921600326 XXXX 1      oap1    O  -0.800
O1144   22.779473612   10.043812029    4.977952602 XXXX 1      oap1    O  -0.800
O1145   18.004330243   30.649596331   12.818125359 XXXX 1      oap1    O  -0.800
O1146   18.012125263   23.590523866   12.980860393 XXXX 1      oap1    O  -0.800
O1147   18.069663729   16.797127869   12.954818246 XXXX 1      oap1    O  -0.800
O1148   18.044396651   10.041612804   12.981130077 XXXX 1      oap1    O  -0.800
O1149   13.434831209   30.575867573   21.110876335 XXXX 1      oap1    O  -0.800
O1150   13.406662801   23.686629306   21.032465243 XXXX 1      oap1    O  -0.800
O1151   13.409150992   16.803907808   21.119936525 XXXX 1      oap1    O  -0.800
O1152   13.441545419    9.950424664   21.073724612 XXXX 1      oap1    O  -0.800
O1177    0.124674242   33.522041942    9.006879531 XXXX 1      oap2    O  -1.100
O1178   -0.016245418   26.509025523    8.976487493 XXXX 1      oap2    O  -1.100
O1179    0.089995264   19.588823632    9.160016178 XXXX 1      oap2    O  -1.100
O1180    0.028020651   12.685963891    9.053413753 XXXX 1      oap2    O  -1.100
O1193    9.417632753   33.396654675    8.833356933 XXXX 1      oap2    O  -1.100
O1194    9.401254304   26.226724697    9.163214350 XXXX 1      oap2    O  -1.100
O1195    9.650569481   19.521815291    9.056105692 XXXX 1      oap2    O  -1.100
O1196    9.357101435   12.523923336    8.956527458 XXXX 1      oap2    O  -1.100
O1197    4.707692060   33.189107353   17.125554581 XXXX 1      oap2    O  -1.100
O1198    4.602432180   26.435677800   17.171244711 XXXX 1      oap2    O  -1.100
O1199    4.756269060   19.516271337   17.274671636 XXXX 1      oap2    O  -1.100
O1200    4.730238532   12.539738798   17.204841608 XXXX 1      oap2    O  -1.100
O1221    4.515336162   31.534802443    0.979495291 XXXX 1      oap2    O  -1.100
O1222    4.680795572   28.158721606    0.774959963 XXXX 1      oap2    O  -1.100
O1223    4.205368194   18.226589264    1.161847506 XXXX 1      oap2    O  -1.100
O1224    4.436499811   15.001210847    1.098166977 XXXX 1      oap2    O  -1.100
O1237   13.706850115   32.324422123    0.932040377 XXXX 1      oap2    O  -1.100
O1238   13.833479035   29.031530538    1.049370764 XXXX 1      oap2    O  -1.100
O1239   13.924624760   18.320708234    1.210718489 XXXX 1      oap2    O  -1.100
O1240   14.154631158   14.897066895    1.148030054 XXXX 1      oap2    O  -1.100
O1241    9.260686544   30.135001214    9.021680993 XXXX 1      oap2    O  -1.100
O1242    9.483123085   22.937424991    9.029883880 XXXX 1      oap2    O  -1.100
O1243    9.400244592   16.105701291    9.208516139 XXXX 1      oap2    O  -1.100
O1244    9.467136655    9.296465093    8.762001935 XXXX 1      oap2    O  -1.100
O1245    4.644183993   29.710873444   17.273270232 XXXX 1      oap2    O  -1.100
O1246    4.861282924   22.824078901   17.200193858 XXXX 1      oap2    O  -1.100
O1247    4.756219596   15.884763624   17.294179527 XXXX 1      oap2    O  -1.100
O1248    4.788267510    9.285866514   17.120867310 XXXX 1      oap2    O  -1.100
H25     -0.228432026   32.641373094    9.137774914 XXXX 1      hop     H   0.200
H26      0.124781694   25.703375791    9.432342771 XXXX 1      hop     H   0.200
H27      0.643782638   18.943926994    9.626778559 XXXX 1      hop     H   0.200
H28     -0.269479466   12.200224418    9.817316580 XXXX 1      hop     H   0.200
H41      9.258438990   32.452487257    8.945435603 XXXX 1      hop     H   0.200
H42      9.262063403   25.391053989    9.495261409 XXXX 1      hop     H   0.200
H43      9.259797038   18.669825332    9.220373614 XXXX 1      hop     H   0.200
H44      9.410369744   11.604816338    8.812174950 XXXX 1      hop     H   0.200
H45      4.471419383   32.290274559   17.330616626 XXXX 1      hop     H   0.200
H46      4.863822010   25.587335915   17.381093642 XXXX 1      hop     H   0.200
H47      4.624206468   18.569407092   17.170828429 XXXX 1      hop     H   0.200
H48      4.850990162   11.635511747   17.113738642 XXXX 1      hop     H   0.200
H69      4.987934369   32.122159958    0.382296794 XXXX 1      hop     H   0.200
H70      4.644837626   27.933742978   -0.126217096 XXXX 1      hop     H   0.200
H71      4.386386432   18.368373539    0.279542545 XXXX 1      hop     H   0.200
H72      4.967453095   15.070689312    0.286181995 XXXX 1      hop     H   0.200
H85     14.505472857   32.554660714    0.568148313 XXXX 1      hop     H   0.200
H86     14.077305474   29.071328843    0.150746663 XXXX 1      hop     H   0.200
H87     14.521480412   18.845164144    0.629343197 XXXX 1      hop     H   0.200
H88     14.527135569   14.967515605    0.282829608 XXXX 1      hop     H   0.200
H89      8.930547901   29.454536515    8.476647010 XXXX 1      hop     H   0.200
H90      9.933724424   22.152616920    9.232020006 XXXX 1      hop     H   0.200
H91      9.256325181   15.176293591    9.169487743 XXXX 1      hop     H   0.200
H92      9.066182900    8.465398919    8.713990276 XXXX 1      hop     H   0.200
H93      4.758786331   28.810781971   16.925904279 XXXX 1      hop     H   0.200
H94      4.783391923   21.841366660   17.300129523 XXXX 1      hop     H   0.200
H95      4.361613800   15.128136792   17.649669444 XXXX 1      hop     H   0.200
H96      4.450330683    8.426629841   16.877444255 XXXX 1      hop     H   0.200
end
O21      5.979909598    7.899757467    3.368458209 XXXX 1      oap1    O  -0.800
O25      0.672780339    7.782441328   11.905044470 XXXX 1      oap1    O  -0.800
O37     15.121002918    7.843292868    3.552907982 XXXX 1      oap1    O  -0.800
O41     10.217992043    7.812509062   11.568644317 XXXX 1      oap1    O  -0.800
O45      5.765134394    7.757012602   19.602422147 XXXX 1      oap1    O  -0.800
O69      6.632434381    7.737972702    8.377003080 XXXX 1      oap1    O  -0.800
O73      2.068056937    7.738144604   16.494292423 XXXX 1      oap1    O  -0.800
O85     15.958843280    7.726118098    8.194288980 XXXX 1      oap1    O  -0.800
O89     11.250745909    7.778082099   16.425709657 XXXX 1      oap1    O  -0.800
O93      6.908906723    7.682235873   24.942214875 XXXX 1      oap1    O  -0.800
O117     2.048628810    7.693648634    6.845925799 XXXX 1      oap1    O  -0.800
O133    11.097757674    7.473857594    6.785358753 XXXX 1      oap1    O  -0.800
O137     6.674451917    7.781346380   14.973671051 XXXX 1      oap1    O  -0.800
O141     2.050973443    7.760557677   23.194408589 XXXX 1      oap1    O  -0.800
O165     8.460251002    4.248770568    6.155950745 XXXX 1      oap1    O  -0.800
O169     3.968714226    4.241638375   14.127612140 XXXX 1      oap1    O  -0.800
O181    18.087942304    4.397958453    6.340533719 XXXX 1      oap1    O  -0.800
O185    13.290713340    4.390964829   14.281474006 XXXX 1      oap1    O  -0.800
O189     8.709399461    4.218497051   22.454926557 XXXX 1      oap1    O  -0.800
O213     9.739248276    3.181642862    2.083620962 XXXX 1      oap1    O  -0.800
O217     2.907832155    4.477744425    9.581771284 XXXX 1      oap1    O  -0.800
O229    18.586120838    5.542029434    1.288423918 XXXX 1      oap1    O  -0.800
O233    12.116999163    4.404184157    9.602011244 XXXX 1      oap1    O  -0.800
O237     7.712111600    4.347512457   17.946861333 XXXX 1      oap1    O  -0.800
O245     2.492621035    4.482921362    3.133710691 XXXX 1      oap1    O  -0.800
O261    11.907168121    4.303805416    3.010234739 XXXX 1      oap1    O  -0.800
O265     7.468726142    4.266409529   10.884653824 XXXX 1      oap1    O  -0.800
O269     2.651265661    4.279726318   19.285654805 XXXX 1      oap1    O  -0.800
O277    21.467468057    4.425571297    2.886499107 XXXX 1      oap1    O  -0.800
O281    16.945176768    4.429048483   11.006126238 XXXX 1      oap1    O  -0.800
O285    12.103192033    4.375232658   19.129850895 XXXX 1      oap1    O  -0.800
O309     8.619623054    1.818370703    6.073389071 XXXX 1      oap1    O  -0.800
O313     4.059196456    1.848823692   14.065393601 XXXX 1      oap1    O  -0.800
O325    18.061844604    1.846805372    6.005605673 XXXX 1      oap1    O  -0.800
O329    13.300448905    1.848242675   14.254359696 XXXX 1      oap1    O  -0.800
O333     8.714264830    1.827432902   22.210692146 XXXX 1      oap1    O  -0.800
O357     7.499493823    2.437336359    1.173146841 XXXX 1      oap1    O  -0.800
O361     2.680838076    1.888983445    9.637563153 XXXX 1      oap1    O  -0.800
O373    16.702880700    3.926053075    0.907389280 XXXX 1      oap1    O  -0.800
O377    12.269158708    1.979198382    9.768213686 XXXX 1      oap1    O  -0.800
O381     7.392407924    1.880015701   17.676225894 XXXX 1      oap1    O  -0.800
O389     3.115965492    2.072908695    2.643715895 XXXX 1      oap1    O  -0.800
O405    12.555103096    1.872120806    2.657545442 XXXX 1      oap1    O  -0.800
O409     7.222335009    1.763267613   11.152232092 XXXX 1      oap1    O  -0.800
O413     2.626690209    1.833084106   19.350123202 XXXX 1      oap1    O  -0.800
O421    21.241506602    1.899134790    2.981853026 XXXX 1      oap1    O  -0.800
O425    16.801455271    1.917683802   11.221980365 XXXX 1      oap1    O  -0.800
O429    12.007188143    1.942710517   19.091519007 XXXX 1      oap1    O  -0.800
O453     5.648014891    5.368693554    3.595402424 XXXX 1      oap1    O  -0.800
O457     0.773322686    5.215375579   11.781047332 XXXX 1      oap1    O  -0.800
O469    15.018735103    5.428041922    3.741446050 XXXX 1      oap1    O  -0.800
O473    10.291294979    5.310494686   11.872657152 XXXX 1      oap1    O  -0.800
O477     5.494819418    5.358403184   19.830501911 XXXX 1      oap1    O  -0.800
O501     6.334343461    5.272474436    8.333415866 XXXX 1      oap1    O  -0.800
O505     1.863365351    5.257582985   16.227883124 XXXX 1      oap1    O  -0.800
O517    15.716582509    5.284065338    8.191902645 XXXX 1      oap1    O  -0.800
O521    11.474635963    5.398394184   16.390748023 XXXX 1      oap1    O  -0.800
O525     6.485661006    5.236692821   24.456800518 XXXX 1      oap1    O  -0.800
O549     1.863384610    5.292946282    6.667568824 XXXX 1      oap1    O  -0.800
O565    10.840901505    5.149477511    5.918290312 XXXX 1      oap1    O  -0.800
O569     6.744201368    5.319087257   15.063475422 XXXX 1      oap1    O  -0.800
O573     2.191690945    5.261248788   23.180793104 XXXX 1      oap1    O  -0.800
Ca5     -0.126809881    8.410190082    3.416747731 XXXX 1      ca+h    Ca  1.500
Ca21     9.100105616    8.415769625    3.258751008 XXXX 1      ca+h    Ca  1.500
Ca25     4.742866867    8.231089708   11.648954627 XXXX 1      ca+h    Ca  1.500
Ca29     0.083917159    8.137838559   19.704289119 XXXX 1      ca+h    Ca  1.500
Ca37    17.475230357    7.613099394    1.256667571 XXXX 1      ca+h    Ca  1.500
Ca41    14.083066418    8.278568207   11.870714582 XXXX 1      ca+h    Ca  1.500
Ca45     9.360914798    8.232686536   19.847354348 XXXX 1      ca+h    Ca  1.500
Ca69     4.682914635    4.830718709    6.426747774 XXXX 1      ca+h    Ca  1.500
Ca73     0.200571227    4.861412017   14.397965189 XXXX 1      ca+h    Ca  1.500
Ca85    14.332561952    4.861484963    6.113845642 XXXX 1      ca+h    Ca  1.500
Ca89     9.465369012    4.857762929   14.257360355 XXXX 1      ca+h    Ca  1.500
Ca93     4.637327064    4.915036987   22.578243502 XXXX 1      ca+h    Ca  1.500
Ca117    4.480750500    1.391565644    6.141408410 XXXX 1      ca+h    Ca  1.500
Ca121   -0.074807611    1.394444937   14.499821595 XXXX 1      ca+h    Ca  1.500
Ca133   14.057132327    1.442886939    6.205946781 XXXX 1      ca+h    Ca  1.500
Ca137    9.401707992    1.506848130   14.374400151 XXXX 1      ca+h    Ca  1.500
Ca141    4.722881330    1.438488468   22.559643016 XXXX 1      ca+h    Ca  1.500
Ca149    0.103556207    4.705302138    3.775322986 XXXX 1      ca+h    Ca  1.500
Ca165    9.514898020    4.774130928    3.909565944 XXXX 1      ca+h    Ca  1.500
Ca169    4.694362546    4.759890833   11.572463787 XXXX 1      ca+h    Ca  1.500
Ca173   -0.047530308    4.672917150   19.964865424 XXXX 1      ca+h    Ca  1.500
Ca181   18.816175388    4.919229264    3.776169582 XXXX 1      ca+h    Ca  1.500
Ca185   13.986711888    4.870662913   11.681767889 XXXX 1      ca+h    Ca  1.500
Ca189    9.473408505    4.780003775   19.758562370 XXXX 1      ca+h    Ca  1.500
Ca213    3.803680991    6.599791352    2.728514749 XXXX 1      ca+h    Ca  1.500
Ca229   12.969085881    6.567462085    2.780910277 XXXX 1      ca+h    Ca  1.500
Ca233    8.073978787    6.547360873   10.820873420 XXXX 1      ca+h    Ca  1.500
Ca237    3.536856508    6.508610123   18.996900567 XXXX 1      ca+h    Ca  1.500
P21      6.484702534    6.618816889    4.048082473 XXXX 1      pap     P   1.000
P25      1.566058874    6.508642172   12.254565693 XXXX 1      pap     P   1.000
P37     15.834177836    6.650044249    4.070006376 XXXX 1      pap     P   1.000
P41     10.977368066    6.642138514   12.223325112 XXXX 1      pap     P   1.000
P45      6.307830191    6.565593621   20.348841923 XXXX 1      pap     P   1.000
O597     6.266727661    6.697190637    5.586047696 XXXX 1      oap1    O  -0.800
O601     1.797293311    6.480333888   13.791112778 XXXX 1      oap1    O  -0.800
O613    15.889087365    6.677835459    5.591637394 XXXX 1      oap1    O  -0.800
O617    11.040127037    6.725183930   13.719637124 XXXX 1      oap1    O  -0.800
O621     6.057383707    6.686622971   21.852616677 XXXX 1      oap1    O  -0.800
O645     7.972136638    6.476498811    3.719580226 XXXX 1      oap1    O  -0.800
O649     2.969079404    6.540041696   11.574409220 XXXX 1      oap1    O  -0.800
O661    17.257253503    6.597786815    3.414751996 XXXX 1      oap1    O  -0.800
O665    12.357921607    6.557075443   11.636671962 XXXX 1      oap1    O  -0.800
O669     7.869811860    6.425694782   20.032409214 XXXX 1      oap1    O  -0.800
Ca261    8.180285783    6.476174978    6.838657845 XXXX 1      ca+h    Ca  1.500
Ca265    3.750554488    6.439046357   14.960738800 XXXX 1      ca+h    Ca  1.500
Ca277   17.838046264    6.615629331    6.944826325 XXXX 1      ca+h    Ca  1.500
Ca281   13.029006257    6.676621244   15.179135745 XXXX 1      ca+h    Ca  1.500
Ca285    8.326777370    6.546274871   23.169358601 XXXX 1      ca+h    Ca  1.500
P69      5.692030366    6.618270444    8.765427710 XXXX 1      pap     P   1.000
P73      1.243543234    6.527678952   16.873125368 XXXX 1      pap     P   1.000
P85     15.084323802    6.558023710    8.747568572 XXXX 1      pap     P   1.000
P89     10.602814967    6.502411462   16.891880453 XXXX 1      pap     P   1.000
P93      5.898529454    6.516875534   25.141894120 XXXX 1      pap     P   1.000
O693     4.456589001    6.750567391    7.877705811 XXXX 1      oap1    O  -0.800
O697    -0.165396810    6.567928369   16.219186295 XXXX 1      oap1    O  -0.800
O709    13.681124067    6.667232002    8.082768973 XXXX 1      oap1    O  -0.800
O713     9.225792400    6.405510224   16.203125721 XXXX 1      oap1    O  -0.800
O717     4.582167010    6.917937963   24.509416589 XXXX 1      oap1    O  -0.800
O741     5.443631458    6.555824838   10.291871672 XXXX 1      oap1    O  -0.800
O745     1.065021756    6.394782901   18.445836403 XXXX 1      oap1    O  -0.800
O757    15.031569387    6.601463508   10.341079646 XXXX 1      oap1    O  -0.800
O761    10.476577471    6.552126218   18.439122736 XXXX 1      oap1    O  -0.800
O765     5.670759284    6.272500789   26.595790320 XXXX 1      oap1    O  -0.800
Ca309    2.236586923    6.816562627    9.092997118 XXXX 1      ca+h    Ca  1.500
Ca325   11.615413003    6.668959373    9.051417389 XXXX 1      ca+h    Ca  1.500
Ca329    7.008840889    6.640742263   17.236330056 XXXX 1      ca+h    Ca  1.500
Ca333    2.295374811    6.685909819   25.417762683 XXXX 1      ca+h    Ca  1.500
P117     2.035960217    6.512116004    5.836094402 XXXX 1      pap     P   1.000
P133    11.319701882    6.563830285    5.551281052 XXXX 1      pap     P   1.000
P137     6.665239163    6.501365003   14.068875850 XXXX 1      pap     P   1.000
P141     1.986432502    6.503464939   22.289820834 XXXX 1      pap     P   1.000
O789     3.382042579    6.448533031    5.021454267 XXXX 1      oap1    O  -0.800
O805    12.865648665    6.439931325    5.247625344 XXXX 1      oap1    O  -0.800
O809     7.958911733    6.540279738   13.274988723 XXXX 1      oap1    O  -0.800
O813     3.177115496    6.584716209   21.361696914 XXXX 1      oap1    O  -0.800
O837     0.773144470    6.638173467    4.966361459 XXXX 1      oap1    O  -0.800
O853    10.632397082    6.932585629    4.213479304 XXXX 1      oap1    O  -0.800
O857     5.420959798    6.373226115   13.179102621 XXXX 1      oap1    O  -0.800
O861     0.696879926    6.443483088   21.451569947 XXXX 1      oap1    O  -0.800
Ca341    1.275092531    3.136296372    7.114251574 XXXX 1      ca+h    Ca  1.500
Ca357   10.544478062    3.073783555    6.979752525 XXXX 1      ca+h    Ca  1.500
Ca361    5.906505810    3.107929050   15.117034150 XXXX 1      ca+h    Ca  1.500
Ca365    1.125308068    3.198740967   23.363083664 XXXX 1      ca+h    Ca  1.500
Ca373   20.247664482    3.244512935    7.139150006 XXXX 1      ca+h    Ca  1.500
Ca377   15.283485247    3.195095822   15.186368378 XXXX 1      ca+h    Ca  1.500
Ca381   10.631863777    3.170966755   23.367956119 XXXX 1      ca+h    Ca  1.500
P165     7.667816228    3.000918297    5.769409622 XXXX 1      pap     P   1.000
P169     3.202099422    3.053482935   13.704348746 XXXX 1      pap     P   1.000
P181    17.293603708    3.165134284    5.774301517 XXXX 1      pap     P   1.000
P185    12.524567152    3.110393687   13.882481207 XXXX 1      pap     P   1.000
P189     7.886729067    3.095337252   21.973971981 XXXX 1      pap     P   1.000
O885     7.628490175    3.071849389    4.262543725 XXXX 1      oap1    O  -0.800
O889     3.005255003    3.208452626   12.164025929 XXXX 1      oap1    O  -0.800
O901    17.110249008    3.479684633    4.242214407 XXXX 1      oap1    O  -0.800
O905    12.404159742    3.198737267   12.359214404 XXXX 1      oap1    O  -0.800
O909     7.658291910    3.215293864   20.457170670 XXXX 1      oap1    O  -0.800
O933     6.318470549    2.867884725    6.409339823 XXXX 1      oap1    O  -0.800
O937     1.843901977    2.909861945   14.509050757 XXXX 1      oap1    O  -0.800
O949    15.869505355    3.112465646    6.366578138 XXXX 1      oap1    O  -0.800
O953    11.098704876    3.128332547   14.519272812 XXXX 1      oap1    O  -0.800
O957     6.482254113    3.080418481   22.686652577 XXXX 1      oap1    O  -0.800
Ca405    5.886869551    3.079786818    2.801193840 XXXX 1      ca+h    Ca  1.500
Ca409    1.066139922    3.134673283   10.963511621 XXXX 1      ca+h    Ca  1.500
Ca421   15.158400779    3.282626027    2.502616908 XXXX 1      ca+h    Ca  1.500
Ca425   10.514391633    3.119355065   10.963602102 XXXX 1      ca+h    Ca  1.500
Ca429    5.673725533    3.215684164   19.004175292 XXXX 1      ca+h    Ca  1.500
P213     9.055751037    2.282066530    0.996328575 XXXX 1      pap     P   1.000
P217     3.522138633    3.117331312    9.194793322 XXXX 1      pap     P   1.000
P229    18.244292739    4.080382530    0.915891599 XXXX 1      pap     P   1.000
P233    12.963061633    3.214584549    9.194743431 XXXX 1      pap     P   1.000
P237     8.325270868    3.085065473   17.347029657 XXXX 1      pap     P   1.000
O981     9.479419070    0.918965422    1.509896573 XXXX 1      oap1    O  -0.800
O985     4.913238970    3.068563343    9.941698578 XXXX 1      oap1    O  -0.800
O997    18.784144663    3.231042797    2.015798456 XXXX 1      oap1    O  -0.800
O1001   14.354710254    3.259517985    9.903599966 XXXX 1      oap1    O  -0.800
O1005    9.727608243    2.830972644   17.979856582 XXXX 1      oap1    O  -0.800
O1029    9.766976919    2.652245454   -0.326942095 XXXX 1      oap1    O  -0.800
O1033    3.675286326    3.045237995    7.623725966 XXXX 1      oap1    O  -0.800
O1045   19.044181458    3.614372985   -0.315182697 XXXX 1      oap1    O  -0.800
O1049   13.087416288    3.190574765    7.672944120 XXXX 1      oap1    O  -0.800
O1053    8.402447117    3.188398058   15.801835816 XXXX 1      oap1    O  -0.800
Ca437    2.249610947    3.492903561    0.735850431 XXXX 1      ca+h    Ca  1.500
Ca453   11.742184138    3.356694480    0.619802156 XXXX 1      ca+h    Ca  1.500
Ca457    6.988235128    2.909363197    8.892743546 XXXX 1      ca+h    Ca  1.500
Ca461    2.216505041    2.982850674   17.014020475 XXXX 1      ca+h    Ca  1.500
Ca469   21.115632344    2.984781739    0.695024171 XXXX 1      ca+h    Ca  1.500
Ca473   16.474179464    3.208705092    9.016943239 XXXX 1      ca+h    Ca  1.500
Ca477   11.889573268    3.164928851   16.995767817 XXXX 1      ca+h    Ca  1.500
P245     2.803050369    3.084164272    3.766334077 XXXX 1      pap     P   1.000
P261    12.255612690    2.995805413    3.752940280 XXXX 1      pap     P   1.000
P265     7.383004966    3.131458041   11.920030182 XXXX 1      pap     P   1.000
P269     2.753320672    3.090741536   20.231815533 XXXX 1      pap     P   1.000
P277    21.437874853    3.218319249    3.830533096 XXXX 1      pap     P   1.000
P281    16.781234608    3.246837810   12.039538826 XXXX 1      pap     P   1.000
P285    12.126688896    3.168041555   20.041198248 XXXX 1      pap     P   1.000
O1061    1.550161231    2.687550984    4.644101235 XXXX 1      oap1    O  -0.800
O1077   11.061014003    2.591086125    4.626500959 XXXX 1      oap1    O  -0.800
O1081    6.142574574    3.329425838   12.768545444 XXXX 1      oap1    O  -0.800
O1085    1.468646725    3.197693408   21.099338290 XXXX 1      oap1    O  -0.800
O1093   20.245426758    3.242608643    4.819660946 XXXX 1      oap1    O  -0.800
O1097   15.400357509    3.291448505   12.675077542 XXXX 1      oap1    O  -0.800
O1101   10.862134028    3.134015790   20.932367215 XXXX 1      oap1    O  -0.800
O1109    4.011422878    3.273787282    4.736179732 XXXX 1      oap1    O  -0.800
O1125   13.519444056    3.142192997    4.604047078 XXXX 1      oap1    O  -0.800
O1129    8.689475922    3.142723172   12.823675349 XXXX 1      oap1    O  -0.800
O1133    4.066191376    3.251768351   21.075555610 XXXX 1      oap1    O  -0.800
O1141   22.817281132    3.231587728    4.619210312 XXXX 1      oap1    O  -0.800
O1145   17.919912674    3.185697911   13.037885760 XXXX 1      oap1    O  -0.800
O1149   13.371560901    3.134861084   20.983513270 XXXX 1      oap1    O  -0.800
O1177    0.051425604    5.765632166    9.050096875 XXXX 1      oap2    O  -1.100
O1193    9.265012251    5.871341771    8.860673795 XXXX 1      oap2    O  -1.100
O1197    4.795089414    5.671528000   17.101444204 XXXX 1      oap2    O  -1.100
O1221    4.051710032    5.085431308    0.923015229 XXXX 1      oap2    O  -1.100
O1237   13.678954147    4.751812265    1.071553210 XXXX 1      oap2    O  -1.100
O1241    9.420284193    2.391944723    8.990796793 XXXX 1      oap2    O  -1.100
O1245    4.612001114    2.384103546   17.043071180 XXXX 1      oap2    O  -1.100
H25      0.032692356    4.867317957    9.025290846 XXXX 1      hop     H   0.200
H41      9.253707482    4.901586642    8.987949611 XXXX 1      hop     H   0.200
H45      4.411855980    4.819256596   17.080378731 XXXX 1      hop     H   0.200
H69      4.869909425    5.214692280    0.491336174 XXXX 1      hop     H   0.200
H85     14.508454366    4.719752297    0.609484066 XXXX 1      hop     H   0.200
H89      9.788487965    1.529278499    8.825008190 XXXX 1      hop     H   0.200
H93      4.777848611    1.465454989   17.175678097 XXXX 1      hop     H   0.200
end
O33      0.798931390   35.188954369   28.117034297 XXXX 1      oap1    O  -0.800
O34      0.782771334   28.297097544   27.858782977 XXXX 1      oap1    O  -0.800
O35      0.592834402   21.458213350   28.060562236 XXXX 1      oap1    O  -0.800
O36      0.846509996   14.535796126   27.811464851 XXXX 1      oap1    O  -0.800
O225     2.594157870   31.791746280   25.762922656 XXXX 1      oap1    O  -0.800
O226     2.764648307   24.948602808   25.987655725 XXXX 1      oap1    O  -0.800
O227     2.676273621   17.965678331   26.038355424 XXXX 1      oap1    O  -0.800
O228     2.869119896   11.276093318   26.213294175 XXXX 1      oap1    O  -0.800
O273     7.398712259   31.942510521   27.147671432 XXXX 1      oap1    O  -0.800
O274     7.055572503   24.962752580   27.351883969 XXXX 1      oap1    O  -0.800
O275     7.451897202   18.079375829   27.591734021 XXXX 1      oap1    O  -0.800
O276     7.276562504   11.195362060   27.436623405 XXXX 1      oap1    O  -0.800
O369     3.028376406   29.456777198   26.197410382 XXXX 1      oap1    O  -0.800
O370     2.512576584   22.611965899   25.708314600 XXXX 1      oap1    O  -0.800
O371     2.839580047   15.551966690   26.181125065 XXXX 1      oap1    O  -0.800
O372     2.717665163    8.763640715   25.944515540 XXXX 1      oap1    O  -0.800
O417     7.179660869   29.435418783   27.326327840 XXXX 1      oap1    O  -0.800
O418     7.228698992   22.449691912   27.430592667 XXXX 1      oap1    O  -0.800
O419     7.252069509   15.703214928   27.581354457 XXXX 1      oap1    O  -0.800
O420     7.259339129    8.747297682   27.611844935 XXXX 1      oap1    O  -0.800
O465     1.043022978   32.772905245   28.220727254 XXXX 1      oap1    O  -0.800
O466     1.070255415   25.892041446   28.498437861 XXXX 1      oap1    O  -0.800
O467     0.843142235   19.039168589   28.221138196 XXXX 1      oap1    O  -0.800
O468     0.762209532   12.159097034   28.500475639 XXXX 1      oap1    O  -0.800
Ca33     4.702737452   35.871508079   27.853137971 XXXX 1      ca+h    Ca  1.500
Ca34     4.815327125   28.955523302   28.009563354 XXXX 1      ca+h    Ca  1.500
Ca35     4.729315246   21.979353163   28.176755420 XXXX 1      ca+h    Ca  1.500
Ca36     4.572332066   15.176405102   28.046582033 XXXX 1      ca+h    Ca  1.500
Ca177    4.704588056   32.531461030   28.117259270 XXXX 1      ca+h    Ca  1.500
Ca178    4.641743647   25.413117354   28.109869098 XXXX 1      ca+h    Ca  1.500
Ca179    4.480048491   18.603554864   28.044208777 XXXX 1      ca+h    Ca  1.500
Ca180    4.774384807   11.689435962   28.197923344 XXXX 1      ca+h    Ca  1.500
P33      1.743031312   34.060125395   28.524324660 XXXX 1      pap     P   1.000
P34      1.656762344   27.332054084   28.648952836 XXXX 1      pap     P   1.000
P35      1.572658466   20.334726693   28.495450245 XXXX 1      pap     P   1.000
P36      1.571443139   13.477330959   28.698604258 XXXX 1      pap     P   1.000
O609     1.781526608   34.073524063   30.083555286 XXXX 1      oap1    O  -0.800
O610     1.637914727   27.606596202   30.173971597 XXXX 1      oap1    O  -0.800
O611     1.749472683   20.448259230   30.008816588 XXXX 1      oap1    O  -0.800
O612     1.475880940   13.807931664   30.180077834 XXXX 1      oap1    O  -0.800
O657     3.065473589   34.107694947   27.811239600 XXXX 1      oap1    O  -0.800
O658     3.040933924   27.330018491   27.924812472 XXXX 1      oap1    O  -0.800
O659     2.955258902   20.410748373   27.759435356 XXXX 1      oap1    O  -0.800
O660     3.040250474   13.343333196   28.259643361 XXXX 1      oap1    O  -0.800
Ca417    1.248100552   30.590038093   27.313829857 XXXX 1      ca+h    Ca  1.500
Ca418    0.946116659   23.718269382   27.422880508 XXXX 1      ca+h    Ca  1.500
Ca419    1.030515013   16.849749867   27.426563344 XXXX 1      ca+h    Ca  1.500
Ca420    1.225115815   10.066477829   27.569421644 XXXX 1      ca+h    Ca  1.500
P225     3.592712092   30.701549599   25.542581725 XXXX 1      pap     P   1.000
P226     3.507634164   23.717230490   25.441691725 XXXX 1      pap     P   1.000
P227     3.562646052   16.805484913   25.616516088 XXXX 1      pap     P   1.000
P228     3.501841479   10.018452027   25.512750341 XXXX 1      pap     P   1.000
O993     5.000645047   30.988123795   26.215684144 XXXX 1      oap1    O  -0.800
O994     4.797740898   23.441774967   26.199998116 XXXX 1      oap1    O  -0.800
O995     4.911347128   16.875468055   26.351846781 XXXX 1      oap1    O  -0.800
O996     4.908193961    9.843062142   26.125714857 XXXX 1      oap1    O  -0.800
O1041    3.680704682   30.531399010   24.051227570 XXXX 1      oap1    O  -0.800
O1042    3.611694421   23.770645402   23.929700827 XXXX 1      oap1    O  -0.800
O1043    3.669488473   16.686770123   24.102376586 XXXX 1      oap1    O  -0.800
O1044    3.575875482   10.067264337   23.977553619 XXXX 1      oap1    O  -0.800
Ca465    7.010096866   30.829401662   25.039681424 XXXX 1      ca+h    Ca  1.500
Ca466    6.985239413   23.753891946   25.181476293 XXXX 1      ca+h    Ca  1.500
Ca467    7.032264050   16.766823609   25.325322802 XXXX 1      ca+h    Ca  1.500
Ca468    7.174278465   10.012102509   25.316693484 XXXX 1      ca+h    Ca  1.500
P273     7.389835625   30.760242823   28.111893494 XXXX 1      pap     P   1.000
P274     7.230022987   23.744765724   28.311709661 XXXX 1      pap     P   1.000
P275     7.241078981   16.886149554   28.547305524 XXXX 1      pap     P   1.000
P276     7.409139992   10.056324726   28.437357988 XXXX 1      pap     P   1.000
O1089    6.187613844   30.970978176   29.018955605 XXXX 1      oap1    O  -0.800
O1090    6.017899049   23.690039933   29.235220598 XXXX 1      oap1    O  -0.800
O1091    5.846648320   16.894375792   29.255284170 XXXX 1      oap1    O  -0.800
O1092    6.209316956   10.126761165   29.380379287 XXXX 1      oap1    O  -0.800
O1137    8.671729159   30.784057423   28.926685747 XXXX 1      oap1    O  -0.800
O1138    8.511997171   23.783514000   29.160820973 XXXX 1      oap1    O  -0.800
O1139    8.454964235   16.709506441   29.477461343 XXXX 1      oap1    O  -0.800
O1140    8.782832818   10.167171272   29.136969241 XXXX 1      oap1    O  -0.800
O1185   -0.021067471   33.378504673   25.355668554 XXXX 1      oap2    O  -1.100
O1186   -0.035212396   26.452974929   25.471502872 XXXX 1      oap2    O  -1.100
O1187    0.068593839   19.343983109   25.376759728 XXXX 1      oap2    O  -1.100
O1188   -0.038991414   12.528191212   25.511676647 XXXX 1      oap2    O  -1.100
H33      0.234737692   32.531822169   25.694133404 XXXX 1      hop     H   0.200
H34     -0.123247462   25.490264426   25.454292069 XXXX 1      hop     H   0.200
H35      0.118883404   18.380953747   25.548664019 XXXX 1      hop     H   0.200
H36     -0.011761344   11.563590376   25.456722619 XXXX 1      hop     H   0.200
end
O33      0.695394194    7.905992657   28.211867248 XXXX 1      oap1    O  -0.800
O225     2.713536866    4.404627384   25.929643857 XXXX 1      oap1    O  -0.800
O273     7.654917435    4.221324570   27.287095225 XXXX 1      oap1    O  -0.800
O369     2.781800817    1.949896470   25.932716965 XXXX 1      oap1    O  -0.800
O417     7.221290503    1.748390870   27.528175786 XXXX 1      oap1    O  -0.800
O465     0.839591899    5.428376724   28.000040090 XXXX 1      oap1    O  -0.800
Ca33     4.857346704    8.180942371   27.835907155 XXXX 1      ca+h    Ca  1.500
Ca177    4.533685577    4.851313695   28.137104685 XXXX 1      ca+h    Ca  1.500
P33      1.656937337    6.662252846   28.538928916 XXXX 1      pap     P   1.000
O609     1.755995440    6.463878007   30.068509027 XXXX 1      oap1    O  -0.800
O657     3.019576508    6.726247463   27.879456442 XXXX 1      oap1    O  -0.800
Ca417    0.906853350    3.172250169   27.250595912 XXXX 1      ca+h    Ca  1.500
P225     3.557513361    3.215612655   25.497372747 XXXX 1      pap     P   1.000
O993     4.892435735    3.326874061   26.288301778 XXXX 1      oap1    O  -0.800
O1041    3.803225181    3.169424121   23.970959180 XXXX 1      oap1    O  -0.800
Ca465    7.000866117    3.039381635   25.170825597 XXXX 1      ca+h    Ca  1.500
P273     7.457604213    3.069345956   28.240782907 XXXX 1      pap     P   1.000
O1089    6.134886086    3.269359383   29.002573542 XXXX 1      oap1    O  -0.800
O1137    8.696662488    2.988144817   29.227141131 XXXX 1      oap1    O  -0.800
O1185    0.008036081    6.022138566   25.281879696 XXXX 1      oap2    O  -1.100
H33     -0.251369508    5.181056985   25.697346669 XXXX 1      hop     H   0.200
end
O49     -0.485241761   33.830365004   32.177105393 XXXX 1      oap1    O  -0.800
O50      2.170932608   28.001965977   33.104078688 XXXX 1      oap1    O  -0.800
O51      0.023426154   22.663458254   32.735263429 XXXX 1      oap1    O  -0.800
O52      2.316375731   13.888717842   33.357632768 XXXX 1      oap1    O  -0.800
O65      9.486475328   34.062405578   32.139426171 XXXX 1      oap1    O  -0.800
O66     11.954308906   28.092252328   34.080764022 XXXX 1      oap1    O  -0.800
O67      8.984988388   22.783245098   32.801415339 XXXX 1      oap1    O  -0.800
O68     11.755216914   14.219328165   33.360300149 XXXX 1      oap1    O  -0.800
O81     18.672618451   33.811661363   32.342952524 XXXX 1      oap1    O  -0.800
O82     21.739699556   27.810879175   33.465428443 XXXX 1      oap1    O  -0.800
O83     19.002847233   22.603372286   32.799442745 XXXX 1      oap1    O  -0.800
O84     20.919473382   14.078297748   33.438644250 XXXX 1      oap1    O  -0.800
O113     7.104125947   35.554732892   31.321900476 XXXX 1      oap1    O  -0.800
O114     6.384789992   28.395107409   31.482237579 XXXX 1      oap1    O  -0.800
O115     6.279334035   21.408416507   31.614675982 XXXX 1      oap1    O  -0.800
O116     6.630793639   14.825505189   31.593273403 XXXX 1      oap1    O  -0.800
O129    16.483092784   35.472052001   31.338912637 XXXX 1      oap1    O  -0.800
O130    15.775755228   28.322768213   31.538876773 XXXX 1      oap1    O  -0.800
O131    16.205750044   21.512202956   31.402319428 XXXX 1      oap1    O  -0.800
O132    15.788720670   14.811029816   31.565343209 XXXX 1      oap1    O  -0.800
O145     3.788794226   32.033193346   30.556877977 XXXX 1      oap1    O  -0.800
O146     3.873827483   24.958358786   30.485580379 XXXX 1      oap1    O  -0.800
O147     3.510196946   18.185773565   30.850103252 XXXX 1      oap1    O  -0.800
O148     3.883060481   11.099582205   30.533205808 XXXX 1      oap1    O  -0.800
O161    13.485027970   32.087158103   30.509539372 XXXX 1      oap1    O  -0.800
O162    13.204647847   24.991237905   30.598429321 XXXX 1      oap1    O  -0.800
O163    12.957757038   18.130424708   30.878320965 XXXX 1      oap1    O  -0.800
O164    13.253023227   11.089464165   30.755721835 XXXX 1      oap1    O  -0.800
O177    22.995959167   31.976362719   30.759196295 XXXX 1      oap1    O  -0.800
O178    22.711672458   25.011335646   30.481052464 XXXX 1      oap1    O  -0.800
O179    22.316978399   18.353104985   30.676055680 XXXX 1      oap1    O  -0.800
O180    22.514816408   11.336072116   30.697537922 XXXX 1      oap1    O  -0.800
O289     4.039128160   29.608803639   30.645852299 XXXX 1      oap1    O  -0.800
O290     3.883413681   22.449028076   30.667169940 XXXX 1      oap1    O  -0.800
O291     3.637432715   15.638676919   30.933256359 XXXX 1      oap1    O  -0.800
O292     3.738096988    8.630424261   30.787173906 XXXX 1      oap1    O  -0.800
O305    13.392839748   29.673864423   31.060543176 XXXX 1      oap1    O  -0.800
O306    12.753738870   22.536861759   30.964787199 XXXX 1      oap1    O  -0.800
O307    12.948607393   15.641389402   30.943685916 XXXX 1      oap1    O  -0.800
O308    13.278729781    8.626586069   30.510578786 XXXX 1      oap1    O  -0.800
O321    23.030320901   29.505628946   30.716691290 XXXX 1      oap1    O  -0.800
O322    22.400011118   22.554780613   30.720243918 XXXX 1      oap1    O  -0.800
O323    22.412969769   15.848217178   30.774348164 XXXX 1      oap1    O  -0.800
O324    22.588072854    8.849104224   30.689117226 XXXX 1      oap1    O  -0.800
O481     1.673925847   33.230004826   33.208595256 XXXX 1      oap1    O  -0.800
O482     2.036868311   25.729123421   32.208086877 XXXX 1      oap1    O  -0.800
O483     1.993265968   21.313877023   33.550109197 XXXX 1      oap1    O  -0.800
O484     1.747342874   11.717416179   32.389041938 XXXX 1      oap1    O  -0.800
O497    11.539460494   33.286200040   33.169088330 XXXX 1      oap1    O  -0.800
O498    11.770251987   26.004382784   32.703202499 XXXX 1      oap1    O  -0.800
O499    10.911511354   21.568347261   33.586875477 XXXX 1      oap1    O  -0.800
O500    11.420515260   11.991282061   32.672658329 XXXX 1      oap1    O  -0.800
O513    20.026842824   32.023747430   33.376206435 XXXX 1      oap1    O  -0.800
O514    20.928540416   25.847345616   32.312098611 XXXX 1      oap1    O  -0.800
O515    20.848001651   21.255610268   33.732272719 XXXX 1      oap1    O  -0.800
O516    20.553116568   11.852967879   32.537195623 XXXX 1      oap1    O  -0.800
O545     6.573267409   33.088671172   31.430668057 XXXX 1      oap1    O  -0.800
O546     6.702604656   25.878152411   31.217163527 XXXX 1      oap1    O  -0.800
O547     6.862220194   18.910797615   31.215518391 XXXX 1      oap1    O  -0.800
O548     6.040422554   12.341815944   31.706351072 XXXX 1      oap1    O  -0.800
O561    15.611276179   33.189813839   31.791662456 XXXX 1      oap1    O  -0.800
O562    16.143957496   25.844050418   31.313158138 XXXX 1      oap1    O  -0.800
O563    16.362034890   18.915623906   31.201340310 XXXX 1      oap1    O  -0.800
O564    15.851522078   12.228116864   31.529278774 XXXX 1      oap1    O  -0.800
Ca49     0.083941302   32.211641888   30.434436367 XXXX 1      ca+h    Ca  1.500
Ca50     0.252138290   25.598793202   30.653014601 XXXX 1      ca+h    Ca  1.500
Ca51    -0.029190798   18.605678277   30.490114117 XXXX 1      ca+h    Ca  1.500
Ca52     0.108679460   11.737981713   30.788376823 XXXX 1      ca+h    Ca  1.500
Ca65     9.454660893   32.254574437   30.534702585 XXXX 1      ca+h    Ca  1.500
Ca66     9.453219437   26.127153490   30.762789737 XXXX 1      ca+h    Ca  1.500
Ca67     9.241208432   18.605779802   30.651636852 XXXX 1      ca+h    Ca  1.500
Ca68     9.638518445   11.578725411   30.835729543 XXXX 1      ca+h    Ca  1.500
Ca81    19.176704528   31.975465986   30.488522025 XXXX 1      ca+h    Ca  1.500
Ca82    18.909550262   25.946241679   30.992242211 XXXX 1      ca+h    Ca  1.500
Ca83    18.815723722   18.680906750   30.367785463 XXXX 1      ca+h    Ca  1.500
Ca84    18.839726221   11.944884034   30.630485000 XXXX 1      ca+h    Ca  1.500
Ca97     0.246425847   29.115945708   31.808108683 XXXX 1      ca+h    Ca  1.500
Ca98    -0.157133901   22.135154427   30.387309600 XXXX 1      ca+h    Ca  1.500
Ca99    -0.203019046   15.106944199   31.435602229 XXXX 1      ca+h    Ca  1.500
Ca100   -0.085964824    8.192442544   30.478501407 XXXX 1      ca+h    Ca  1.500
Ca113   10.821279221   29.912067191   33.143601699 XXXX 1      ca+h    Ca  1.500
Ca114    9.563295105   22.166536661   30.436936366 XXXX 1      ca+h    Ca  1.500
Ca115    9.222664992   15.032583583   30.977625770 XXXX 1      ca+h    Ca  1.500
Ca116    9.275941092    8.264319754   30.404160451 XXXX 1      ca+h    Ca  1.500
Ca129   20.010167252   29.680581554   33.073424140 XXXX 1      ca+h    Ca  1.500
Ca130   18.718177490   22.074276316   30.477870995 XXXX 1      ca+h    Ca  1.500
Ca131   18.665215159   15.073459435   30.967385444 XXXX 1      ca+h    Ca  1.500
Ca132   18.749412068    8.346259675   30.866622116 XXXX 1      ca+h    Ca  1.500
Ca241    3.496917999   34.106858380   31.723922272 XXXX 1      ca+h    Ca  1.500
Ca242    3.656674738   27.273739581   31.483115093 XXXX 1      ca+h    Ca  1.500
Ca243    3.442447302   20.447971662   31.679532764 XXXX 1      ca+h    Ca  1.500
Ca244    3.568543973   13.371424663   31.405155514 XXXX 1      ca+h    Ca  1.500
Ca257   13.116527199   34.086077578   31.680145307 XXXX 1      ca+h    Ca  1.500
Ca258   13.212007287   27.376597688   31.394886519 XXXX 1      ca+h    Ca  1.500
Ca259   12.668663676   20.400121840   32.054457676 XXXX 1      ca+h    Ca  1.500
Ca260   13.009927250   13.367867566   31.617080454 XXXX 1      ca+h    Ca  1.500
Ca273   22.761117613   34.027319907   31.573359068 XXXX 1      ca+h    Ca  1.500
Ca274   22.654153121   27.296053813   31.352219224 XXXX 1      ca+h    Ca  1.500
Ca275   22.044759429   20.402295098   31.694657729 XXXX 1      ca+h    Ca  1.500
Ca276   22.342191400   13.538381912   31.566838438 XXXX 1      ca+h    Ca  1.500
P49      0.161274800   32.866332383   33.267026461 XXXX 1      pap     P   1.000
P50      1.428638310   26.679411871   33.215816294 XXXX 1      pap     P   1.000
P51      0.423906846   21.323929580   33.312455966 XXXX 1      pap     P   1.000
P52      1.271020493   12.767284158   33.414993323 XXXX 1      pap     P   1.000
P65     10.082677108   33.241657982   33.267393809 XXXX 1      pap     P   1.000
P66     11.017559315   26.983369197   33.676521543 XXXX 1      pap     P   1.000
P67      9.434816912   21.378267225   33.312211150 XXXX 1      pap     P   1.000
P68     10.741051951   13.110089892   33.419029381 XXXX 1      pap     P   1.000
P81     18.659517255   32.591286070   33.216570035 XXXX 1      pap     P   1.000
P82     20.587144927   26.772721290   33.465421105 XXXX 1      pap     P   1.000
P83     19.313467886   21.219440910   33.320000628 XXXX 1      pap     P   1.000
P84     19.926228369   12.940527017   33.393192614 XXXX 1      pap     P   1.000
O673    -0.178399234   31.442890068   32.680902284 XXXX 1      oap1    O  -0.800
O674    -0.041116668   26.880442311   32.771973246 XXXX 1      oap1    O  -0.800
O675     0.172670748   20.414423366   32.099987818 XXXX 1      oap1    O  -0.800
O676    -0.037934601   13.129077121   32.762327851 XXXX 1      oap1    O  -0.800
O689     9.444941748   31.825807923   33.039077093 XXXX 1      oap1    O  -0.800
O690     9.927053723   27.681201846   32.882165378 XXXX 1      oap1    O  -0.800
O691     9.196789340   20.402177832   32.191309375 XXXX 1      oap1    O  -0.800
O692     9.486394747   13.362027335   32.537126711 XXXX 1      oap1    O  -0.800
O705    17.901973674   31.414790104   32.451687904 XXXX 1      oap1    O  -0.800
O706    19.224700037   27.385452341   33.143405162 XXXX 1      oap1    O  -0.800
O707    19.137000382   20.312009078   32.068331269 XXXX 1      oap1    O  -0.800
O708    18.714626004   13.257522174   32.473270874 XXXX 1      oap1    O  -0.800
O721    -0.712633193   33.092528211   34.517195279 XXXX 1      oap1    O  -0.800
O722     1.726671307   25.901949968   34.488111457 XXXX 1      oap1    O  -0.800
O723    -0.468879728   20.915167260   34.503518278 XXXX 1      oap1    O  -0.800
O724     1.176554926   11.928499053   34.762960301 XXXX 1      oap1    O  -0.800
O737     9.502788589   33.922459249   34.560292611 XXXX 1      oap1    O  -0.800
O738    10.527183930   26.045577031   34.747654909 XXXX 1      oap1    O  -0.800
O739     8.614381059   21.007053208   34.547461050 XXXX 1      oap1    O  -0.800
O740    10.422543708   12.381946547   34.806858425 XXXX 1      oap1    O  -0.800
O753    17.933605157   33.037113084   34.511588987 XXXX 1      oap1    O  -0.800
O754    20.578459642   25.817077082   34.676493010 XXXX 1      oap1    O  -0.800
O755    18.304892019   20.748193635   34.391264678 XXXX 1      oap1    O  -0.800
O756    19.345784442   12.338481898   34.690848101 XXXX 1      oap1    O  -0.800
Ca305    7.420011707   34.486150326   33.560981443 XXXX 1      ca+h    Ca  1.500
Ca307    6.391153087   20.819589070   33.892103776 XXXX 1      ca+h    Ca  1.500
Ca321   16.282294864   34.347107760   33.626601978 XXXX 1      ca+h    Ca  1.500
Ca323   16.139045605   20.681994862   33.596312127 XXXX 1      ca+h    Ca  1.500
P113     6.741140860   34.276494613   30.480863772 XXXX 1      pap     P   1.000
P114     6.536498744   27.217226420   30.487816802 XXXX 1      pap     P   1.000
P115     6.596085972   20.289497657   30.600584997 XXXX 1      pap     P   1.000
P116     6.502506439   13.507580272   30.797076961 XXXX 1      pap     P   1.000
P129    16.069339495   34.133573226   30.667708227 XXXX 1      pap     P   1.000
P130    16.012370916   27.164349184   30.580311680 XXXX 1      pap     P   1.000
P131    16.125355881   20.230847436   30.502527269 XXXX 1      pap     P   1.000
P132    15.872312658   13.500318338   30.674088355 XXXX 1      pap     P   1.000
O785     8.041708835   33.939968620   29.635679650 XXXX 1      oap1    O  -0.800
O786     7.770582826   27.351664693   29.565894235 XXXX 1      oap1    O  -0.800
O787     7.901542815   20.559072986   29.747462617 XXXX 1      oap1    O  -0.800
O788     7.869175092   13.181452719   30.180262354 XXXX 1      oap1    O  -0.800
O801    17.354938983   33.581235242   29.876085006 XXXX 1      oap1    O  -0.800
O802    17.353776003   27.393531845   29.843418988 XXXX 1      oap1    O  -0.800
O803    17.255508036   20.252260431   29.462399229 XXXX 1      oap1    O  -0.800
O804    17.148318532   13.393504888   29.810722401 XXXX 1      oap1    O  -0.800
O833     5.514544896   34.452591921   29.582493195 XXXX 1      oap1    O  -0.800
O834     5.311488702   27.261471200   29.582437811 XXXX 1      oap1    O  -0.800
O835     5.362905044   20.235849220   29.649648255 XXXX 1      oap1    O  -0.800
O836     5.611586645   13.695626723   29.643331202 XXXX 1      oap1    O  -0.800
O849    14.894471629   34.321474019   29.701985130 XXXX 1      oap1    O  -0.800
O850    14.819022751   27.114860158   29.549263958 XXXX 1      oap1    O  -0.800
O851    14.814840030   20.287489959   29.640612362 XXXX 1      oap1    O  -0.800
O852    14.640625204   13.502748316   29.750328057 XXXX 1      oap1    O  -0.800
Ca337    5.931770180   30.760781487   31.243602990 XXXX 1      ca+h    Ca  1.500
Ca338    5.828100273   23.754495499   31.515460378 XXXX 1      ca+h    Ca  1.500
Ca339    5.468633865   17.106211152   31.725968947 XXXX 1      ca+h    Ca  1.500
Ca340    5.701786434    9.902276590   31.662802853 XXXX 1      ca+h    Ca  1.500
Ca353   15.656285610   30.642950868   31.357943991 XXXX 1      ca+h    Ca  1.500
Ca354   14.917308177   23.741439696   31.556052136 XXXX 1      ca+h    Ca  1.500
Ca355   14.723135904   17.042713186   31.965101740 XXXX 1      ca+h    Ca  1.500
Ca356   15.266614066    9.813454381   31.555572077 XXXX 1      ca+h    Ca  1.500
Ca369   25.062261622   30.610905332   31.344146374 XXXX 1      ca+h    Ca  1.500
Ca370   24.486253692   23.755458432   31.456511719 XXXX 1      ca+h    Ca  1.500
Ca371   24.424512043   17.197929977   31.468805243 XXXX 1      ca+h    Ca  1.500
Ca372   24.415844506   10.082027472   31.664481863 XXXX 1      ca+h    Ca  1.500
P145     3.148491544   30.693504742   30.115377379 XXXX 1      pap     P   1.000
P146     3.041723029   23.664561386   30.122756659 XXXX 1      pap     P   1.000
P147     2.821924715   16.862536727   30.362180853 XXXX 1      pap     P   1.000
P148     3.078368273    9.849662650   30.132621848 XXXX 1      pap     P   1.000
P161    12.609274028   30.779687020   30.337237459 XXXX 1      pap     P   1.000
P162    12.250779969   23.854458186   30.343343877 XXXX 1      pap     P   1.000
P163    12.249110138   16.857395450   30.358211909 XXXX 1      pap     P   1.000
P164    12.499185523    9.902779601   30.148736387 XXXX 1      pap     P   1.000
P177    22.134229879   30.729106465   30.386708575 XXXX 1      pap     P   1.000
P178    21.843227936   23.807198332   30.032486458 XXXX 1      pap     P   1.000
P179    21.605376980   17.025743000   30.261370060 XXXX 1      pap     P   1.000
P180    21.756387822   10.069266309   30.195130043 XXXX 1      pap     P   1.000
O865     3.152772735   30.730602088   28.577426571 XXXX 1      oap1    O  -0.800
O866     2.983191954   23.594600372   28.660377840 XXXX 1      oap1    O  -0.800
O867     3.023429889   16.922304887   28.830799886 XXXX 1      oap1    O  -0.800
O868     3.457960163    9.787545186   28.655566974 XXXX 1      oap1    O  -0.800
O881    12.531305779   30.465913844   28.816230827 XXXX 1      oap1    O  -0.800
O882    12.245095433   23.728601650   28.784030194 XXXX 1      oap1    O  -0.800
O883    12.380408388   16.656442860   28.827849545 XXXX 1      oap1    O  -0.800
O884    12.537347957   10.000653092   28.651202364 XXXX 1      oap1    O  -0.800
O897    21.912052443   30.735688136   28.817120608 XXXX 1      oap1    O  -0.800
O898    22.066753063   23.539506292   28.523615219 XXXX 1      oap1    O  -0.800
O899    21.674384119   16.878231204   28.668337090 XXXX 1      oap1    O  -0.800
O900    21.875611017   10.108148881   28.688689790 XXXX 1      oap1    O  -0.800
O913     1.729147185   30.479060058   30.597951735 XXXX 1      oap1    O  -0.800
O914     1.697334058   23.680728080   30.662528090 XXXX 1      oap1    O  -0.800
O915     1.291666322   16.758968782   30.662950215 XXXX 1      oap1    O  -0.800
O916     1.488906772    9.845938427   30.259447728 XXXX 1      oap1    O  -0.800
O929    11.232488197   30.858101140   31.022075684 XXXX 1      oap1    O  -0.800
O930    10.815006501   24.208412162   30.778695977 XXXX 1      oap1    O  -0.800
O931    10.765604816   16.835622395   30.883866382 XXXX 1      oap1    O  -0.800
O932    11.122271313    9.772129125   30.707251591 XXXX 1      oap1    O  -0.800
O945    20.877152160   30.707728933   31.199365363 XXXX 1      oap1    O  -0.800
O946    20.272605067   23.947448262   30.285463280 XXXX 1      oap1    O  -0.800
O947    20.095799151   16.857098644   30.725518501 XXXX 1      oap1    O  -0.800
O948    20.262625356   10.093062506   30.563293320 XXXX 1      oap1    O  -0.800
Ca438    2.193420662   23.780931736   33.485966807 XXXX 1      ca+h    Ca  1.500
Ca440    1.867839212    9.805280599   33.911874102 XXXX 1      ca+h    Ca  1.500
Ca454   11.081081691   23.853877308   33.809608993 XXXX 1      ca+h    Ca  1.500
Ca456   10.845139609   10.117108224   34.072651652 XXXX 1      ca+h    Ca  1.500
Ca470   21.035369173   23.715602907   33.616264612 XXXX 1      ca+h    Ca  1.500
Ca472   19.629480347   10.097535960   33.841121621 XXXX 1      ca+h    Ca  1.500
O1173    5.130225709   35.284939596   33.231037845 XXXX 1      oap2    O  -1.100
O1174    4.816063117   22.660453726   33.741100127 XXXX 1      oap2    O  -1.100
O1175    4.906777106   18.928706785   33.350362387 XXXX 1      oap2    O  -1.100
O1176    4.799893707    8.206245037   33.354076805 XXXX 1      oap2    O  -1.100
O1189   14.468122586   35.824117956   33.216269215 XXXX 1      oap2    O  -1.100
O1190   14.485690814   22.394585524   33.450504047 XXXX 1      oap2    O  -1.100
O1191   14.280093055   19.081511063   33.357283159 XXXX 1      oap2    O  -1.100
O1192   17.504515904    9.592082935   32.741639729 XXXX 1      oap2    O  -1.100
H21      4.532888504   35.446328719   33.927552024 XXXX 1      hop     H   0.200
H22      4.948759752   23.387828701   34.373127507 XXXX 1      hop     H   0.200
H23      4.123711518   18.765200505   33.821343159 XXXX 1      hop     H   0.200
H24      4.348811939    8.124173792   34.141200105 XXXX 1      hop     H   0.200
H37     13.688443205   35.862467187   33.702598398 XXXX 1      hop     H   0.200
H38     13.864207018   22.297304395   34.165189460 XXXX 1      hop     H   0.200
H39     14.104201622   18.692044321   34.177394573 XXXX 1      hop     H   0.200
H40     17.369029470   10.485801176   32.901839486 XXXX 1      hop     H   0.200
end
O49      1.869890140    7.335106672   33.660523274 XXXX 1      oap1    O  -0.800
O65      9.332941385    8.983421289   32.658605815 XXXX 1      oap1    O  -0.800
O81     19.087187567    7.832442843   34.536702322 XXXX 1      oap1    O  -0.800
O113     6.765451270    7.607516842   31.320602344 XXXX 1      oap1    O  -0.800
O129    16.244633114    7.809493347   31.148334522 XXXX 1      oap1    O  -0.800
O145     3.578753791    4.273977226   30.655770232 XXXX 1      oap1    O  -0.800
O161    13.086437553    4.408293267   31.101041289 XXXX 1      oap1    O  -0.800
O177    22.546717542    4.257847857   31.116670756 XXXX 1      oap1    O  -0.800
O289     3.652325907    1.813814667   30.473037375 XXXX 1      oap1    O  -0.800
O305    13.017989283    1.909017144   30.708117299 XXXX 1      oap1    O  -0.800
O321    22.741678295    1.777108459   30.699619255 XXXX 1      oap1    O  -0.800
O481     0.098980906    6.315445235   32.082727711 XXXX 1      oap1    O  -0.800
O497    11.196061219    7.775371691   33.732387827 XXXX 1      oap1    O  -0.800
O513    21.038176190    6.139394236   33.652646084 XXXX 1      oap1    O  -0.800
O545     6.983276953    5.109011873   31.151003432 XXXX 1      oap1    O  -0.800
O561    15.970100291    5.364421898   31.647512026 XXXX 1      oap1    O  -0.800
Ca49    -0.024111496    4.944949253   30.320341969 XXXX 1      ca+h    Ca  1.500
Ca65     9.409633325    4.931698677   30.496027572 XXXX 1      ca+h    Ca  1.500
Ca81    19.249599966    4.716952515   30.750059061 XXXX 1      ca+h    Ca  1.500
Ca97    -0.108840492    1.183905530   30.543211007 XXXX 1      ca+h    Ca  1.500
Ca113    9.484800687    1.242848814   30.490713296 XXXX 1      ca+h    Ca  1.500
Ca129   18.840512071    1.116187292   30.672177443 XXXX 1      ca+h    Ca  1.500
Ca241    3.372244022    6.587849261   31.867251063 XXXX 1      ca+h    Ca  1.500
Ca257   12.830660246    6.711361400   31.810486081 XXXX 1      ca+h    Ca  1.500
Ca273   22.450329446    6.799940658   31.704807285 XXXX 1      ca+h    Ca  1.500
P49      0.337450562    7.305008420   33.318377510 XXXX 1      pap     P   1.000
P65      9.685582712    7.617645630   33.273871120 XXXX 1      pap     P   1.000
P81     19.856915642    7.069624860   33.387475709 XXXX 1      pap     P   1.000
O673     0.072660106    8.760482823   32.773017405 XXXX 1      oap1    O  -0.800
O689     9.569912756    6.549506044   32.169691800 XXXX 1      oap1    O  -0.800
O705    20.334188348    8.165661467   32.579054365 XXXX 1      oap1    O  -0.800
O721    -0.581551506    6.998747439   34.497221203 XXXX 1      oap1    O  -0.800
O737     8.631419968    7.381912151   34.348929426 XXXX 1      oap1    O  -0.800
O753    18.743973938    6.369378157   32.501783714 XXXX 1      oap1    O  -0.800
Ca305    6.521308098    6.594721077   33.505888395 XXXX 1      ca+h    Ca  1.500
Ca321   16.776425783    7.343968133   33.458000609 XXXX 1      ca+h    Ca  1.500
P113     6.702811391    6.468759644   30.379266842 XXXX 1      pap     P   1.000
P129    16.083216699    6.422734622   30.511034179 XXXX 1      pap     P   1.000
O785     7.917793440    6.554604148   29.471479793 XXXX 1      oap1    O  -0.800
O801    17.353431540    6.079037684   29.766801552 XXXX 1      oap1    O  -0.800
O833     5.388203240    6.430457539   29.540202028 XXXX 1      oap1    O  -0.800
O849    14.792390362    6.391689694   29.591803657 XXXX 1      oap1    O  -0.800
Ca337    5.602220144    3.169918881   31.518271163 XXXX 1      ca+h    Ca  1.500
Ca353   15.126676418    3.141587673   31.421921925 XXXX 1      ca+h    Ca  1.500
Ca369   24.673708223    3.050041943   31.606758943 XXXX 1      ca+h    Ca  1.500
P145     2.865912769    3.087827722   30.115955280 XXXX 1      pap     P   1.000
P161    12.274964018    3.210446838   30.472759038 XXXX 1      pap     P   1.000
P177    21.889380555    3.041095485   30.383942260 XXXX 1      pap     P   1.000
O865     2.895681152    3.243042032   28.614625640 XXXX 1      oap1    O  -0.800
O881    12.318715275    3.386621290   28.930612491 XXXX 1      oap1    O  -0.800
O897    21.883546417    3.314049623   28.841918465 XXXX 1      oap1    O  -0.800
O913     1.394069999    3.086601203   30.546121771 XXXX 1      oap1    O  -0.800
O929    10.815915492    3.065712994   30.961898025 XXXX 1      oap1    O  -0.800
O945    20.429791192    2.846106819   30.856617112 XXXX 1      oap1    O  -0.800
O1173    5.011888424    4.816757357   33.137553828 XXXX 1      oap2    O  -1.100
O1189   14.399736583    7.906941201   33.157070251 XXXX 1      oap2    O  -1.100
H21      4.357059565    4.509346710   33.706350772 XXXX 1      hop     H   0.200
H37     13.821558702    8.619400495   33.512079941 XXXX 1      hop     H   0.200
end
O49     28.509439744   34.029277709   32.097978637 XXXX 1      oap1    O  -0.800
O50     31.099377196   28.049662758   33.668702630 XXXX 1      oap1    O  -0.800
O51     28.187264402   22.767328387   32.760245768 XXXX 1      oap1    O  -0.800
O52     30.495076227   14.127294020   33.377076214 XXXX 1      oap1    O  -0.800
O97     25.799527282   35.306080997   31.115997512 XXXX 1      oap1    O  -0.800
O98     25.264155940   28.331878544   31.591011227 XXXX 1      oap1    O  -0.800
O99     25.477790318   21.573137514   31.307667677 XXXX 1      oap1    O  -0.800
O100    25.104457005   15.034556055   31.299127187 XXXX 1      oap1    O  -0.800
O113    34.966215328   35.420017509   31.186681264 XXXX 1      oap1    O  -0.800
O114    35.120500898   28.546474932   31.256320272 XXXX 1      oap1    O  -0.800
O115    35.192963346   21.580846993   31.310005398 XXXX 1      oap1    O  -0.800
O116    34.789337638   14.768133944   31.420965588 XXXX 1      oap1    O  -0.800
O145    32.044553681   31.909302370   30.563956523 XXXX 1      oap1    O  -0.800
O146    32.102566669   24.898361865   30.872115054 XXXX 1      oap1    O  -0.800
O147    31.716437989   18.325668281   30.699820840 XXXX 1      oap1    O  -0.800
O148    32.056152327   11.261136789   30.574696194 XXXX 1      oap1    O  -0.800
O289    32.266580340   29.492803656   30.925817741 XXXX 1      oap1    O  -0.800
O290    32.178185139   22.450228024   30.592555051 XXXX 1      oap1    O  -0.800
O291    32.031685728   15.835262583   30.693910969 XXXX 1      oap1    O  -0.800
O292    32.131702298    8.770027926   30.620949646 XXXX 1      oap1    O  -0.800
O481    30.202309259   32.879434625   33.426093497 XXXX 1      oap1    O  -0.800
O482    30.119967563   26.203223872   32.285749852 XXXX 1      oap1    O  -0.800
O483    29.996120222   21.249900612   33.678506419 XXXX 1      oap1    O  -0.800
O484    30.219111531   12.013466874   32.266929533 XXXX 1      oap1    O  -0.800
O529    25.531370655   32.901392925   31.497639738 XXXX 1      oap1    O  -0.800
O530    25.518126986   25.855470735   31.263923614 XXXX 1      oap1    O  -0.800
O531    25.785069514   19.087010049   31.325410416 XXXX 1      oap1    O  -0.800
O532    24.801382474   12.467819408   31.680739234 XXXX 1      oap1    O  -0.800
O545    34.539987125   33.016998092   31.516446876 XXXX 1      oap1    O  -0.800
O546    34.551499902   26.072581711   31.547891978 XXXX 1      oap1    O  -0.800
O547    35.345710500   19.050720386   31.505455266 XXXX 1      oap1    O  -0.800
O548    34.597695133   12.153676853   31.434529629 XXXX 1      oap1    O  -0.800
Ca49    28.492644939   32.247799918   30.476065462 XXXX 1      ca+h    Ca  1.500
Ca50    28.435166636   25.922987742   30.682923901 XXXX 1      ca+h    Ca  1.500
Ca51    28.151391565   18.709431242   30.561884462 XXXX 1      ca+h    Ca  1.500
Ca52    28.305829912   11.815282093   30.785290323 XXXX 1      ca+h    Ca  1.500
Ca97    29.686106341   29.941535496   33.310423548 XXXX 1      ca+h    Ca  1.500
Ca98    28.225747051   22.080099309   30.505853110 XXXX 1      ca+h    Ca  1.500
Ca99    28.113553623   15.038122054   30.881522488 XXXX 1      ca+h    Ca  1.500
Ca100   28.143743095    8.203893827   30.595846792 XXXX 1      ca+h    Ca  1.500
Ca241   31.729816023   34.189779570   31.695645391 XXXX 1      ca+h    Ca  1.500
Ca242   32.078238162   27.244407071   31.514536913 XXXX 1      ca+h    Ca  1.500
Ca243   31.755784394   20.240194066   32.072448579 XXXX 1      ca+h    Ca  1.500
Ca244   31.909942828   13.475042276   31.381754562 XXXX 1      ca+h    Ca  1.500
P49     28.712040656   33.007275427   33.229224212 XXXX 1      pap     P   1.000
P50     29.989711102   27.015004715   33.599871699 XXXX 1      pap     P   1.000
P51     28.531159437   21.365379600   33.357499387 XXXX 1      pap     P   1.000
P52     29.551466126   12.955058902   33.253038838 XXXX 1      pap     P   1.000
O673    28.165888595   31.626625385   32.774908277 XXXX 1      oap1    O  -0.800
O674    28.630934693   27.768912984   33.475562482 XXXX 1      oap1    O  -0.800
O675    28.213421915   20.390152724   32.199586760 XXXX 1      oap1    O  -0.800
O676    28.238614009   13.379573544   32.512551707 XXXX 1      oap1    O  -0.800
O721    28.003826564   33.575104443   34.416092716 XXXX 1      oap1    O  -0.800
O722    30.090166135   25.978830359   34.739421700 XXXX 1      oap1    O  -0.800
O723    27.476933723   20.958322085   34.470052563 XXXX 1      oap1    O  -0.800
O724    29.284319275   12.055059120   34.479376865 XXXX 1      oap1    O  -0.800
Ca289   26.408095097   35.007077220   33.394423591 XXXX 1      ca+h    Ca  1.500
Ca291   25.379013907   20.751159330   33.682690797 XXXX 1      ca+h    Ca  1.500
Ca305   35.059302381   34.145900985   33.501240451 XXXX 1      ca+h    Ca  1.500
Ca307   35.032455050   20.487729530   33.579676530 XXXX 1      ca+h    Ca  1.500
P97     25.633591858   34.016293764   30.400801577 XXXX 1      pap     P   1.000
P98     25.468772410   27.232613191   30.554215773 XXXX 1      pap     P   1.000
P99     25.534840321   20.316221302   30.414702661 XXXX 1      pap     P   1.000
P100    25.260669448   13.599158710   30.660814899 XXXX 1      pap     P   1.000
P113    34.819293659   34.073671318   30.436651001 XXXX 1      pap     P   1.000
P114    34.923506140   27.211619079   30.564683677 XXXX 1      pap     P   1.000
P115    35.063313537   20.254191732   30.539049845 XXXX 1      pap     P   1.000
P116    34.792153127   13.473178448   30.581875877 XXXX 1      pap     P   1.000
O769    26.915192863   33.761059711   29.573467120 XXXX 1      oap1    O  -0.800
O770    26.797070466   27.421785216   29.859164433 XXXX 1      oap1    O  -0.800
O771    26.805911344   20.437243183   29.500954192 XXXX 1      oap1    O  -0.800
O772    26.683605865   13.344800629   30.100303393 XXXX 1      oap1    O  -0.800
O785    36.094690120   33.825345401   29.629674894 XXXX 1      oap1    O  -0.800
O786    36.179295294   26.760294302   29.867794572 XXXX 1      oap1    O  -0.800
O787    36.258949491   20.211336557   29.527169066 XXXX 1      oap1    O  -0.800
O788    36.149296381   13.445747396   29.881910202 XXXX 1      oap1    O  -0.800
O817    24.357268576   34.039664424   29.566096395 XXXX 1      oap1    O  -0.800
O818    24.343033641   27.237098562   29.485639251 XXXX 1      oap1    O  -0.800
O819    24.374726864   20.169069642   29.456509404 XXXX 1      oap1    O  -0.800
O820    24.221770137   13.658055483   29.535568884 XXXX 1      oap1    O  -0.800
O833    33.624034517   34.111600837   29.516131736 XXXX 1      oap1    O  -0.800
O834    33.708373353   27.252695788   29.687470880 XXXX 1      oap1    O  -0.800
O835    33.664069343   20.118802569   29.868231007 XXXX 1      oap1    O  -0.800
O836    33.638637181   13.517185009   29.537072452 XXXX 1      oap1    O  -0.800
Ca337   34.220184300   30.669676663   31.192956642 XXXX 1      ca+h    Ca  1.500
Ca338   34.126535727   23.787802258   31.782811642 XXXX 1      ca+h    Ca  1.500
Ca339   33.851919533   17.050929191   31.507770214 XXXX 1      ca+h    Ca  1.500
Ca340   34.069832145    9.916029559   31.478718396 XXXX 1      ca+h    Ca  1.500
P145    31.342465237   30.563116416   30.315586725 XXXX 1      pap     P   1.000
P146    31.325707639   23.688818256   30.347047578 XXXX 1      pap     P   1.000
P147    31.045340049   17.003281641   30.305319297 XXXX 1      pap     P   1.000
P148    31.254707234   10.000033865   30.237284632 XXXX 1      pap     P   1.000
O865    31.209244660   30.291242472   28.843500066 XXXX 1      oap1    O  -0.800
O866    31.264750304   23.748253864   28.797397912 XXXX 1      oap1    O  -0.800
O867    31.013298668   16.945241151   28.769038490 XXXX 1      oap1    O  -0.800
O868    31.164073775    9.968213814   28.668358225 XXXX 1      oap1    O  -0.800
O913    30.017283034   30.579038302   31.076463966 XXXX 1      oap1    O  -0.800
O914    29.942948197   23.648630471   30.959693877 XXXX 1      oap1    O  -0.800
O915    29.585164865   16.856045599   30.840897909 XXXX 1      oap1    O  -0.800
O916    29.853754775    9.864429242   30.940585116 XXXX 1      oap1    O  -0.800
Ca438   30.119882904   23.854588451   33.639901016 XXXX 1      ca+h    Ca  1.500
Ca440   30.083287475   10.010824117   33.630746382 XXXX 1      ca+h    Ca  1.500
O1157   24.002695743   35.476434713   33.279571252 XXXX 1      oap2    O  -1.100
O1158   23.372157703   22.610596308   33.492133733 XXXX 1      oap2    O  -1.100
O1159   23.736336929   19.112256939   33.098523690 XXXX 1      oap2    O  -1.100
O1160   23.928756676    8.354734166   33.443116430 XXXX 1      oap2    O  -1.100
O1173   33.043229153   35.422431132   33.235398148 XXXX 1      oap2    O  -1.100
O1174   33.159075315   22.080050803   33.450710242 XXXX 1      oap2    O  -1.100
O1175   33.334841046   18.728545689   33.291995348 XXXX 1      oap2    O  -1.100
O1176   33.333622866    8.303292632   33.186451578 XXXX 1      oap2    O  -1.100
H5      23.297941816   35.972080957   33.683204715 XXXX 1      hop     H   0.200
H6      22.893267462   22.035758377   34.112713588 XXXX 1      hop     H   0.200
H7      23.144307301   18.571588348   33.647327587 XXXX 1      hop     H   0.200
H8      23.195963917    8.393552646   34.086146059 XXXX 1      hop     H   0.200
H21     32.485944963   35.501544543   34.019733426 XXXX 1      hop     H   0.200
H22     32.745648421   22.256124702   34.278073630 XXXX 1      hop     H   0.200
H23     32.905127851   18.240918668   34.051155033 XXXX 1      hop     H   0.200
H24     33.024746950    8.667289079   34.031360210 XXXX 1      hop     H   0.200
end
O49     27.986323713    8.669038893   32.921744230 XXXX 1      oap1    O  -0.800
O97     25.617693145    8.087273954   31.167553943 XXXX 1      oap1    O  -0.800
O113    35.193718154    7.825244526   31.284093055 XXXX 1      oap1    O  -0.800
O145    31.799823397    4.530004715   30.607037225 XXXX 1      oap1    O  -0.800
O289    32.097034618    1.946033050   30.551192416 XXXX 1      oap1    O  -0.800
O481    30.166627104    7.573197457   33.132300444 XXXX 1      oap1    O  -0.800
O529    24.922218169    5.690741160   31.864260778 XXXX 1      oap1    O  -0.800
O545    35.088701055    5.339822887   31.329316275 XXXX 1      oap1    O  -0.800
Ca49    28.325881596    4.692477506   30.751574342 XXXX 1      ca+h    Ca  1.500
Ca97    28.146492533    1.337555904   30.535028212 XXXX 1      ca+h    Ca  1.500
Ca241   32.079175304    6.730175905   31.787267825 XXXX 1      ca+h    Ca  1.500
P49     28.680018104    7.359343126   33.340166275 XXXX 1      pap     P   1.000
O673    28.159860741    6.237574814   32.417300241 XXXX 1      oap1    O  -0.800
O721    28.050103553    7.124757226   34.718742447 XXXX 1      oap1    O  -0.800
Ca289   25.858418415    7.063007359   33.702638656 XXXX 1      ca+h    Ca  1.500
Ca305   34.930407351    6.517205631   33.562659839 XXXX 1      ca+h    Ca  1.500
P97     25.368691923    6.631647599   30.680735894 XXXX 1      pap     P   1.000
P113    34.919611399    6.571333446   30.423173536 XXXX 1      pap     P   1.000
O769    26.680446504    6.214292871   30.014176045 XXXX 1      oap1    O  -0.800
O785    36.138079302    6.564907754   29.462070634 XXXX 1      oap1    O  -0.800
O817    24.119627514    6.594670980   29.651023836 XXXX 1      oap1    O  -0.800
O833    33.578606412    6.601634781   29.608526195 XXXX 1      oap1    O  -0.800
Ca337   33.723613621    3.177324085   31.700170500 XXXX 1      ca+h    Ca  1.500
P145    31.270768183    3.139086730   30.114395950 XXXX 1      pap     P   1.000
O865    31.314809024    3.209541095   28.546421342 XXXX 1      oap1    O  -0.800
O913    29.840466754    3.001244396   30.579758796 XXXX 1      oap1    O  -0.800
O1157   27.153385988    2.862974955   32.232912511 XXXX 1      oap2    O  -1.100
O1173   33.103746575    4.947670665   33.337533196 XXXX 1      oap2    O  -1.100
H5      27.679243312    3.225107138   32.921566267 XXXX 1      hop     H   0.200
H21     32.453767455    4.705537022   33.981855516 XXXX 1      hop     H   0.200
end
Ca193   36.317386323   33.938767380   27.344235948 XXXX 1      ca+h    Ca  1.500
Ca194   36.338185923   27.071038541   27.376376376 XXXX 1      ca+h    Ca  1.500
Ca195   36.329367463   20.194855470   27.164855867 XXXX 1      ca+h    Ca  1.500
Ca196   36.389703022   13.497297979   27.547192716 XXXX 1      ca+h    Ca  1.500
end
Ca193   36.260145034    6.697398147   27.095790123 XXXX 1      ca+h    Ca  1.500
end
O1225   37.650707989   29.998171242    9.177598746 XXXX 1      oap2    O  -1.100
O1226   37.759766365   23.107895705    9.049357029 XXXX 1      oap2    O  -1.100
O1227   37.767692661   16.008884373    9.319935368 XXXX 1      oap2    O  -1.100
O1228   37.856069804    9.111165972    8.888101350 XXXX 1      oap2    O  -1.100
H73     37.488095371   29.081301397    9.058635587 XXXX 1      hop     H   0.200
H74     38.156717340   22.246359780    9.238931167 XXXX 1      hop     H   0.200
H75     37.511788942   15.140082550    8.970937336 XXXX 1      hop     H   0.200
H76     37.601578871    8.568748356    8.188029838 XXXX 1      hop     H   0.200
end
O1225   37.527963767    2.624766669    9.011422042 XXXX 1      oap2    O  -1.100
H73     37.678396945    1.704388045    9.021718139 XXXX 1      hop     H   0.200
end
O1233   37.687548603   29.789913357   25.285100591 XXXX 1      oap2    O  -1.100
O1234   37.520133446   23.019318345   25.331408841 XXXX 1      oap2    O  -1.100
O1235   37.533026627   16.325514490   25.333842852 XXXX 1      oap2    O  -1.100
O1236   37.744104599    9.514113101   25.435695709 XXXX 1      oap2    O  -1.100
H81     37.247193853   28.967009744   25.294889995 XXXX 1      hop     H   0.200
H82     38.108343225   22.304597601   25.403518612 XXXX 1      hop     H   0.200
H83     37.680293361   15.393741540   25.342803312 XXXX 1      hop     H   0.200
H84     37.254855589    8.713853539   25.284911158 XXXX 1      hop     H   0.200
end
O1233   37.447301583    2.610674656   25.296828717 XXXX 1      oap2    O  -1.100
H81     37.242702127    1.664078935   25.152217461 XXXX 1      hop     H   0.200
end
end
