!BIOSYM archive 3
PBC=ON
Materials Studio Generated CAR File
!DATE Fri May 02 18:11:22 2014
PBC   25.9590   27.0459  120.0457   90.0000   90.0000   90.0000 (P1)
AL1      0.774363279    0.726572573    4.964522362 XXX  1      ay1     Al  1.450
SI1      1.597423434    8.356406212    7.636787415 XXX  1      sy1     Si  1.100
SI2      1.592221737    2.351364136    7.628654003 XXX  1      sy2     Si  1.100
H1       1.317741394    5.841811180    6.167594433 XXX  1      hoy     H   0.200
O1       1.117364287    0.850695968    8.279124260 XXX  1      oy1     O  -0.550
O2       0.535093129    7.156456947    8.168536186 XXX  1      oy2     O  -0.550
O3       0.514829397    3.435462475    8.373116493 XXX  1      oy3     O  -0.550
O4       1.734539032    8.410361290    6.016901493 XXX  1      oy7     O  -0.758
O5       1.478374243    2.247359514    6.007707119 XXX  1      oy8     O  -0.758
O6       1.767955542    5.039309025    6.129202843 XXX  1      oy9     O  -0.792
AL2      3.406187057    8.269742012    4.983947754 XXX  1      ay2     Al  1.450
SI3      2.557836771    0.614346504    2.312343836 XXX  1      sy1     Si  1.100
SI4      2.624250174    6.678079605    2.311160564 XXX  1      sy2     Si  1.100
H2       2.894026041    3.149419546    3.807924032 XXX  1      hoy     H   0.200
O7       3.062150002    8.181027412    1.647522688 XXX  1      oy1     O  -0.550
O8       3.657523394    1.790162802    1.790238857 XXX  1      oy2     O  -0.550
O9       3.695101261    5.583794594    1.569478035 XXX  1      oy3     O  -0.550
O10      2.456404448    0.593846381    3.939847946 XXX  1      oy4     O  -0.758
O11      2.707247257    6.741794586    3.938243866 XXX  1      oy5     O  -0.867
O12      2.421166897    3.935153961    3.837403059 XXX  1      oy6     O  -0.792
AL3      3.363937616    5.232413769    4.989523411 XXX  1      ay1     Mg  1.100
SI5      4.242576599    3.884821415    7.662786484 XXX  1      sy1     Si  1.100
SI6      4.152294636    6.830926895    7.649585724 XXX  1      sy2     Si  1.100
H3       3.920135021    1.349463820    6.170886993 XXX  1      hoy     H   0.200
O13      3.723772526    5.350003242    8.351620674 XXX  1      oy1     O  -0.550
O14      3.173792124    2.660876989    8.146680832 XXX  1      oy2     O  -0.550
O15      3.121827602    7.994569778    8.334386826 XXX  1      oy3     O  -0.550
O16      4.333624840    3.886889458    6.024921894 XXX  1      oy7     O  -0.867
O17      4.074825287    6.750662804    6.023710728 XXX  1      oy8     O  -0.867
O18      4.369623661    0.547500372    6.132634163 XXX  1      oy9     O  -0.683
AL4      0.812136292    3.762357473    4.964434147 XXX  1      ay2     Al  1.450
SI7     -0.023914916    5.139555454    2.299898624 XXX  1      sy1     Si  1.100
SI8      0.026795790    2.168737411    2.293189287 XXX  1      sy2     Si  1.100
H4       0.267498702    7.679921627    3.802189350 XXX  1      hoy     H   0.200
O19      0.486940265    3.658716679    1.629564404 XXX  1      oy1     O  -0.550
O20      1.046074271    6.345189571    1.791984200 XXX  1      oy2     O  -0.550
O21      1.030737042    0.968320787    1.628227949 XXX  1      oy3     O  -0.550
O22     -0.158515930    5.099258423    3.928893328 XXX  1      oy4     O  -0.758
O23      0.094500870    2.239592791    3.925916195 XXX  1      oy5     O  -0.758
O24     -0.200183839    8.471130371    3.838562489 XXX  1      oy6     O  -0.792
AL5      0.772317290    9.761353493    4.986290455 XXX  1      ay1     Al  1.450
SI9      1.620604157   17.405578613    7.668563366 XXX  1      sy1     Si  1.100
SI10     1.547468185   11.342479706    7.665512562 XXX  1      sy2     Si  1.100
H5       1.302813411   14.868106842    6.179968834 XXX  1      hoy     H   0.200
O25      1.192121744    9.837193489    8.373747826 XXX  1      oy1     O  -0.550
O26      0.545449853   16.214550018    8.201727867 XXX  1      oy2     O  -0.550
O27      0.563667178   12.520839691    8.383789062 XXX  1      oy3     O  -0.550
O28      1.737358093   17.437328339    6.043828011 XXX  1      oy7     O  -0.758
O29      1.496450186   11.277518272    6.034220219 XXX  1      oy8     O  -0.867
O30      1.787431240   14.086985588    6.144773483 XXX  1      oy9     O  -0.792
AL6      3.407395124   17.297340393    5.009092331 XXX  1      ay2     Al  1.450
SI11     2.546361208    9.649856567    2.334588766 XXX  1      sy1     Si  1.100
SI12     2.590695858   15.677710533    2.338953018 XXX  1      sy2     Si  1.100
H6       2.874197483   12.180181503    3.817140102 XXX  1      hoy     H   0.200
O31      3.068481207   17.175487518    1.686478257 XXX  1      oy1     O  -0.550
O32      3.643436193   10.826533318    1.795998931 XXX  1      oy2     O  -0.550
O33      3.674974680   14.596935272    1.596616745 XXX  1      oy3     O  -0.550
O34      2.445718050    9.622768402    3.954199314 XXX  1      oy4     O  -0.758
O35      2.720531225   15.776763916    3.959261417 XXX  1      oy5     O  -0.758
O36      2.427943707   12.984457970    3.849119902 XXX  1      oy6     O  -0.792
AL7      3.383848667   14.265665054    5.006178379 XXX  1      ay1     Al  1.450
SI13     4.215749264   12.881609917    7.659517288 XXX  1      sy1     Si  1.100
SI14     4.157079220   15.854663849    7.682434559 XXX  1      sy2     Si  1.100
H7       3.891664028   10.359001160    6.132293224 XXX  1      hoy     H   0.200
O37      3.729502439   14.356753349    8.354736328 XXX  1      oy1     O  -0.550
O38      3.147288322   11.666749954    8.158151627 XXX  1      oy2     O  -0.550
O39      3.159497023   17.064441681    8.340167046 XXX  1      oy3     O  -0.550
O40      4.361909866   12.931448936    6.038323402 XXX  1      oy7     O  -0.758
O41      4.110031128   15.788462639    6.044869900 XXX  1      oy8     O  -0.758
O42      4.362547398    9.568631172    6.141396999 XXX  1      oy9     O  -0.792
AL8      0.830964446   12.794466019    4.995281219 XXX  1      ay2     Mg  1.100
SI15    -0.050105825   14.145771027    2.318069220 XXX  1      sy1     Si  1.100
SI16     0.035986505   11.192097664    2.311296701 XXX  1      sy2     Si  1.100
H8       0.256718993   16.667184830    3.826741695 XXX  1      hoy     H   0.200
O43      0.474123269   12.682853699    1.626245499 XXX  1      oy1     O  -0.550
O44      1.013267040   15.366709709    1.818311572 XXX  1      oy2     O  -0.550
O45      1.040391207   10.012490273    1.617018819 XXX  1      oy3     O  -0.550
O46     -0.135835752   14.135835648    3.954696178 XXX  1      oy4     O  -0.867
O47      0.115950972   11.287569046    3.944684744 XXX  1      oy5     O  -0.867
O48     -0.187020168   17.473230362    3.857000113 XXX  1      oy6     O  -0.792
AL9      0.762473226   18.773418427    5.000629902 XXX  1      ay1     Al  1.450
SI17     1.651473403   26.416501999    7.626732826 XXX  1      sy1     Si  1.100
SI18     1.568521142   20.387434006    7.660080910 XXX  1      sy2     Si  1.100
H9       1.318295121   23.884876251    6.166611671 XXX  1      hoy     H   0.200
O49      1.105280399   18.891324997    8.332446098 XXX  1      oy1     O  -0.550
O50      0.546991706   25.249073029    8.163238525 XXX  1      oy2     O  -0.550
O51      0.519733489   21.513332367    8.382236481 XXX  1      oy3     O  -0.550
O52      1.743063688   26.428140640    6.001362324 XXX  1      oy7     O  -0.758
O53      1.476833582   20.292716980    6.035149097 XXX  1      oy8     O  -0.758
O54      1.769303441   23.085905075    6.127160072 XXX  1      oy9     O  -0.792
AL10     3.427057505   26.295593262    4.975632668 XXX  1      ay2     Al  1.450
SI19     2.527093410   18.654281616    2.338733912 XXX  1      sy1     Si  1.100
SI20     2.614876509   24.684856415    2.305116892 XXX  1      sy2     Si  1.100
H10      2.880355835   21.170253754    3.822952271 XXX  1      hoy     H   0.200
O55      3.091380358   26.183109283    1.651950717 XXX  1      oy1     O  -0.550
O56      3.627614737   19.830354691    1.816620111 XXX  1      oy2     O  -0.550
O57      3.665262222   23.563358307    1.577666640 XXX  1      oy3     O  -0.550
O58      2.441673994   18.639535904    3.968066216 XXX  1      oy4     O  -0.758
O59      2.713444948   24.769477844    3.936452150 XXX  1      oy5     O  -0.867
O60      2.423100948   21.965066910    3.852911472 XXX  1      oy6     O  -0.792
AL11     3.367183208   23.262998581    4.994308949 XXX  1      ay1     Mg  1.101
SI21     4.223367214   21.923048019    7.671619415 XXX  1      sy1     Si  1.100
SI22     4.169870377   24.877367020    7.667245865 XXX  1      sy2     Si  1.100
H11      3.904135942   19.405422211    6.185746193 XXX  1      hoy     H   0.200
O61      3.703363657   23.395294189    8.345858574 XXX  1      oy1     O  -0.550
O62      3.162226677   20.694576263    8.155100822 XXX  1      oy2     O  -0.550
O63      3.170466423   26.081626892    8.327764511 XXX  1      oy3     O  -0.550
O64      4.335539818   21.922391891    6.031857491 XXX  1      oy7     O  -0.867
O65      4.084940910   24.779663086    6.030609131 XXX  1      oy8     O  -0.867
O66      4.363138676   18.607088089    6.146545410 XXX  1      oy9     O  -0.683
AL12     0.807605922   21.796962738    4.975296021 XXX  1      ay2     Al  1.450
SI23    -0.047178078   23.160915375    2.313060760 XXX  1      sy1     Si  1.100
SI24     0.007357201   20.197574615    2.314192772 XXX  1      sy2     Si  1.100
H12      0.280326456   25.665060043    3.791222572 XXX  1      hoy     H   0.200
O67      0.489858776   21.684587479    1.657535076 XXX  1      oy1     O  -0.550
O68      1.019836187   24.378938675    1.815382600 XXX  1      oy2     O  -0.550
O69      1.011969209   19.004676819    1.639856458 XXX  1      oy3     O  -0.550
O70     -0.148820758   23.155677795    3.946748495 XXX  1      oy4     O  -0.758
O71      0.088255800   20.277303696    3.944797993 XXX  1      oy5     O  -0.758
O72     -0.176750913   26.462162018    3.831708193 XXX  1      oy6     O  -0.683
AL13     5.965516567    0.733123600    4.980644226 XXX  1      ay1     Al  1.450
SI25     6.821374893    8.379068375    7.649248600 XXX  1      sy1     Si  1.100
SI26     6.761224270    2.344539642    7.634443760 XXX  1      sy2     Si  1.100
H13      6.506308079    5.847981930    6.146383762 XXX  1      hoy     H   0.200
O73      6.369932652    0.848475158    8.344257355 XXX  1      oy1     O  -0.550
O74      5.718733311    7.214036465    8.189275742 XXX  1      oy2     O  -0.550
O75      5.762267113    3.503659248    8.354893684 XXX  1      oy3     O  -0.550
O76      6.928577423    8.417907715    6.021826744 XXX  1      oy7     O  -0.867
O77      6.690943718    2.248081684    6.013481140 XXX  1      oy8     O  -0.758
O78      6.974060535    5.053621769    6.125259876 XXX  1      oy9     O  -0.792
AL14     8.604371071    8.280062675    4.986073971 XXX  1      ay2     Al  1.450
SI27     7.763714314    0.639079154    2.302850962 XXX  1      sy1     Si  1.100
SI28     7.838387012    6.667702198    2.310067415 XXX  1      sy2     Si  1.100
H14      8.070321083    3.163443327    3.792636633 XXX  1      hoy     H   0.200
O79      8.217831612    8.167110443    1.604195833 XXX  1      oy1     O  -0.550
O80      8.818792343    1.849004030    1.782879829 XXX  1      oy2     O  -0.550
O81      8.832721710    5.503705502    1.584313273 XXX  1      oy3     O  -0.550
O82      7.633309841    0.576167524    3.931642771 XXX  1      oy4     O  -0.867
O83      7.909023762    6.759339333    3.933997869 XXX  1      oy5     O  -0.867
O84      7.603298664    3.954128027    3.830330610 XXX  1      oy6     O  -0.792
AL15     8.561088562    5.246858120    4.975676537 XXX  1      ay1     Mg  1.100
SI29     9.409983635    3.886935711    7.635405540 XXX  1      sy1     Si  1.100
SI30     9.329864502    6.832700253    7.656093121 XXX  1      sy2     Si  1.100
H15      9.106488228    1.346484780    6.120980263 XXX  1      hoy     H   0.200
O85      8.912510872    5.341293335    8.350296021 XXX  1      oy1     O  -0.550
O86      8.355887413    2.656754971    8.133545876 XXX  1      oy2     O  -0.550
O87      8.346352577    8.033967018    8.338198662 XXX  1      oy3     O  -0.550
O88      9.538316727    3.907689333    6.006750584 XXX  1      oy7     O  -0.867
O89      9.291595459    6.758263111    6.018616199 XXX  1      oy8     O  -0.867
O90      9.570437431    0.550392210    6.125451565 XXX  1      oy9     O  -0.792
AL16     6.007653236    3.760488510    4.979921341 XXX  1      ay2     Al  1.450
SI31     5.172930717    5.129796028    2.313363075 XXX  1      sy1     Si  1.100
SI32     5.228082180    2.183569908    2.315401316 XXX  1      sy2     Si  1.100
H16      5.452664852    7.650948524    3.842061520 XXX  1      hoy     H   0.200
O91      5.644948006    3.659787893    1.600973010 XXX  1      oy1     O  -0.550
O92      6.248296261    6.339689255    1.815808892 XXX  1      oy2     O  -0.550
O93      6.219035149    0.980467081    1.638695598 XXX  1      oy3     O  -0.550
O94      5.017913818    5.082747459    3.935935974 XXX  1      oy4     O  -0.867
O95      5.278447628    2.240429640    3.941803217 XXX  1      oy5     O  -0.758
O96      5.001031876    8.455649376    3.821178198 XXX  1      oy6     O  -0.792
AL17     5.948974133    9.741214752    4.983989716 XXX  1      ay1     Mg  1.101
SI33     6.827194214   17.396589279    7.660589218 XXX  1      sy1     Si  1.100
SI34     6.773609638   11.343746185    7.655056477 XXX  1      sy2     Si  1.100
H17      6.517387390   14.851552010    6.205575466 XXX  1      hoy     H   0.200
O97      6.323674679    9.857473373    8.342064857 XXX  1      oy1     O  -0.550
O98      5.756069183   16.189077377    8.161321640 XXX  1      oy2     O  -0.550
O99      5.726008892   12.480012894    8.365062714 XXX  1      oy3     O  -0.550
O100     6.932278633   17.420763016    6.030550003 XXX  1      oy7     O  -0.758
O101     6.667904377   11.256714821    6.027497768 XXX  1      oy8     O  -0.867
O102     6.980391502   14.063518524    6.145385742 XXX  1      oy9     O  -0.683
AL18     8.603272438   17.276805878    4.986658573 XXX  1      ay2     Al  1.450
SI35     7.755830765    9.640187263    2.317209244 XXX  1      sy1     Si  1.100
SI36     7.826199055   15.664184570    2.330187798 XXX  1      sy2     Si  1.100
H18      8.077067375   12.148594856    3.833954334 XXX  1      hoy     H   0.200
O103     8.213079453   17.159561157    1.625240564 XXX  1      oy1     O  -0.550
O104     8.821985245   10.849836349    1.808553934 XXX  1      oy2     O  -0.550
O105     8.822447777   14.491641998    1.631407142 XXX  1      oy3     O  -0.550
O106     7.619054317    9.612035751    3.945197821 XXX  1      oy4     O  -0.867
O107     7.873660088   15.756395340    3.959139585 XXX  1      oy5     O  -0.758
O108     7.625286102   12.952517509    3.844305992 XXX  1      oy6     O  -0.683
AL19     8.578896523   14.248910904    4.997296810 XXX  1      ay1     Al  1.450
SI37     9.436937332   12.896140099    7.677655697 XXX  1      sy1     Si  1.100
SI38     9.375470161   15.860755920    7.657366753 XXX  1      sy2     Si  1.100
H19      9.087157249   10.376893997    6.138358116 XXX  1      hoy     H   0.200
O109     8.919859886   14.379992485    8.341934204 XXX  1      oy1     O  -0.550
O110     8.358911514   11.682707787    8.157052040 XXX  1      oy2     O  -0.550
O111     8.371965408   17.064205170    8.332814217 XXX  1      oy3     O  -0.550
O112     9.575082779   12.933379173    6.043040276 XXX  1      oy7     O  -0.867
O113     9.288334846   15.778193474    6.031578064 XXX  1      oy8     O  -0.758
O114     9.559449196    9.586474419    6.130206108 XXX  1      oy9     O  -0.683
AL20     6.020498276   12.775105476    4.983993530 XXX  1      ay2     Al  1.450
SI39     5.151382923   14.130805016    2.335549116 XXX  1      sy1     Si  1.100
SI40     5.220410824   11.178734779    2.313772917 XXX  1      sy2     Si  1.100
H20      5.461837769   16.675109863    3.833822012 XXX  1      hoy     H   0.200
O115     5.658509731   12.672756195    1.638199091 XXX  1      oy1     O  -0.550
O116     6.225028992   15.350225449    1.838579893 XXX  1      oy2     O  -0.550
O117     6.236607075   10.011272430    1.608783722 XXX  1      oy3     O  -0.550
O118     5.060013294   14.147927284    3.964467764 XXX  1      oy4     O  -0.758
O119     5.291199207   11.260078430    3.942696810 XXX  1      oy5     O  -0.867
O120     5.004394054   17.472396851    3.851173401 XXX  1      oy6     O  -0.683
AL21     5.961854458   18.772361755    5.002846718 XXX  1      ay1     Al  1.450
SI41     6.824431896   26.409339905    7.648996353 XXX  1      sy1     Si  1.100
SI42     6.755821705   20.386703491    7.650855541 XXX  1      sy2     Si  1.100
H21      6.502414703   23.899013519    6.146562576 XXX  1      hoy     H   0.200
O121     6.354685783   18.883777618    8.337409973 XXX  1      oy1     O  -0.550
O122     5.765033722   25.194969177    8.152974129 XXX  1      oy2     O  -0.550
O123     5.757168770   21.561691284    8.343988419 XXX  1      oy3     O  -0.550
O124     6.953667641   26.447671890    6.019653797 XXX  1      oy7     O  -0.867
O125     6.703097820   20.289947510    6.023325443 XXX  1      oy8     O  -0.758
O126     6.962005138   23.100227356    6.131358624 XXX  1      oy9     O  -0.683
AL22     8.615220070   26.302980423    4.977274418 XXX  1      ay2     Mg  1.100
SI43     7.746992588   18.641540527    2.318272114 XXX  1      sy1     Si  1.100
SI44     7.823248386   24.705480576    2.306596994 XXX  1      sy2     Si  1.100
H22      8.072919846   21.192399979    3.788891792 XXX  1      hoy     H   0.200
O127     8.175924301   26.198669434    1.576295733 XXX  1      oy1     O  -0.550
O128     8.801375389   19.859218597    1.808304310 XXX  1      oy2     O  -0.550
O129     8.829296112   23.529260635    1.614667535 XXX  1      oy3     O  -0.550
O130     7.617575645   18.605155945    3.945180893 XXX  1      oy4     O  -0.758
O131     7.892885208   24.793167114    3.937233925 XXX  1      oy5     O  -0.867
O132     7.600931168   21.979574203    3.828325987 XXX  1      oy6     O  -0.683
AL23     8.560223579   23.276395798    4.983160019 XXX  1      ay1     Al  1.450
SI45     9.427629471   21.918430328    7.642387390 XXX  1      sy1     Si  1.100
SI46     9.350435257   24.869983673    7.654215813 XXX  1      sy2     Si  1.100
H23      9.099543571   19.384485245    6.137215614 XXX  1      hoy     H   0.200
O133     8.914361000   23.380493164    8.334009171 XXX  1      oy1     O  -0.550
O134     8.353795052   20.701702118    8.142835617 XXX  1      oy2     O  -0.550
O135     8.352807999   26.059799194    8.346825600 XXX  1      oy3     O  -0.550
O136     9.522944450   21.922433853    6.014465809 XXX  1      oy7     O  -0.758
O137     9.281994820   24.795930862    6.023953915 XXX  1      oy8     O  -0.867
O138     9.548967361   18.583068848    6.137843609 XXX  1      oy9     O  -0.792
AL24     6.009959698   21.799108505    4.985983849 XXX  1      ay2     Al  1.450
SI47     5.158681393   23.141592026    2.304983616 XXX  1      sy1     Si  1.100
SI48     5.211142063   20.189556122    2.319544792 XXX  1      sy2     Si  1.100
H24      5.495069981   25.679456711    3.845954418 XXX  1      hoy     H   0.200
O139     5.673500538   21.665279388    1.630153656 XXX  1      oy1     O  -0.550
O140     6.229567051   24.362894058    1.815121293 XXX  1      oy2     O  -0.550
O141     6.191910744   18.960651398    1.657647848 XXX  1      oy3     O  -0.550
O142     5.020947933   23.115633011    3.934761286 XXX  1      oy4     O  -0.867
O143     5.290279865   20.271070480    3.947820902 XXX  1      oy5     O  -0.758
O144     5.023903370   26.470792770    3.822205544 XXX  1      oy6     O  -0.683
AL25    11.156102180    0.729354739    4.953775406 XXX  1      ay1     Al  1.450
SI49    11.982259750    8.354199409    7.616608143 XXX  1      sy1     Si  1.100
SI50    11.941360474    2.328224182    7.619544506 XXX  1      sy2     Si  1.100
H25     11.664074898    5.835279465    6.133846760 XXX  1      hoy     H   0.200
O145    11.477315903    0.836546481    8.289389610 XXX  1      oy1     O  -0.550
O146    10.927571297    7.151119709    8.137267113 XXX  1      oy2     O  -0.550
O147    10.910452843    3.461094379    8.344883919 XXX  1      oy3     O  -0.550
O148    12.128149033    8.400103569    5.994597435 XXX  1      oy7     O  -0.758
O149    11.869408607    2.247812033    5.995793343 XXX  1      oy8     O  -0.758
O150    12.150470734    5.054847717    6.109354019 XXX  1      oy9     O  -0.683
AL26    13.808838844    8.274333000    4.962168694 XXX  1      ay2     Al  1.450
SI51    12.937356949    0.613290429    2.289616108 XXX  1      sy1     Si  1.100
SI52    13.008661270    6.665176392    2.286413431 XXX  1      sy2     Si  1.100
H26     13.275074959    3.149118900    3.778315306 XXX  1      hoy     H   0.200
O151    13.465373993    8.163882256    1.627771258 XXX  1      oy1     O  -0.550
O152    14.012605667    1.823656201    1.798127532 XXX  1      oy2     O  -0.550
O153    14.011537552    5.479326725    1.600835562 XXX  1      oy3     O  -0.550
O154    12.832935333    0.592915833    3.921360493 XXX  1      oy4     O  -0.758
O155    13.094505310    6.753479004    3.916687012 XXX  1      oy5     O  -0.758
O156    12.805477142    3.938161373    3.809068203 XXX  1      oy6     O  -0.683
AL27    13.749071121    5.236144543    4.965378284 XXX  1      ay1     Al  1.450
SI53    14.593026161    3.864849329    7.642934322 XXX  1      sy1     Si  1.100
SI54    14.533259392    6.814324379    7.619239330 XXX  1      sy2     Si  1.100
H27     14.297873497    1.358446836    6.149813175 XXX  1      hoy     H   0.200
O157    14.059964180    5.339478016    8.299001694 XXX  1      oy1     O  -0.550
O158    13.526725769    2.642199516    8.124390602 XXX  1      oy2     O  -0.550
O159    13.520742416    8.004065514    8.286619186 XXX  1      oy3     O  -0.550
O160    14.722560883    3.890258074    6.004957676 XXX  1      oy7     O  -0.867
O161    14.481727600    6.756189823    5.995670319 XXX  1      oy8     O  -0.758
O162    14.746152878    0.555361629    6.127794266 XXX  1      oy9     O  -0.683
AL28    11.201250076    3.759333849    4.949307442 XXX  1      ay2     Al  1.450
SI55    10.346717834    5.135343075    2.288256168 XXX  1      sy1     Si  1.100
SI56    10.408501625    2.170908928    2.284208775 XXX  1      sy2     Si  1.100
H28     10.618379593    7.659730434    3.774353027 XXX  1      hoy     H   0.200
O163    10.891474724    3.662531376    1.631069660 XXX  1      oy1     O  -0.550
O164    11.409737587    6.365522861    1.811210990 XXX  1      oy2     O  -0.550
O165    11.405400276    0.967335045    1.611941218 XXX  1      oy3     O  -0.550
O166    10.229258537    5.113924026    3.925571680 XXX  1      oy4     O  -0.867
O167    10.475972176    2.240459204    3.914405584 XXX  1      oy5     O  -0.758
O168    10.187132835    8.470790863    3.814754486 XXX  1      oy6     O  -0.683
AL29    11.149547577    9.749196053    4.975099564 XXX  1      ay1     Al  1.450
SI57    12.043121338   17.405382156    7.659595966 XXX  1      sy1     Si  1.100
SI58    11.940623283   11.338225365    7.649529934 XXX  1      sy2     Si  1.100
H29     11.718862534   14.855042458    6.180231094 XXX  1      hoy     H   0.200
O169    11.571807861    9.833805084    8.347556114 XXX  1      oy1     O  -0.550
O170    10.950573921   16.224712372    8.183303833 XXX  1      oy2     O  -0.550
O171    10.958069801   12.517438889    8.369695663 XXX  1      oy3     O  -0.550
O172    12.122146606   17.422603607    6.028035641 XXX  1      oy7     O  -0.867
O173    11.896583557   11.259262085    6.016518593 XXX  1      oy8     O  -0.867
O174    12.188520432   14.064978600    6.137876987 XXX  1      oy9     O  -0.792
AL30    13.795753479   17.285017014    4.986358166 XXX  1      ay2     Al  1.450
SI59    12.955708504    9.631477356    2.313553810 XXX  1      sy1     Si  1.100
SI60    13.001235008   15.694795609    2.323148489 XXX  1      sy2     Si  1.100
H30     13.292445183   12.173813820    3.842103720 XXX  1      hoy     H   0.200
O175    13.446229935   17.181184769    1.635435820 XXX  1      oy1     O  -0.550
O176    14.035933495   10.842819214    1.816146016 XXX  1      oy2     O  -0.550
O177    14.017704964   14.521362305    1.628722429 XXX  1      oy3     O  -0.550
O178    12.826284409    9.613630295    3.936339855 XXX  1      oy4     O  -0.758
O179    13.081634521   15.769652367    3.944905519 XXX  1      oy5     O  -0.758
O180    12.818943024   12.962827682    3.824225187 XXX  1      oy6     O  -0.792
AL31    13.769491196   14.263665199    4.978371143 XXX  1      ay1     Al  1.450
SI61    14.589173317   12.873264313    7.635008812 XXX  1      sy1     Si  1.100
SI62    14.548890114   15.838220596    7.651470184 XXX  1      sy2     Si  1.100
H31     14.296391487   10.385065079    6.101231575 XXX  1      hoy     H   0.200
O181    14.162184715   14.346389771    8.364665985 XXX  1      oy1     O  -0.550
O182    13.539461136   11.646592140    8.144386292 XXX  1      oy2     O  -0.550
O183    13.565933228   17.029235840    8.344851494 XXX  1      oy3     O  -0.550
O184    14.758884430   12.936634064    6.015932083 XXX  1      oy7     O  -0.867
O185    14.491654396   15.776844025    6.023180008 XXX  1      oy8     O  -0.758
O186    14.748453140    9.583088875    6.124269962 XXX  1      oy9     O  -0.683
AL32    11.231557846   12.782084465    4.984560490 XXX  1      ay2     Mg  1.100
SI63    10.347349167   14.135617256    2.317995787 XXX  1      sy1     Si  1.100
SI64    10.406791687   11.177818298    2.306936979 XXX  1      sy2     Si  1.100
H32     10.660015106   16.678344727    3.798203468 XXX  1      hoy     H   0.200
O187    10.858102798   12.667317390    1.624183297 XXX  1      oy1     O  -0.550
O188    11.425083160   15.333441734    1.799003005 XXX  1      oy2     O  -0.550
O189    11.465888977   10.062026978    1.585210204 XXX  1      oy3     O  -0.550
O190    10.252437592   14.118030548    3.949712515 XXX  1      oy4     O  -0.867
O191    10.513662338   11.278074265    3.932882786 XXX  1      oy5     O  -0.867
O192    10.192360878   17.470672607    3.835683346 XXX  1      oy6     O  -0.792
AL33    11.144517899   18.757085800    4.989636898 XXX  1      ay1     Mg  1.100
SI65    12.009693146   26.407564163    7.622281551 XXX  1      sy1     Si  1.100
SI66    11.979763985   20.376926422    7.650088787 XXX  1      sy2     Si  1.100
H33     11.695827484   23.878168106    6.169163227 XXX  1      hoy     H   0.200
O193    11.534254074   18.883707047    8.337002754 XXX  1      oy1     O  -0.550
O194    10.931365967   25.220205307    8.161143303 XXX  1      oy2     O  -0.550
O195    10.910146713   21.476799011    8.378665924 XXX  1      oy3     O  -0.550
O196    12.122053146   26.435905457    5.998463631 XXX  1      oy7     O  -0.758
O197    11.853808403   20.272733688    6.024219990 XXX  1      oy8     O  -0.867
O198    12.152259827   23.080701828    6.132953167 XXX  1      oy9     O  -0.792
AL34    13.800173759   26.300125122    4.971212387 XXX  1      ay2     Al  1.450
SI67    12.938065529   18.652765274    2.315615892 XXX  1      sy1     Si  1.100
SI68    13.026238441   24.703321457    2.307623625 XXX  1      sy2     Si  1.100
H34     13.253703117   21.164997101    3.857202291 XXX  1      hoy     H   0.200
O199    13.473519325   26.188306808    1.627505064 XXX  1      oy1     O  -0.550
O200    14.022964478   19.864927292    1.827940345 XXX  1      oy2     O  -0.550
O201    14.042045593   23.523426056    1.623457432 XXX  1      oy3     O  -0.550
O202    12.809949875   18.617578506    3.945462704 XXX  1      oy4     O  -0.867
O203    13.089221001   24.769641876    3.937475443 XXX  1      oy5     O  -0.867
O204    12.803230286   21.966890335    3.831639767 XXX  1      oy6     O  -0.792
AL35    13.746698380   23.263299942    4.993429661 XXX  1      ay1     Mg  1.101
SI69    14.614241600   21.927656174    7.676077843 XXX  1      sy1     Si  1.100
SI70    14.534511566   24.877216339    7.662612915 XXX  1      sy2     Si  1.100
H35     14.268440247   19.375913620    6.174670219 XXX  1      hoy     H   0.200
O205    14.076553345   23.395124435    8.345846176 XXX  1      oy1     O  -0.550
O206    13.565375328   20.692302704    8.154897690 XXX  1      oy2     O  -0.550
O207    13.538260460   26.086669922    8.315399170 XXX  1      oy3     O  -0.550
O208    14.725525856   21.935146332    6.038685799 XXX  1      oy7     O  -0.867
O209    14.472105026   24.784931183    6.023365498 XXX  1      oy8     O  -0.867
O210    14.741732597   18.584400177    6.144830227 XXX  1      oy9     O  -0.683
AL36    11.197007179   21.793676376    4.978247166 XXX  1      ay2     Al  1.450
SI71    10.345852852   23.171949387    2.320914507 XXX  1      sy1     Si  1.100
SI72    10.390143394   20.194910049    2.311581612 XXX  1      sy2     Si  1.100
H36     10.661123276   25.672836304    3.801020861 XXX  1      hoy     H   0.200
O211    10.839221001   21.689517975    1.637117743 XXX  1      oy1     O  -0.550
O212    11.453206062   24.332445145    1.780858755 XXX  1      oy2     O  -0.550
O213    11.445781708   19.078901291    1.583604813 XXX  1      oy3     O  -0.550
O214    10.228617668   23.133831024    3.942140341 XXX  1      oy4     O  -0.758
O215    10.474644661   20.267494202    3.943691492 XXX  1      oy5     O  -0.867
O216    10.196241379   26.465978622    3.823817968 XXX  1      oy6     O  -0.792
AL37    16.347318649    0.728769124    4.985938072 XXX  1      ay1     Al  1.450
SI73    17.197151184    8.388289452    7.648190498 XXX  1      sy1     Si  1.100
SI74    17.119335175    2.354236364    7.648046970 XXX  1      sy2     Si  1.100
H37     16.875965118    5.864804745    6.142189026 XXX  1      hoy     H   0.200
O217    16.770181656    0.850102127    8.361540794 XXX  1      oy1     O  -0.550
O218    16.091417313    7.210581303    8.166885376 XXX  1      oy2     O  -0.550
O219    16.104103088    3.505057335    8.360273361 XXX  1      oy3     O  -0.550
O220    17.312074661    8.421922684    6.016578674 XXX  1      oy7     O  -0.867
O221    17.061389923    2.257223368    6.018277645 XXX  1      oy8     O  -0.867
O222    17.327423096    5.064059734    6.120874405 XXX  1      oy9     O  -0.792
AL38    18.987045288    8.285566330    4.985569477 XXX  1      ay2     Mg  1.100
SI75    18.151809692    0.612356842    2.336697102 XXX  1      sy1     Si  1.100
SI76    18.188442230    6.675309181    2.318754435 XXX  1      sy2     Si  1.100
H38     18.457775116    3.169098616    3.829800844 XXX  1      hoy     H   0.200
O223    18.631990433    8.158422470    1.613364697 XXX  1      oy1     O  -0.550
O224    19.210937500    1.832777619    1.836730361 XXX  1      oy2     O  -0.550
O225    19.238307953    5.541747093    1.599086523 XXX  1      oy3     O  -0.550
O226    18.024032593    0.598070860    3.959086418 XXX  1      oy4     O  -0.758
O227    18.283212662    6.768094540    3.939875364 XXX  1      oy5     O  -0.867
O228    17.990516663    3.961813688    3.821272373 XXX  1      oy6     O  -0.792
AL39    18.936500549    5.254443169    4.994596958 XXX  1      ay1     Al  1.450
SI77    19.774061203    3.910489559    7.645131111 XXX  1      sy1     Si  1.100
SI78    19.715032578    6.863032818    7.676703930 XXX  1      sy2     Si  1.100
H39     19.490499496    1.355106950    6.145362377 XXX  1      hoy     H   0.200
O229    19.268331528    5.367853165    8.346005440 XXX  1      oy1     O  -0.550
O230    18.709871292    2.689882994    8.146427155 XXX  1      oy2     O  -0.550
O231    18.701665878    8.036203384    8.372776031 XXX  1      oy3     O  -0.550
O232    19.901910782    3.905024529    6.024083138 XXX  1      oy7     O  -0.758
O233    19.637872696    6.776711941    6.039602280 XXX  1      oy8     O  -0.867
O234    19.955991745    0.559187829    6.154132843 XXX  1      oy9     O  -0.792
AL40    16.396406174    3.767452717    4.969940186 XXX  1      ay2     Mg  1.100
SI79    15.529198647    5.115494251    2.296910763 XXX  1      sy1     Si  1.100
SI80    15.595185280    2.152432203    2.306483746 XXX  1      sy2     Si  1.100
H40     15.880892754    7.686587811    3.779996157 XXX  1      hoy     H   0.200
O235    16.058111191    3.639939547    1.624575734 XXX  1      oy1     O  -0.550
O236    16.620313644    6.305078030    1.781777024 XXX  1      oy2     O  -0.550
O237    16.654922485    1.024307489    1.607771993 XXX  1      oy3     O  -0.550
O238    15.421332359    5.093312740    3.925240993 XXX  1      oy4     O  -0.867
O239    15.686892509    2.244004726    3.934554338 XXX  1      oy5     O  -0.867
O240    15.403101921    8.473647118    3.811399460 XXX  1      oy6     O  -0.683
AL41    16.351480484    9.763412476    4.973960400 XXX  1      ay1     Al  1.450
SI81    17.200183868   17.395362854    7.659682274 XXX  1      sy1     Si  1.100
SI82    17.139751434   11.341073036    7.643068790 XXX  1      sy2     Si  1.100
H41     16.888669968   14.876135826    6.141639709 XXX  1      hoy     H   0.200
O241    16.652280807    9.861412048    8.317126274 XXX  1      oy1     O  -0.550
O242    16.152132034   16.151580811    8.145586967 XXX  1      oy2     O  -0.550
O243    16.095222473   12.478021622    8.362521172 XXX  1      oy3     O  -0.550
O244    17.320764542   17.412364960    6.029816151 XXX  1      oy7     O  -0.758
O245    17.062936783   11.288108826    6.018065929 XXX  1      oy8     O  -0.867
O246    17.356439590   14.085496902    6.145515442 XXX  1      oy9     O  -0.792
AL42    19.006130219   17.299066544    5.001059532 XXX  1      ay2     Al  1.450
SI83    18.141773224    9.639952660    2.309806108 XXX  1      sy1     Si  1.100
SI84    18.210937500   15.691590309    2.326988220 XXX  1      sy2     Si  1.100
H42     18.451013565   12.181813240    3.789788485 XXX  1      hoy     H   0.200
O247    18.696371078   17.189670563    1.675805807 XXX  1      oy1     O  -0.550
O248    19.249845505   10.815327644    1.793885350 XXX  1      oy2     O  -0.550
O249    19.256019592   14.556014061    1.619901896 XXX  1      oy3     O  -0.550
O250    18.024311066    9.616460800    3.935349703 XXX  1      oy4     O  -0.867
O251    18.288450241   15.781724930    3.956481457 XXX  1      oy5     O  -0.758
O252    18.004657745   12.987438202    3.829420328 XXX  1      oy6     O  -0.792
AL43    18.958551407   14.262930870    4.996689320 XXX  1      ay1     Al  1.450
SI85    19.821901321   12.875543594    7.652288914 XXX  1      sy1     Si  1.100
SI86    19.769855499   15.863007545    7.658112526 XXX  1      sy2     Si  1.100
H43     19.458045959   10.384721756    6.135905266 XXX  1      hoy     H   0.200
O253    19.319465637   14.363856316    8.319159508 XXX  1      oy1     O  -0.550
O254    18.696456909   11.732171059    8.199548721 XXX  1      oy2     O  -0.550
O255    18.706981659   16.984535217    8.367599487 XXX  1      oy3     O  -0.550
O256    19.926250458   12.918237686    6.027417183 XXX  1      oy7     O  -0.758
O257    19.677686691   15.781158447    6.033887863 XXX  1      oy8     O  -0.758
O258    19.921298981    9.592830658    6.122766018 XXX  1      oy9     O  -0.792
AL44    16.416660309   12.797942162    4.972303867 XXX  1      ay2     Mg  1.101
SI87    15.552785873   14.167010307    2.310623646 XXX  1      sy1     Si  1.100
SI88    15.629729271   11.187937737    2.307475567 XXX  1      sy2     Si  1.100
H44     15.850809097   16.681953430    3.798009396 XXX  1      hoy     H   0.200
O259    15.987056732   12.687828064    1.588050127 XXX  1      oy1     O  -0.550
O260    16.624319077   15.379836082    1.809098363 XXX  1      oy2     O  -0.550
O261    16.636537552   10.026808739    1.597395301 XXX  1      oy3     O  -0.550
O262    15.446352959   14.141331673    3.941675186 XXX  1      oy4     O  -0.867
O263    15.691365242   11.287054062    3.935091496 XXX  1      oy5     O  -0.867
O264    15.398498535   17.481439590    3.843221188 XXX  1      oy6     O  -0.683
AL45    16.347139359   18.772085190    5.009819508 XXX  1      ay1     Al  1.450
SI89    17.196117401   26.409749985    7.649232388 XXX  1      sy1     Si  1.100
SI90    17.136907578   20.369960785    7.680757999 XXX  1      sy2     Si  1.100
H45     16.871482849   23.892946243    6.169789791 XXX  1      hoy     H   0.200
O265    16.674657822   18.864980698    8.331970215 XXX  1      oy1     O  -0.550
O266    16.128309250   25.206277847    8.156102180 XXX  1      oy2     O  -0.550
O267    16.150327682   21.574497223    8.350435257 XXX  1      oy3     O  -0.550
O268    17.325901031   26.443702698    6.028935909 XXX  1      oy7     O  -0.758
O269    17.081941605   20.283590317    6.048115253 XXX  1      oy8     O  -0.758
O270    17.353408813   23.110471725    6.148042202 XXX  1      oy9     O  -0.683
AL46    18.998514175   26.304990768    4.991677761 XXX  1      ay2     Al  1.450
SI91    18.146381378   18.665370941    2.337660074 XXX  1      sy1     Si  1.100
SI92    18.226667404   24.704563141    2.321311235 XXX  1      sy2     Si  1.100
H46     18.482751846   21.198146820    3.826107979 XXX  1      hoy     H   0.200
O271    18.662639618   26.198320389    1.643271565 XXX  1      oy1     O  -0.550
O272    19.222724915   19.864707947    1.835309505 XXX  1      oy2     O  -0.550
O273    19.198541641   23.487314224    1.656303406 XXX  1      oy3     O  -0.550
O274    18.021030426   18.631343842    3.965334892 XXX  1      oy4     O  -0.758
O275    18.273565292   24.790542603    3.952822924 XXX  1      oy5     O  -0.758
O276    17.995561600   21.976535797    3.855324268 XXX  1      oy6     O  -0.683
AL47    18.952009201   23.282150269    4.998748302 XXX  1      ay1     Al  1.450
SI93    19.798131943   21.907289505    7.687386990 XXX  1      sy1     Si  1.100
SI94    19.743516922   24.868267059    7.659709930 XXX  1      sy2     Si  1.100
H47     19.509296417   19.397918701    6.199197292 XXX  1      hoy     H   0.200
O277    19.282787323   23.389402390    8.348902702 XXX  1      oy1     O  -0.550
O278    18.735883713   20.672372818    8.159051895 XXX  1      oy2     O  -0.550
O279    18.732511520   26.061717987    8.332534790 XXX  1      oy3     O  -0.550
O280    19.925262451   21.944293976    6.049958706 XXX  1      oy7     O  -0.867
O281    19.680303574   24.798521042    6.036135197 XXX  1      oy8     O  -0.758
O282    19.948324203   18.589385986    6.164115429 XXX  1      oy9     O  -0.683
AL48    16.403955460   21.800374985    5.009341240 XXX  1      ay2     Al  1.450
SI95    15.566482544   23.176492691    2.327956915 XXX  1      sy1     Si  1.100
SI96    15.614899635   20.198432922    2.334349155 XXX  1      sy2     Si  1.100
H48     15.850979805   25.670406342    3.809101105 XXX  1      hoy     H   0.200
O283    16.018497467   21.688941956    1.630988955 XXX  1      oy1     O  -0.550
O284    16.630825043   24.390642166    1.836081743 XXX  1      oy2     O  -0.550
O285    16.617963791   19.010490417    1.650189281 XXX  1      oy3     O  -0.550
O286    15.417185783   23.122194290    3.955377579 XXX  1      oy4     O  -0.867
O287    15.688297272   20.281715393    3.960043907 XXX  1      oy5     O  -0.758
O288    15.405737877   26.473846436    3.830532789 XXX  1      oy6     O  -0.683
AL49    21.540149689    0.747613907    4.988955498 XXX  1      ay1     Mg  1.100
SI97    22.373504639    8.380811691    7.667009354 XXX  1      sy1     Si  1.100
SI98    22.322805405    2.365679264    7.655729294 XXX  1      sy2     Si  1.100
H49     22.101329803    5.876616478    6.176805973 XXX  1      hoy     H   0.200
O289    21.933298111    0.873081744    8.378005981 XXX  1      oy1     O  -0.550
O290    21.313896179    7.156086445    8.156409264 XXX  1      oy2     O  -0.550
O291    21.264228821    3.473928213    8.379839897 XXX  1      oy3     O  -0.550
O292    22.502832413    8.399075508    6.030823708 XXX  1      oy7     O  -0.867
O293    22.248683929    2.260944605    6.032609463 XXX  1      oy8     O  -0.867
O294    22.544252396    5.067729473    6.143007755 XXX  1      oy9     O  -0.683
AL50    24.178119659    8.277810097    4.998113155 XXX  1      ay2     Mg  1.100
SI99    23.328882217    0.628753006    2.312566519 XXX  1      sy1     Si  1.100
SI100   23.412500381    6.676677227    2.310600281 XXX  1      sy2     Si  1.100
H50     23.615602493    3.150618315    3.793987751 XXX  1      hoy     H   0.200
O295    23.753330231    8.171114922    1.576004148 XXX  1      oy1     O  -0.550
O296    24.384483337    1.858159542    1.826058030 XXX  1      oy2     O  -0.550
O297    24.403491974    5.491086960    1.615538955 XXX  1      oy3     O  -0.550
O298    23.212829590    0.624328732    3.954443216 XXX  1      oy4     O  -0.867
O299    23.467731476    6.765328884    3.941064119 XXX  1      oy5     O  -0.867
O300    23.168546677    3.953394413    3.834097862 XXX  1      oy6     O  -0.683
AL51    24.137172699    5.248040676    4.984227180 XXX  1      ay1     Al  1.450
SI101   24.993619919    3.898016214    7.637416363 XXX  1      sy1     Si  1.100
SI102   24.902240753    6.850418091    7.674768925 XXX  1      sy2     Si  1.100
H51     24.663675308    1.340980649    6.122069836 XXX  1      hoy     H   0.200
O301    24.465101242    5.347485542    8.334873199 XXX  1      oy1     O  -0.550
O302    23.917827606    2.685711145    8.149102211 XXX  1      oy2     O  -0.550
O303    23.893348694    8.023354530    8.370329857 XXX  1      oy3     O  -0.550
O304    25.100778580    3.886875629    6.010185242 XXX  1      oy7     O  -0.758
O305    24.849342346    6.763781548    6.037269115 XXX  1      oy8     O  -0.867
O306    25.138891220    0.551884651    6.129423618 XXX  1      oy9     O  -0.683
AL52    21.579067230    3.782311201    4.991894245 XXX  1      ay2     Al  1.450
SI103   20.736879349    5.132472992    2.334590673 XXX  1      sy1     Si  1.100
SI104   20.806903839    2.154429197    2.322114229 XXX  1      sy2     Si  1.100
H52     21.056121826    7.687959671    3.849705935 XXX  1      hoy     H   0.200
O307    21.153896332    3.655501366    1.605379462 XXX  1      oy1     O  -0.550
O308    21.818601608    6.325496674    1.811239243 XXX  1      oy2     O  -0.550
O309    21.806060791    0.984562814    1.615443945 XXX  1      oy3     O  -0.550
O310    20.600561142    5.105926991    3.948625326 XXX  1      oy4     O  -0.758
O311    20.865228653    2.255870581    3.952542543 XXX  1      oy5     O  -0.867
O312    20.576551437    8.473427773    3.829605103 XXX  1      oy6     O  -0.792
AL53    21.538452148    9.756669044    5.004798412 XXX  1      ay1     Al  1.450
SI105   22.414789200   17.399250031    7.675278664 XXX  1      sy1     Si  1.100
SI106   22.346227646   11.330394745    7.671720982 XXX  1      sy2     Si  1.100
H53     22.108364105   14.902368546    6.160778522 XXX  1      hoy     H   0.200
O313    21.843690872    9.854275703    8.332422256 XXX  1      oy1     O  -0.550
O314    21.340881348   16.199863434    8.179512978 XXX  1      oy2     O  -0.550
O315    21.343126297   12.530011177    8.343052864 XXX  1      oy3     O  -0.550
O316    22.521791458   17.437471390    6.047227859 XXX  1      oy7     O  -0.867
O317    22.266403198   11.271170616    6.042150974 XXX  1      oy8     O  -0.758
O318    22.546871185   14.096937180    6.144588947 XXX  1      oy9     O  -0.683
AL54    24.187520981   17.299049377    5.007246494 XXX  1      ay2     Mg  1.100
SI107   23.357631683    9.650092125    2.324047565 XXX  1      sy1     Si  1.100
SI108   23.403377533   15.697497368    2.343863964 XXX  1      sy2     Si  1.100
H54     23.679140091   12.194149971    3.815112114 XXX  1      hoy     H   0.200
O319    23.745405197   17.194248199    1.614958167 XXX  1      oy1     O  -0.550
O320    24.403450012   10.871062279    1.820457578 XXX  1      oy2     O  -0.550
O321    24.381231308   14.516298294    1.638035417 XXX  1      oy3     O  -0.550
O322    23.194349289    9.589842796    3.945267439 XXX  1      oy4     O  -0.867
O323    23.451387405   15.788794518    3.974323273 XXX  1      oy5     O  -0.867
O324    23.195360184   12.979229927    3.841907024 XXX  1      oy6     O  -0.683
AL55    24.151685715   14.270281792    5.000762463 XXX  1      ay1     Al  1.450
SI109   25.000673294   12.882893562    7.685216427 XXX  1      sy1     Si  1.100
SI110   24.931562424   15.833907127    7.676944256 XXX  1      sy2     Si  1.100
H55     24.677333832   10.383961678    6.145833015 XXX  1      hoy     H   0.200
O325    24.471580505   14.355616570    8.358860970 XXX  1      oy1     O  -0.550
O326    23.933135986   11.660352707    8.169411659 XXX  1      oy2     O  -0.550
O327    23.937776566   17.030067444    8.368316650 XXX  1      oy3     O  -0.550
O328    25.132192612   12.946970940    6.050388813 XXX  1      oy7     O  -0.867
O329    24.863172531   15.794790268    6.045619488 XXX  1      oy8     O  -0.867
O330    25.129711151    9.583541870    6.127688885 XXX  1      oy9     O  -0.792
AL56    21.606693268   12.784089088    4.997454166 XXX  1      ay2     Al  1.450
SI111   20.754592896   14.137512207    2.337026834 XXX  1      sy1     Si  1.100
SI112   20.819786072   11.183109283    2.334281683 XXX  1      sy2     Si  1.100
H56     21.090034485   16.697595596    3.849647522 XXX  1      hoy     H   0.200
O331    21.248291016   12.671118736    1.644179583 XXX  1      oy1     O  -0.550
O332    21.806625366   15.369439125    1.848271012 XXX  1      oy2     O  -0.550
O333    21.832742691   10.019883156    1.634163976 XXX  1      oy3     O  -0.550
O334    20.630342484   14.133562088    3.961529016 XXX  1      oy4     O  -0.758
O335    20.876289368   11.271791458    3.956048727 XXX  1      oy5     O  -0.758
O336    20.598625183   17.476404190    3.844721556 XXX  1      oy6     O  -0.683
AL57    21.541967392   18.775407791    5.011900902 XXX  1      ay1     Al  1.450
SI113   22.399076462   26.438108444    7.667231083 XXX  1      sy1     Si  1.100
SI114   22.324151993   20.377622604    7.681861877 XXX  1      sy2     Si  1.100
H57     22.086988449   23.878822327    6.182680130 XXX  1      hoy     H   0.200
O337    21.962081909   18.873947144    8.388128281 XXX  1      oy1     O  -0.550
O338    21.314315796   25.252777100    8.195258141 XXX  1      oy2     O  -0.550
O339    21.314258575   21.536798477    8.393731117 XXX  1      oy3     O  -0.550
O340    22.525474548   26.486143112    6.043557167 XXX  1      oy7     O  -0.867
O341    22.254940033   20.291965485    6.053625107 XXX  1      oy8     O  -0.867
O342    22.553752899   23.087377548    6.149282932 XXX  1      oy9     O  -0.792
AL58    24.177354813   26.303863525    4.970246792 XXX  1      ay2     Al  1.450
SI115   23.323860168   18.675607681    2.340127707 XXX  1      sy1     Si  1.100
SI116   23.377084732   24.707759857    2.317838430 XXX  1      sy2     Si  1.100
H58     23.635782242   21.160116196    3.843406200 XXX  1      hoy     H   0.200
O343    23.884529114   26.197807312    1.678217411 XXX  1      oy1     O  -0.550
O344    24.378688812   19.879777908    1.813103437 XXX  1      oy2     O  -0.550
O345    24.371927261   23.504543304    1.647603154 XXX  1      oy3     O  -0.550
O346    23.210151672   18.626071930    3.968838930 XXX  1      oy4     O  -0.867
O347    23.440216064   24.785959244    3.950049639 XXX  1      oy5     O  -0.758
O348    23.183431625   21.959999084    3.867184877 XXX  1      oy6     O  -0.792
AL59    24.138912201   23.282320023    4.986826420 XXX  1      ay1     Al  1.450
SI117   24.979290009   21.938592911    7.667108536 XXX  1      sy1     Si  1.100
SI118   24.918693542   24.892797470    7.665567875 XXX  1      sy2     Si  1.100
H59     24.653305054   19.382532120    6.154026985 XXX  1      hoy     H   0.200
O349    24.492544174   23.411159515    8.367433548 XXX  1      oy1     O  -0.550
O350    23.916774750   20.719278336    8.176655769 XXX  1      oy2     O  -0.550
O351    23.935848236   26.104043961    8.352904320 XXX  1      oy3     O  -0.550
O352    25.115827560   21.959861755    6.042426109 XXX  1      oy7     O  -0.758
O353    24.843534470   24.807212830    6.038544655 XXX  1      oy8     O  -0.758
O354    25.131559372   18.595096588    6.165145874 XXX  1      oy9     O  -0.792
AL60    21.590484619   21.797552109    5.005095959 XXX  1      ay2     Mg  1.100
SI119   20.744157791   23.165153503    2.314324141 XXX  1      sy1     Si  1.100
SI120   20.805171967   20.222425461    2.345583200 XXX  1      sy2     Si  1.100
H60     21.061006546   25.704011917    3.803145885 XXX  1      hoy     H   0.200
O355    21.256807327   21.690078735    1.637883902 XXX  1      oy1     O  -0.550
O356    21.781450272   24.408649445    1.823970199 XXX  1      oy2     O  -0.550
O357    21.775753021   19.001102448    1.680283308 XXX  1      oy3     O  -0.550
O358    20.620449066   23.121953964    3.953172207 XXX  1      oy4     O  -0.867
O359    20.847587585   20.286392212    3.977468014 XXX  1      oy5     O  -0.867
O360    20.594392776   26.496688843    3.851479292 XXX  1      oy6     O  -0.792
K1      19.593936920    0.950697899    9.678297043 XXX  2      k+      K   1.000
K2      -1.051955462   18.903705597    9.697818756 XXX  2      k+      K   1.000
K4       5.191545010    8.063598633    0.410141170 XXX  2      k+      K   1.000
K7       4.143966198    9.835982323    9.590906143 XXX  2      k+      K   1.000
K8      12.996898651   21.695753098    0.319126904 XXX  2      k+      K   1.000
K9      -0.852432072    1.060301065    9.794097900 XXX  2      k+      K   1.000
K12      9.338576317    0.933893323    9.665068626 XXX  2      k+      K   1.000
K16     18.159143448    3.490968227    0.307358861 XXX  2      k+      K   1.000
K17      5.232376575   26.178863525    0.245495960 XXX  2      k+      K   1.000
K20     13.002279282   12.574167252    0.322304636 XXX  2      k+      K   1.000
K21      9.448957443   18.989324570    9.742841721 XXX  2      k+      K   1.000
K23     21.000074387   17.156641006    0.181365073 XXX  2      k+      K   1.000
K25     20.899650574    8.169287682    0.378416777 XXX  2      k+      K   1.000
K27     14.491969109    9.749693871    9.725527763 XXX  2      k+      K   1.000
K30      5.074812412   17.005975723    0.107707947 XXX  2      k+      K   1.000
K31     17.229354858   14.401640892    9.705989838 XXX  2      k+      K   1.000
end
end
