!BIOSYM archive 3
PBC=ON

!DATE Thu Mar 10 10:57:22 2005
PBC   19.9484   11.5172   26.7946   90.0000   90.0000   90.0000 (P1)
AL1      0.000000000    0.000000000    0.000000000 XXX  1      ac3     Al  1.500
CA1      3.324729443   -0.000000083    0.568849385 XXX  1      ca+m    Ca  1.400
O1       1.252259254   -1.036260009    0.994079649 XXX  1      oc21    O  -0.800
O2       0.000000000    0.000000000   20.937299728 XXX  1      o*      O  -0.820
S1      -0.000000000    0.000000000   13.397299767 XXX  1      s_m     S   1.000
O3       0.271297902    1.602618337    0.994079649 XXX  1      oc18    O  -0.800
O4       4.109305859    8.571081161   14.244731903 XXX  1      o*      O  -0.820
O5       3.463536978    8.071541786    0.994079649 XXX  1      oc16    O  -0.800
CA2      1.662364602    2.879299879   26.225749969 XXX  1      ca+m    Ca  1.400
O6       3.734834433    9.674160004   -0.994080067 XXX  1      oc20    O  -0.800
O7       0.000000000    0.000000000    5.857299328 XXX  1      o*      O  -0.820
O8       0.000000000    0.000000000   12.156709671 XXX  1      oc15    O  -0.600
O9       4.715795994    7.035281658   -0.994080067 XXX  1      oc19    O  -0.800
O10      0.912638247   -1.033668637   14.032332420 XXX  1      oc15    O  -0.600
O11      1.523557186    0.566358268   -0.994080067 XXX  1      oc17    O  -0.800
O12      0.438864261    1.307202220   14.032332420 XXX  1      oc15    O  -0.600
AL2      3.324729443   -0.000000083    8.931532860 XXX  1      ac3     Al  1.500
CA3      1.662364602    2.879299879    9.500382423 XXX  1      ca+m    Ca  1.400
O13      4.576988697   -1.036260128    9.925613403 XXX  1      oc21    O  -0.800
O14      3.324729443   -0.000000083    3.074233770 XXX  1      o*      O  -0.820
S2       8.311823845    8.637900352   22.328832626 XXX  1      s_m     S   1.000
O15      9.663326263    8.911433220   21.693801880 XXX  1      oc15    O  -0.600
O16      8.311823845    8.637900352   23.569423676 XXX  1      oc15    O  -0.600
O17      3.596027374    1.602618456    9.925613403 XXX  1      oc18    O  -0.800
O18      7.399185181    9.671568871   21.693801880 XXX  1      oc15    O  -0.600
O19      1.801172137   -0.566358328    9.925613403 XXX  1      oc16    O  -0.800
O20      7.872958660    7.330698013   21.693801880 XXX  1      oc15    O  -0.600
CA4      0.000000000    0.000000000    8.362684250 XXX  1      ca+m    Ca  1.400
O21      2.072469950    1.036260009    7.937453747 XXX  1      oc20    O  -0.800
O22      3.324729443   -0.000000083   14.788832664 XXX  1      o*      O  -0.820
O23      3.053431273   -1.602618337    7.937453747 XXX  1      oc19    O  -0.800
O24      4.848286629    0.566358387    7.937453747 XXX  1      oc17    O  -0.800
AL3      1.662364602    2.879299879   17.863065720 XXX  1      ac3     Al  1.500
CA5      0.000000000    0.000000000   18.431915283 XXX  1      ca+m    Ca  1.400
O25      2.914623737    1.843039870   18.857147217 XXX  1      oc21    O  -0.800
O26      1.662364602    2.879299879   12.005766869 XXX  1      o*      O  -0.820
O27      2.583756685    2.825498104    3.652184486 XXX  1      o*      O  -0.820
O28      1.933662653    4.481918335   18.857147217 XXX  1      oc18    O  -0.800
O29      0.138807386    2.312941790   18.857147217 XXX  1      oc16    O  -0.800
CA6      3.324729443   -0.000000083   17.294218063 XXX  1      ca+m    Ca  1.400
O30      0.410105377    3.915560007   16.868986130 XXX  1      oc20    O  -0.800
O31      1.662364602    2.879299879   23.720365524 XXX  1      o*      O  -0.820
O32      0.267978519    2.895450354    5.146234035 XXX  1      o*      O  -0.820
O33      1.391066670    1.276681542   16.868986130 XXX  1      oc19    O  -0.800
O34      3.185921907    3.445658445   16.868986130 XXX  1      oc17    O  -0.800
AL4      4.987093925    8.637900352   -0.000000000 XXX  1      ac3     Al  1.500
CA7      8.311823845    8.637900352    0.568849385 XXX  1      ca+m    Ca  1.400
O35      6.239353180    7.601640224    0.994079649 XXX  1      oc21    O  -0.800
O36      4.987093925    8.637900352   20.937299728 XXX  1      o*      O  -0.820
O37      6.374900818    8.688361168   12.691995621 XXX  1      o*      O  -0.820
O38      5.258391857   10.240518570    0.994079649 XXX  1      oc18    O  -0.800
O39     -1.523557305   -0.566358209    0.994079649 XXX  1      oc16    O  -0.800
CA8      6.649458885   -0.000000166   26.225749969 XXX  1      ca+m    Ca  1.400
O40     -1.252259493    1.036260247   -0.994080067 XXX  1      oc20    O  -0.800
O41      4.987093925    8.637900352    5.857299328 XXX  1      o*      O  -0.820
O42     -1.351502419   -0.273533493   14.032332420 XXX  1      oc15    O  -0.600
O43     -0.271298200   -1.602618217   -0.994080067 XXX  1      oc19    O  -0.800
O44      6.510651112    9.204258919   -0.994080067 XXX  1      oc17    O  -0.800
AL5      8.311823845    8.637900352    8.931532860 XXX  1      ac3     Al  1.500
CA9      6.649458885   -0.000000166    9.500382423 XXX  1      ca+m    Ca  1.400
O45      9.564082146    7.601639748    9.925613403 XXX  1      oc21    O  -0.800
O46      8.311823845    8.637900352    3.074233770 XXX  1      o*      O  -0.820
O47      2.543084860    1.344167113   21.557168961 XXX  1      o*      O  -0.820
O48      8.583121300   10.240518570    9.925613403 XXX  1      oc18    O  -0.800
O49      6.788265705    8.071541786    9.925613403 XXX  1      oc16    O  -0.800
CA10     4.987093925    8.637900352    8.362684250 XXX  1      ca+m    Ca  1.400
O50      7.059564114    9.674160004    7.937453747 XXX  1      oc20    O  -0.800
O51      8.311823845    8.637900352   14.788832664 XXX  1      o*      O  -0.820
O52      8.040524483    7.035281658    7.937453747 XXX  1      oc19    O  -0.800
O53      4.149250507   -0.668928921   22.688299179 XXX  1      o*      O  -0.820
O54      9.835380554    9.204258919    7.937453747 XXX  1      oc17    O  -0.800
AL6      6.649458885   -0.000000166   17.863065720 XXX  1      ac3     Al  1.500
CA11     4.987093925    8.637900352   18.431915283 XXX  1      ca+m    Ca  1.400
O55      7.901717663   -1.036260128   18.857147217 XXX  1      oc21    O  -0.800
O56      6.649458885   -0.000000166   12.005766869 XXX  1      o*      O  -0.820
S3       6.649458885   -0.000000166    4.465766430 XXX  1      s_m     S   1.000
O57      8.000961304    0.273533642    3.830734730 XXX  1      oc15    O  -0.600
O58      6.649458885   -0.000000166    5.706356525 XXX  1      oc15    O  -0.600
O59      6.920756340    1.602618575   18.857147217 XXX  1      oc18    O  -0.800
O60      5.736820221    1.033668518    3.830734730 XXX  1      oc15    O  -0.600
O61      5.125901699   -0.566358447   18.857147217 XXX  1      oc16    O  -0.800
O62      6.210594177   -1.307202220    3.830734730 XXX  1      oc15    O  -0.600
CA12     8.311823845    8.637900352   17.294218063 XXX  1      ca+m    Ca  1.400
O63      5.397199154    1.036260128   16.868986130 XXX  1      oc20    O  -0.800
O64      6.649458885   -0.000000166   23.720365524 XXX  1      o*      O  -0.820
O65      6.378160477   -1.602618456   16.868986130 XXX  1      oc19    O  -0.800
O66      8.173015594    0.566358566   16.868986130 XXX  1      oc17    O  -0.800
H1       0.331442386   -0.386175334   21.771612167 XXX  1      h*      H   0.410
H2      -0.704019010    0.607267141   21.284320831 XXX  1      h*      H   0.410
H3       3.555573702    7.786338806   14.441386223 XXX  1      h*      H   0.410
H4       3.465870619    9.310988426   14.281846046 XXX  1      h*      H   0.410
H5       0.126050428    0.849778891    5.377677917 XXX  1      h*      H   0.410
H6       0.311599404   -0.648394704    5.175510406 XXX  1      h*      H   0.410
H7       4.240433216    0.080520570    3.445704222 XXX  1      h*      H   0.410
H8       3.085672379   -0.894495428    3.433999300 XXX  1      h*      H   0.410
H9       2.414539099   -0.130566180   14.414495468 XXX  1      h*      H   0.410
H10      3.517223120    0.909078121   14.438649178 XXX  1      h*      H   0.410
H11      2.934417009    1.460961819   19.705444336 XXX  1      hoy     H   0.200
H12      2.477696896    2.806424618   12.565628052 XXX  1      h*      H   0.410
H13      1.083289266    2.314884901   12.581095695 XXX  1      h*      H   0.410
H14      3.086428165    1.983150482    3.580251932 XXX  1      h*      H   0.410
H15      3.278764725    3.497603178    3.502977848 XXX  1      h*      H   0.410
H16      2.147848606    4.674489498   19.746019363 XXX  1      hoy     H   0.200
H17     -0.190257311    2.484748602   19.714836121 XXX  1      hoy     H   0.200
H18      0.272985578    4.089564323   15.964114189 XXX  1      hoy     H   0.200
H19      2.175239801    3.574735880   23.231433868 XXX  1      h*      H   0.410
H20      0.806124449    2.983708143   23.230434418 XXX  1      h*      H   0.410
H21      1.109732985    2.891906023    4.623032093 XXX  1      h*      H   0.410
H22      0.239242136    3.844399214    5.405210972 XXX  1      h*      H   0.410
H23      1.136864305    1.094511628   15.988078117 XXX  1      hoy     H   0.200
H24      3.468141556    3.325892210   15.985708237 XXX  1      hoy     H   0.200
H25      5.893128395    8.829043388   21.297834396 XXX  1      h*      H   0.410
H26      4.843896389    7.723498821   21.300853729 XXX  1      h*      H   0.410
H27      6.364108086    7.727608204   12.478697777 XXX  1      h*      H   0.410
H28      5.598602772    8.714316368   13.305525780 XXX  1      h*      H   0.410
H29      5.554986477    9.220798492    5.287728310 XXX  1      h*      H   0.410
H30      4.169530869    8.708119392    5.298101425 XXX  1      h*      H   0.410
H31      7.559467793    9.214730263    3.375846386 XXX  1      h*      H   0.410
H32      8.903221130    8.726677895    3.857146502 XXX  1      h*      H   0.410
H33      1.810805917    1.750161767   21.040727615 XXX  1      h*      H   0.410
H34      2.327153683    1.726109862   22.440074921 XXX  1      h*      H   0.410
H35      7.754168034    8.725313187   13.984111786 XXX  1      h*      H   0.410
H36      9.033929825    8.053935051   14.439041138 XXX  1      h*      H   0.410
H37      3.447946310   -0.188190356   22.194473267 XXX  1      h*      H   0.410
H38      4.223962784   -1.490674376   22.153736115 XXX  1      h*      H   0.410
H39      7.958484173   -1.311654329   19.749261856 XXX  1      hoy     H   0.200
H40      6.405284405   -0.863777518   12.419502258 XXX  1      h*      H   0.410
H41      6.221311092    0.630042613   12.643951416 XXX  1      h*      H   0.410
H42      7.165890694    1.797521472   19.734138489 XXX  1      hoy     H   0.200
H43      4.891632080   -0.551536024   19.757583618 XXX  1      hoy     H   0.200
H44      5.327743530    1.298518658   15.974234581 XXX  1      hoy     H   0.200
H45      5.736927032   -0.085879833   23.341135025 XXX  1      h*      H   0.410
H46      7.089239120   -0.644317269   23.106323242 XXX  1      h*      H   0.410
H47      6.191919804   -1.798131466   15.977499008 XXX  1      hoy     H   0.200
H48      8.459483147    0.444672674   15.991605759 XXX  1      hoy     H   0.200
AL7     -0.000000084    5.758600235    0.000000000 XXX  1      ac3     Al  1.500
CA13     3.324729204    5.758599758    0.568849385 XXX  1      ca+m    Ca  1.400
O67      1.252259254    4.722340107    0.994079649 XXX  1      oc21    O  -0.800
O68     -0.000000084    5.758600235   20.937299728 XXX  1      o*      O  -0.820
S4       4.987093925    2.879299879   13.397299767 XXX  1      s_m     S   1.000
O69      0.271297812    7.361218452    0.994079649 XXX  1      oc18    O  -0.800
O70     -1.039487481    6.076493263   13.703570366 XXX  1      o*      O  -0.820
O71      3.463536978    2.312941551    0.994079649 XXX  1      oc16    O  -0.800
CA14     1.662364364    8.637899399   26.225749969 XXX  1      ca+m    Ca  1.400
O72      3.734834671    3.915560246   -0.994080067 XXX  1      oc20    O  -0.800
O73     -0.000000084    5.758600235    5.857299328 XXX  1      o*      O  -0.820
O74      4.987093925    2.879299879   12.156709671 XXX  1      oc15    O  -0.600
O75      4.715795994    1.276681662   -0.994080067 XXX  1      oc19    O  -0.800
O76      5.899732113    1.845631242   14.032332420 XXX  1      oc15    O  -0.600
O77      1.523557186    6.324958324   -0.994080067 XXX  1      oc17    O  -0.800
O78      5.425958157    4.186501980   14.032332420 XXX  1      oc15    O  -0.600
AL8      3.324729204    5.758599758    8.931532860 XXX  1      ac3     Al  1.500
CA15     1.662364364    8.637899399    9.500382423 XXX  1      ca+m    Ca  1.400
O79      4.576988220    4.722339630    9.925613403 XXX  1      oc21    O  -0.800
O80      3.324729204    5.758599758    3.074233770 XXX  1      o*      O  -0.820
S5       3.324729204    5.758599758   22.328832626 XXX  1      s_m     S   1.000
O81      4.676231384    6.032133579   21.693801880 XXX  1      oc15    O  -0.600
O82      3.324729204    5.758599758   23.569423676 XXX  1      oc15    O  -0.600
O83      3.596027136    7.361218452    9.925613403 XXX  1      oc18    O  -0.800
O84      2.412091017    6.792268753   21.693801880 XXX  1      oc15    O  -0.600
O85      1.801172137    5.192241669    9.925613403 XXX  1      oc16    O  -0.800
O86      2.885864973    4.451397896   21.693801880 XXX  1      oc15    O  -0.600
CA16    -0.000000084    5.758600235    8.362684250 XXX  1      ca+m    Ca  1.400
O87      2.072469950    6.794859886    7.937453747 XXX  1      oc20    O  -0.800
O88      3.324729204    5.758599758   14.788832664 XXX  1      o*      O  -0.820
O89      3.053431273    4.155981541    7.937453747 XXX  1      oc19    O  -0.800
O90      4.848286152    6.324958324    7.937453747 XXX  1      oc17    O  -0.800
AL9      1.662364364    8.637899399   17.863065720 XXX  1      ac3     Al  1.500
CA17    -0.000000084    5.758600235   18.431915283 XXX  1      ca+m    Ca  1.400
O91      2.914623976    7.601640224   18.857147217 XXX  1      oc21    O  -0.800
O92      1.662364364    8.637899399   12.005766869 XXX  1      o*      O  -0.820
O93      7.559605598    5.645262241    3.643589258 XXX  1      o*      O  -0.820
O94      1.933662534   10.240518570   18.857147217 XXX  1      oc18    O  -0.800
O95      0.138807178    8.071541786   18.857147217 XXX  1      oc16    O  -0.800
CA18     3.324729204    5.758599758   17.294218063 XXX  1      ca+m    Ca  1.400
O96      0.410105526    9.674160004   16.868986130 XXX  1      oc20    O  -0.800
O97      1.662364364    8.637899399   23.720365524 XXX  1      o*      O  -0.820
O98      5.257640362    5.778775215    5.144376755 XXX  1      o*      O  -0.820
O99      1.391066551    7.035281658   16.868986130 XXX  1      oc19    O  -0.800
O100     3.185921669    9.204257965   16.868986130 XXX  1      oc17    O  -0.800
AL10     4.987093925    2.879299879    0.000000000 XXX  1      ac3     Al  1.500
CA19     8.311822891    2.879299879    0.568849385 XXX  1      ca+m    Ca  1.400
O101     6.239353180    1.843039989    0.994079649 XXX  1      oc21    O  -0.800
O102     4.987093925    2.879299879   20.937299728 XXX  1      o*      O  -0.820
O103     1.496345520    5.763120174   12.702541351 XXX  1      o*      O  -0.820
O104     5.258391857    4.481918335    0.994079649 XXX  1      oc18    O  -0.800
O105    -1.523557305    5.192241669    0.994079649 XXX  1      oc16    O  -0.800
CA20     6.649458408    5.758599758   26.225749969 XXX  1      ca+m    Ca  1.400
O106    -1.252259612    6.794860363   -0.994080067 XXX  1      oc20    O  -0.800
O107     4.987093925    2.879299879    5.857299328 XXX  1      o*      O  -0.820
O108     3.635591507    2.605766535   14.032332420 XXX  1      oc15    O  -0.600
O109    -0.271298170    4.155982018   -0.994080067 XXX  1      oc19    O  -0.800
O110     6.510650635    3.445658445   -0.994080067 XXX  1      oc17    O  -0.800
AL11     8.311822891    2.879299879    8.931532860 XXX  1      ac3     Al  1.500
CA21     6.649458408    5.758599758    9.500382423 XXX  1      ca+m    Ca  1.400
O111     9.564082146    1.843039751    9.925613403 XXX  1      oc21    O  -0.800
O112     8.311822891    2.879299879    3.074233770 XXX  1      o*      O  -0.820
O113     7.517558098    3.901073694   21.480993271 XXX  1      o*      O  -0.820
O114     8.583121300    4.481918335    9.925613403 XXX  1      oc18    O  -0.800
O115     6.788265705    2.312941790    9.925613403 XXX  1      oc16    O  -0.800
CA22     4.987093925    2.879299879    8.362684250 XXX  1      ca+m    Ca  1.400
O116     7.059563637    3.915560007    7.937453747 XXX  1      oc20    O  -0.800
O117     8.311822891    2.879299879   14.788832664 XXX  1      o*      O  -0.820
O118     8.040524483    1.276681781    7.937453747 XXX  1      oc19    O  -0.800
O119     8.957584381    2.273049116   23.211763382 XXX  1      o*      O  -0.820
O120     9.835380554    3.445658207    7.937453747 XXX  1      oc17    O  -0.800
AL12     6.649458408    5.758599758   17.863065720 XXX  1      ac3     Al  1.500
CA23     4.987093925    2.879299879   18.431915283 XXX  1      ca+m    Ca  1.400
O121     7.901717663    4.722340107   18.857147217 XXX  1      oc21    O  -0.800
O122     6.649458408    5.758599758   12.005766869 XXX  1      o*      O  -0.820
S6       1.662364602    8.637899399    4.465766430 XXX  1      s_m     S   1.000
O123     3.013867140    8.911433220    3.830734730 XXX  1      oc15    O  -0.600
O124     1.662364602    8.637899399    5.706356525 XXX  1      oc15    O  -0.600
O125     6.920756340    7.361218452   18.857147217 XXX  1      oc18    O  -0.800
O126     0.749726713    9.671568871    3.830734730 XXX  1      oc15    O  -0.600
O127     5.125901222    5.192241192   18.857147217 XXX  1      oc16    O  -0.800
O128     1.223500252    7.330697536    3.830734730 XXX  1      oc15    O  -0.600
CA24     8.311822891    2.879299879   17.294218063 XXX  1      ca+m    Ca  1.400
O129     5.397199154    6.794860363   16.868986130 XXX  1      oc20    O  -0.800
O130     6.649458408    5.758599758   23.720365524 XXX  1      o*      O  -0.820
O131     6.378160477    4.155981541   16.868986130 XXX  1      oc19    O  -0.800
O132     8.173015594    6.324958324   16.868986130 XXX  1      oc17    O  -0.800
H49      0.842640817    6.058384418   21.360803604 XXX  1      h*      H   0.410
H50     -0.096626624    4.865869999   21.349824905 XXX  1      h*      H   0.410
H51     -1.383140087    6.879761696   14.159137726 XXX  1      h*      H   0.410
H52     -1.774925232    5.916671753   13.074528694 XXX  1      h*      H   0.410
H53      0.569779098    6.343312263    5.292791843 XXX  1      h*      H   0.410
H54     -0.818388760    5.831743240    5.297635078 XXX  1      h*      H   0.410
H55      3.919730663    5.861747742    3.852443457 XXX  1      h*      H   0.410
H56      2.576001883    6.345468521    3.369984388 XXX  1      h*      H   0.410
H57      4.086159706    5.184770107   14.500994682 XXX  1      h*      H   0.410
H58      2.745116711    5.648060799   13.999886513 XXX  1      h*      H   0.410
H59      2.953475714    7.298467636   19.741159439 XXX  1      hoy     H   0.200
H60      1.306013346    9.260708809   12.689152718 XXX  1      h*      H   0.410
H61      1.629839778    7.783366203   12.495334625 XXX  1      h*      H   0.410
H62      7.972801685    4.755439758    3.556823730 XXX  1      h*      H   0.410
H63      8.324923515    6.240126133    3.520351171 XXX  1      h*      H   0.410
H64      2.091560602   10.435614586   19.752925873 XXX  1      hoy     H   0.200
H65     -0.120137349    8.121489525   19.750905991 XXX  1      hoy     H   0.200
H66      0.365675956    9.978502274   15.986316681 XXX  1      hoy     H   0.200
H67      2.138949871    8.099246979   23.041065216 XXX  1      h*      H   0.410
H68      0.737433851    8.430320740   23.433458328 XXX  1      h*      H   0.410
H69      6.094307423    5.763892174    4.613155365 XXX  1      h*      H   0.410
H70      5.243267536    6.728561401    5.400592804 XXX  1      h*      H   0.410
H71      1.125325918    6.834286213   15.999905586 XXX  1      hoy     H   0.200
H72      3.542017460    9.043449402   16.025712967 XXX  1      hoy     H   0.200
H73      4.313019753    3.558254004   21.221534729 XXX  1      h*      H   0.410
H74      4.553099632    2.092144728   21.341585159 XXX  1      h*      H   0.410
H75      1.492535353    4.811924934   12.451957703 XXX  1      h*      H   0.410
H76      0.598639429    5.831803322   13.117157936 XXX  1      h*      H   0.410
H77      5.107115746    3.733301401    5.384680748 XXX  1      h*      H   0.410
H78      5.329911709    2.242018938    5.180422783 XXX  1      h*      H   0.410
H79      9.230683327    2.991246223    3.437349081 XXX  1      h*      H   0.410
H80      8.106150627    1.969889045    3.422839642 XXX  1      h*      H   0.410
H81      7.330065250    4.860142708   21.506433487 XXX  1      h*      H   0.410
H82      6.606881618    3.550867319   21.353807449 XXX  1      h*      H   0.410
H83      8.556621552    3.780056953   14.446750641 XXX  1      h*      H   0.410
H84      7.391884327    2.827320576   14.424414635 XXX  1      h*      H   0.410
H85      8.510414124    2.887961149   22.581092834 XXX  1      h*      H   0.410
H86      8.487448692    1.441941381   22.995561600 XXX  1      h*      H   0.410
H87      7.965904713    4.411273479   19.733211517 XXX  1      hoy     H   0.200
H88      6.092827320    5.164086819   12.572992325 XXX  1      h*      H   0.410
H89      7.460737705    5.725182533   12.578479767 XXX  1      h*      H   0.410
H90      7.179697037    7.551647663   19.734415054 XXX  1      hoy     H   0.200
H91      4.821608543    5.341605186   19.728010178 XXX  1      hoy     H   0.200
H92      5.342506886    7.079622269   15.984020233 XXX  1      hoy     H   0.200
H93      5.830282688    5.741291046   23.163030624 XXX  1      h*      H   0.410
H94      7.174442291    6.390221119   23.170595169 XXX  1      h*      H   0.410
H95      6.115710735    3.968654633   15.991801262 XXX  1      hoy     H   0.200
H96      8.452216148    6.217603683   15.983321190 XXX  1      hoy     H   0.200
AL13     9.974187851    5.758599758   -0.000000000 XXX  1      ac3     Al  1.500
CA25    13.298916817    5.758599758    0.568849385 XXX  1      ca+m    Ca  1.400
O133    11.226447105    4.722340107    0.994079649 XXX  1      oc21    O  -0.800
O134     9.974187851    5.758599758   20.937299728 XXX  1      o*      O  -0.820
S7       9.974187851    5.758599758   13.397299767 XXX  1      s_m     S   1.000
O135    10.245485306    7.361218452    0.994079649 XXX  1      oc18    O  -0.800
O136    14.083493233    2.812481403   14.244731903 XXX  1      o*      O  -0.820
O137    13.437725067    2.312942028    0.994079649 XXX  1      oc16    O  -0.800
CA26    11.636552811    8.637900352   26.225749969 XXX  1      ca+m    Ca  1.400
O138    13.709022522    3.915560246   -0.994080067 XXX  1      oc20    O  -0.800
O139     9.974187851    5.758599758    5.857299328 XXX  1      o*      O  -0.820
O140     9.974187851    5.758599758   12.156709671 XXX  1      oc15    O  -0.600
O141    14.689983368    1.276681423   -0.994080067 XXX  1      oc19    O  -0.800
O142    10.886825562    4.724931240   14.032332420 XXX  1      oc15    O  -0.600
O143    11.497744560    6.324958324   -0.994080067 XXX  1      oc17    O  -0.800
O144    10.413051605    7.065802097   14.032332420 XXX  1      oc15    O  -0.600
AL14    13.298916817    5.758599758    8.931532860 XXX  1      ac3     Al  1.500
CA27    11.636552811    8.637900352    9.500382423 XXX  1      ca+m    Ca  1.400
O145    14.551176071    4.722340107    9.925613403 XXX  1      oc21    O  -0.800
O146    13.298916817    5.758599758    3.074233770 XXX  1      o*      O  -0.820
S8      18.286010742    2.879299641   22.328832626 XXX  1      s_m     S   1.000
O147    19.637514114    3.152833462   21.693801880 XXX  1      oc15    O  -0.600
O148    18.286010742    2.879299641   23.569423676 XXX  1      oc15    O  -0.600
O149    13.570215225    7.361218452    9.925613403 XXX  1      oc18    O  -0.800
O150    17.373373032    3.912968636   21.693801880 XXX  1      oc15    O  -0.600
O151    11.775360107    5.192241669    9.925613403 XXX  1      oc16    O  -0.800
O152    17.847146988    1.572098255   21.693801880 XXX  1      oc15    O  -0.600
CA28     9.974187851    5.758599758    8.362684250 XXX  1      ca+m    Ca  1.400
O153    12.046657562    6.794859886    7.937453747 XXX  1      oc20    O  -0.800
O154    13.298916817    5.758599758   14.788832664 XXX  1      o*      O  -0.820
O155    13.027619362    4.155981541    7.937453747 XXX  1      oc19    O  -0.800
O156    14.822474480    6.324958324    7.937453747 XXX  1      oc17    O  -0.800
AL15    11.636552811    8.637900352   17.863065720 XXX  1      ac3     Al  1.500
CA29     9.974187851    5.758599758   18.431915283 XXX  1      ca+m    Ca  1.400
O157    12.888812065    7.601640224   18.857147217 XXX  1      oc21    O  -0.800
O158    11.636552811    8.637900352   12.005766869 XXX  1      o*      O  -0.820
O159    12.557944298    8.584097862    3.652184486 XXX  1      o*      O  -0.820
O160    11.907850266   10.240518570   18.857147217 XXX  1      oc18    O  -0.800
O161    10.112995148    8.071541786   18.857147217 XXX  1      oc16    O  -0.800
CA30    13.298916817    5.758599758   17.294218063 XXX  1      ca+m    Ca  1.400
O162    10.384293556    9.674160004   16.868986130 XXX  1      oc20    O  -0.800
O163    11.636552811    8.637900352   23.720365524 XXX  1      o*      O  -0.820
O164    10.242166519    8.654050827    5.146234035 XXX  1      o*      O  -0.820
O165    11.365254402    7.035281658   16.868986130 XXX  1      oc19    O  -0.800
O166    13.160109520    9.204258919   16.868986130 XXX  1      oc17    O  -0.800
AL16    14.961281776    2.879299641   -0.000000000 XXX  1      ac3     Al  1.500
CA31    18.286010742    2.879299641    0.568849385 XXX  1      ca+m    Ca  1.400
O167    16.213541031    1.843039989    0.994079649 XXX  1      oc21    O  -0.800
O168    14.961281776    2.879299641   20.937299728 XXX  1      o*      O  -0.820
O169    16.349088669    2.929761410   12.691995621 XXX  1      o*      O  -0.820
O170    15.232579231    4.481918335    0.994079649 XXX  1      oc18    O  -0.800
O171     8.450630188    5.192241669    0.994079649 XXX  1      oc16    O  -0.800
CA32    16.623645782    5.758599758   26.225749969 XXX  1      ca+m    Ca  1.400
O172     8.721928596    6.794860363   -0.994080067 XXX  1      oc20    O  -0.800
O173    14.961281776    2.879299641    5.857299328 XXX  1      o*      O  -0.820
O174     8.622685432    5.485066414   14.032332420 XXX  1      oc15    O  -0.600
O175     9.702889442    4.155982018   -0.994080067 XXX  1      oc19    O  -0.800
O176    16.484838486    3.445658207   -0.994080067 XXX  1      oc17    O  -0.800
AL17    18.286010742    2.879299641    8.931532860 XXX  1      ac3     Al  1.500
CA33    16.623645782    5.758599758    9.500382423 XXX  1      ca+m    Ca  1.400
O177    19.538270950    1.843039989    9.925613403 XXX  1      oc21    O  -0.800
O178    18.286010742    2.879299641    3.074233770 XXX  1      o*      O  -0.820
O179    12.517272949    7.102766991   21.557168961 XXX  1      o*      O  -0.820
O180    18.557308197    4.481918335    9.925613403 XXX  1      oc18    O  -0.800
O181    16.762453079    2.312942028    9.925613403 XXX  1      oc16    O  -0.800
CA34    14.961281776    2.879299641    8.362684250 XXX  1      ca+m    Ca  1.400
O182    17.033752441    3.915560246    7.937453747 XXX  1      oc20    O  -0.800
O183    18.286010742    2.879299641   14.788832664 XXX  1      o*      O  -0.820
O184    18.014713287    1.276681423    7.937453747 XXX  1      oc19    O  -0.800
O185    14.123438835    5.089671135   22.688299179 XXX  1      o*      O  -0.820
O186    19.809568405    3.445658207    7.937453747 XXX  1      oc17    O  -0.800
AL18    16.623645782    5.758599758   17.863065720 XXX  1      ac3     Al  1.500
CA35    14.961281776    2.879299641   18.431915283 XXX  1      ca+m    Ca  1.400
O187    17.875905991    4.722339630   18.857147217 XXX  1      oc21    O  -0.800
O188    16.623645782    5.758599758   12.005766869 XXX  1      o*      O  -0.820
S9      16.623645782    5.758599758    4.465766430 XXX  1      s_m     S   1.000
O189    17.975149155    6.032133579    3.830734730 XXX  1      oc15    O  -0.600
O190    16.623645782    5.758599758    5.706356525 XXX  1      oc15    O  -0.600
O191    16.894945145    7.361218452   18.857147217 XXX  1      oc18    O  -0.800
O192    15.711008072    6.792268753    3.830734730 XXX  1      oc15    O  -0.600
O193    15.100089073    5.192241669   18.857147217 XXX  1      oc16    O  -0.800
O194    16.184782028    4.451397896    3.830734730 XXX  1      oc15    O  -0.600
CA36    18.286010742    2.879299641   17.294218063 XXX  1      ca+m    Ca  1.400
O195    15.371386528    6.794859886   16.868986130 XXX  1      oc20    O  -0.800
O196    16.623645782    5.758599758   23.720365524 XXX  1      o*      O  -0.820
O197    16.352348328    4.155981541   16.868986130 XXX  1      oc19    O  -0.800
O198    18.147203445    6.324958324   16.868986130 XXX  1      oc17    O  -0.800
H97     10.305629730    5.372424603   21.771612167 XXX  1      h*      H   0.410
H98      9.270168304    6.365867138   21.284320831 XXX  1      h*      H   0.410
H99     13.529761314    2.027739048   14.441386223 XXX  1      h*      H   0.410
H100    13.440058708    3.552388668   14.281846046 XXX  1      h*      H   0.410
H101    10.100237846    6.608378887    5.377677917 XXX  1      h*      H   0.410
H102    10.285787582    5.110205173    5.175510406 XXX  1      h*      H   0.410
H103    14.214621544    5.839120388    3.445704222 XXX  1      h*      H   0.410
H104    13.059860229    4.864104748    3.433999300 XXX  1      h*      H   0.410
H105    12.388727188    5.628033638   14.414495468 XXX  1      h*      H   0.410
H106    13.491411209    6.667678356   14.438649178 XXX  1      h*      H   0.410
H107    12.908604622    7.219561577   19.705444336 XXX  1      hoy     H   0.200
H108    12.451884270    8.565024376   12.565628052 XXX  1      h*      H   0.410
H109    11.057476997    8.073485374   12.581095695 XXX  1      h*      H   0.410
H110    13.060615540    7.741750717    3.580251932 XXX  1      h*      H   0.410
H111    13.252952576    9.256203651    3.502977848 XXX  1      h*      H   0.410
H112    12.122035980   10.433089256   19.746019363 XXX  1      hoy     H   0.200
H113     9.783930779    8.243349075   19.714836121 XXX  1      hoy     H   0.200
H114    10.247173309    9.848164558   15.964114189 XXX  1      hoy     H   0.200
H115    12.149427414    9.333335876   23.231433868 XXX  1      h*      H   0.410
H116    10.780312538    8.742308617   23.230434418 XXX  1      h*      H   0.410
H117    11.083920479    8.650506020    4.623032093 XXX  1      h*      H   0.410
H118    10.213429451    9.602999687    5.405210972 XXX  1      h*      H   0.410
H119    11.111052513    6.853111744   15.988078117 XXX  1      hoy     H   0.200
H120    13.442329407    9.084492683   15.985708237 XXX  1      hoy     H   0.200
H121    15.867316246    3.070442677   21.297834396 XXX  1      h*      H   0.410
H122    14.818083763    1.964898586   21.300853729 XXX  1      h*      H   0.410
H123    16.338294983    1.969007969   12.478697777 XXX  1      h*      H   0.410
H124    15.572790146    2.955716610   13.305525780 XXX  1      h*      H   0.410
H125    15.529173851    3.462198734    5.287728310 XXX  1      h*      H   0.410
H126    14.143718719    2.949518681    5.298101425 XXX  1      h*      H   0.410
H127    17.533655167    3.456130505    3.375846386 XXX  1      h*      H   0.410
H128    18.877408981    2.968077183    3.857146502 XXX  1      h*      H   0.410
H129    11.784993172    7.508761883   21.040727615 XXX  1      h*      H   0.410
H130    12.301341057    7.484709740   22.440074921 XXX  1      h*      H   0.410
H131    17.728355408    2.966713428   13.984111786 XXX  1      h*      H   0.410
H132    19.008117676    2.295334339   14.439041138 XXX  1      h*      H   0.410
H133    13.422134399    5.570409775   22.194473267 XXX  1      h*      H   0.410
H134    14.198150635    4.267925739   22.153736115 XXX  1      h*      H   0.410
H135    17.932672501    4.446945667   19.749261856 XXX  1      hoy     H   0.200
H136    16.379472733    4.894822598   12.419502258 XXX  1      h*      H   0.410
H137    16.195499420    6.388642788   12.643951416 XXX  1      h*      H   0.410
H138    17.140077591    7.556121826   19.734138489 XXX  1      hoy     H   0.200
H139    14.865819931    5.207064152   19.757583618 XXX  1      hoy     H   0.200
H140    15.301931381    7.057118416   15.974234581 XXX  1      hoy     H   0.200
H141    15.711114883    5.672719955   23.341135025 XXX  1      h*      H   0.410
H142    17.063426971    5.114282608   23.106323242 XXX  1      h*      H   0.410
H143    16.166107178    3.960468292   15.977499008 XXX  1      hoy     H   0.200
H144    18.433671951    6.203272820   15.991605759 XXX  1      hoy     H   0.200
AL19     9.974187851    0.000000089   -0.000000000 XXX  1      ac3     Al  1.500
CA37    13.298916817   -0.000000156    0.568849385 XXX  1      ca+m    Ca  1.400
O199    11.226447105   -1.036260009    0.994079649 XXX  1      oc21    O  -0.800
O200     9.974187851    0.000000089   20.937299728 XXX  1      o*      O  -0.820
S10     14.961281776    8.637900352   13.397299767 XXX  1      s_m     S   1.000
O201    10.245485306    1.602618456    0.994079649 XXX  1      oc18    O  -0.800
O202     8.934700012    0.317893296   13.703570366 XXX  1      o*      O  -0.820
O203    13.437725067    8.071541786    0.994079649 XXX  1      oc16    O  -0.800
CA38    11.636551857    2.879299879   26.225749969 XXX  1      ca+m    Ca  1.400
O204    13.709022522    9.674160004   -0.994080067 XXX  1      oc20    O  -0.800
O205     9.974187851    0.000000089    5.857299328 XXX  1      o*      O  -0.820
O206    14.961281776    8.637900352   12.156709671 XXX  1      oc15    O  -0.600
O207    14.689983368    7.035281658   -0.994080067 XXX  1      oc19    O  -0.800
O208    15.873920441    7.604231358   14.032332420 XXX  1      oc15    O  -0.600
O209    11.497744560    0.566358268   -0.994080067 XXX  1      oc17    O  -0.800
O210    15.400145531    9.945102692   14.032332420 XXX  1      oc15    O  -0.600
AL20    13.298916817   -0.000000156    8.931532860 XXX  1      ac3     Al  1.500
CA39    11.636551857    2.879299879    9.500382423 XXX  1      ca+m    Ca  1.400
O211    14.551176071   -1.036260128    9.925613403 XXX  1      oc21    O  -0.800
O212    13.298916817   -0.000000156    3.074233770 XXX  1      o*      O  -0.820
S11     13.298916817   -0.000000156   22.328832626 XXX  1      s_m     S   1.000
O213    14.650419235    0.273533434   21.693801880 XXX  1      oc15    O  -0.600
O214    13.298916817   -0.000000156   23.569423676 XXX  1      oc15    O  -0.600
O215    13.570215225    1.602618217    9.925613403 XXX  1      oc18    O  -0.800
O216    12.386279106    1.033668637   21.693801880 XXX  1      oc15    O  -0.600
O217    11.775360107   -0.566358447    9.925613403 XXX  1      oc16    O  -0.800
O218    12.860053062   -1.307202220   21.693801880 XXX  1      oc15    O  -0.600
CA40     9.974187851    0.000000089    8.362684250 XXX  1      ca+m    Ca  1.400
O219    12.046657562    1.036260009    7.937453747 XXX  1      oc20    O  -0.800
O220    13.298916817   -0.000000156   14.788832664 XXX  1      o*      O  -0.820
O221    13.027619362   -1.602618456    7.937453747 XXX  1      oc19    O  -0.800
O222    14.822474480    0.566358209    7.937453747 XXX  1      oc17    O  -0.800
AL21    11.636551857    2.879299879   17.863065720 XXX  1      ac3     Al  1.500
CA41     9.974187851    0.000000089   18.431915283 XXX  1      ca+m    Ca  1.400
O223    12.888812065    1.843040109   18.857147217 XXX  1      oc21    O  -0.800
O224    11.636551857    2.879299879   12.005766869 XXX  1      o*      O  -0.820
O225    17.533792496   -0.113337979    3.643589258 XXX  1      o*      O  -0.820
O226    11.907850266    4.481918812   18.857147217 XXX  1      oc18    O  -0.800
O227    10.112995148    2.312941551   18.857147217 XXX  1      oc16    O  -0.800
CA42    13.298916817   -0.000000156   17.294218063 XXX  1      ca+m    Ca  1.400
O228    10.384293556    3.915560246   16.868986130 XXX  1      oc20    O  -0.800
O229    11.636551857    2.879299879   23.720365524 XXX  1      o*      O  -0.820
O230    15.231827736    0.020175137    5.144376755 XXX  1      o*      O  -0.820
O231    11.365254402    1.276681423   16.868986130 XXX  1      oc19    O  -0.800
O232    13.160109520    3.445657969   16.868986130 XXX  1      oc17    O  -0.800
AL22    14.961281776    8.637900352   -0.000000000 XXX  1      ac3     Al  1.500
CA43    18.286010742    8.637900352    0.568849385 XXX  1      ca+m    Ca  1.400
O233    16.213541031    7.601640224    0.994079649 XXX  1      oc21    O  -0.800
O234    14.961281776    8.637900352   20.937299728 XXX  1      o*      O  -0.820
O235    11.470533371    0.004519981   12.702541351 XXX  1      o*      O  -0.820
O236    15.232579231   10.240518570    0.994079649 XXX  1      oc18    O  -0.800
O237     8.450630188   -0.566358149    0.994079649 XXX  1      oc16    O  -0.800
CA44    16.623645782   -0.000000283   26.225749969 XXX  1      ca+m    Ca  1.400
O238     8.721928596    1.036260366   -0.994080067 XXX  1      oc20    O  -0.800
O239    14.961281776    8.637900352    5.857299328 XXX  1      o*      O  -0.820
O240    13.609779358    8.364366531   14.032332420 XXX  1      oc15    O  -0.600
O241     9.702889442   -1.602618217   -0.994080067 XXX  1      oc19    O  -0.800
O242    16.484838486    9.204258919   -0.994080067 XXX  1      oc17    O  -0.800
AL23    18.286010742    8.637900352    8.931532860 XXX  1      ac3     Al  1.500
CA45    16.623645782   -0.000000283    9.500382423 XXX  1      ca+m    Ca  1.400
O243    19.538270950    7.601639748    9.925613403 XXX  1      oc21    O  -0.800
O244    18.286010742    8.637900352    3.074233770 XXX  1      o*      O  -0.820
O245    17.491744995   -1.857526183   21.480993271 XXX  1      o*      O  -0.820
O246    18.557308197   10.240518570    9.925613403 XXX  1      oc18    O  -0.800
O247    16.762453079    8.071541786    9.925613403 XXX  1      oc16    O  -0.800
CA46    14.961281776    8.637900352    8.362684250 XXX  1      ca+m    Ca  1.400
O248    17.033752441    9.674160004    7.937453747 XXX  1      oc20    O  -0.800
O249    18.286010742    8.637900352   14.788832664 XXX  1      o*      O  -0.820
O250    18.014713287    7.035281658    7.937453747 XXX  1      oc19    O  -0.800
O251    18.931772232    8.031649590   23.211763382 XXX  1      o*      O  -0.820
O252    19.809568405    9.204257965    7.937453747 XXX  1      oc17    O  -0.800
AL24    16.623645782   -0.000000283   17.863065720 XXX  1      ac3     Al  1.500
CA47    14.961281776    8.637900352   18.431915283 XXX  1      ca+m    Ca  1.400
O253    17.875905991   -1.036259890   18.857147217 XXX  1      oc21    O  -0.800
O254    16.623645782   -0.000000283   12.005766869 XXX  1      o*      O  -0.820
S12     11.636552811    2.879299641    4.465766430 XXX  1      s_m     S   1.000
O255    12.988055229    3.152833700    3.830734730 XXX  1      oc15    O  -0.600
O256    11.636552811    2.879299641    5.706356525 XXX  1      oc15    O  -0.600
O257    16.894945145    1.602618694   18.857147217 XXX  1      oc18    O  -0.800
O258    10.723914146    3.912968636    3.830734730 XXX  1      oc15    O  -0.600
O259    15.100089073   -0.566358626   18.857147217 XXX  1      oc16    O  -0.800
O260    11.197688103    1.572097659    3.830734730 XXX  1      oc15    O  -0.600
CA48    18.286010742    8.637900352   17.294218063 XXX  1      ca+m    Ca  1.400
O261    15.371387482    1.036260366   16.868986130 XXX  1      oc20    O  -0.800
O262    16.623645782   -0.000000283   23.720365524 XXX  1      o*      O  -0.820
O263    16.352348328   -1.602618575   16.868986130 XXX  1      oc19    O  -0.800
O264    18.147203445    0.566358209   16.868986130 XXX  1      oc17    O  -0.800
H145    10.816828728    0.299784184   21.360803604 XXX  1      h*      H   0.410
H146     9.877561569   -0.892729998   21.349824905 XXX  1      h*      H   0.410
H147     8.591047287    1.121161819   14.159137726 XXX  1      h*      H   0.410
H148     8.199262619    0.158071861   13.074528694 XXX  1      h*      H   0.410
H149    10.543967247    0.584712088    5.292791843 XXX  1      h*      H   0.410
H150     9.155798912    0.073143288    5.297635078 XXX  1      h*      H   0.410
H151    13.893918991    0.103147686    3.852443457 XXX  1      h*      H   0.410
H152    12.550189972    0.586868703    3.369984388 XXX  1      h*      H   0.410
H153    14.060347557   -0.573829770   14.500994682 XXX  1      h*      H   0.410
H154    12.719304085   -0.110538974   13.999886513 XXX  1      h*      H   0.410
H155    12.927663803    1.539867640   19.741159439 XXX  1      hoy     H   0.200
H156    11.280200958    3.502108574   12.689152718 XXX  1      h*      H   0.410
H157    11.604027748    2.024766445   12.495334625 XXX  1      h*      H   0.410
H158    17.946989059   -1.003160238    3.556823730 XXX  1      h*      H   0.410
H159    18.299110413    0.481526107    3.520351171 XXX  1      h*      H   0.410
H160    12.065748215    4.677014351   19.752925873 XXX  1      hoy     H   0.200
H161     9.854050636    2.362889528   19.750905991 XXX  1      hoy     H   0.200
H162    10.339863777    4.219902039   15.986316681 XXX  1      hoy     H   0.200
H163    12.113137245    2.340647221   23.041065216 XXX  1      h*      H   0.410
H164    10.711621284    2.671720505   23.433458328 XXX  1      h*      H   0.410
H165    16.068494797    0.005292137    4.613155365 XXX  1      h*      H   0.410
H166    15.217455864    0.969961524    5.400592804 XXX  1      h*      H   0.410
H167    11.099514008    1.075686336   15.999905586 XXX  1      hoy     H   0.200
H168    13.516204834    3.284848928   16.025712967 XXX  1      hoy     H   0.200
H169    14.287207603    9.316854477   21.221534729 XXX  1      h*      H   0.410
H170    14.527287483    7.850744724   21.341585159 XXX  1      h*      H   0.410
H171    11.466723442   -0.946674943   12.451957703 XXX  1      h*      H   0.410
H172    10.572827339    0.073203437   13.117157936 XXX  1      h*      H   0.410
H173    15.081303596    9.491901398    5.384680748 XXX  1      h*      H   0.410
H174    15.304100037    8.000618935    5.180422783 XXX  1      h*      H   0.410
H175    19.204870224    8.749846458    3.437349081 XXX  1      h*      H   0.410
H176    18.080339432    7.728488922    3.422839642 XXX  1      h*      H   0.410
H177    17.304252625   -0.898457408   21.506433487 XXX  1      h*      H   0.410
H178    16.581069946   -2.207732677   21.353807449 XXX  1      h*      H   0.410
H179    18.530809402    9.538657188   14.446750641 XXX  1      h*      H   0.410
H180    17.366071701    8.585920334   14.424414635 XXX  1      h*      H   0.410
H181    18.484601974    8.646561623   22.581092834 XXX  1      h*      H   0.410
H182    18.461635590    7.200541496   22.995561600 XXX  1      h*      H   0.410
H183    17.940092087   -1.347326279   19.733211517 XXX  1      hoy     H   0.200
H184    16.067014694   -0.594513416   12.572992325 XXX  1      h*      H   0.410
H185    17.434925079   -0.033417579   12.578479767 XXX  1      h*      H   0.410
H186    17.153884888    1.793047905   19.734415054 XXX  1      hoy     H   0.200
H187    14.795796394   -0.416994959   19.728010178 XXX  1      hoy     H   0.200
H188    15.316694260    1.321022391   15.984020233 XXX  1      hoy     H   0.200
H189    15.804470062   -0.017308988   23.163030624 XXX  1      h*      H   0.410
H190    17.148630142    0.631621063   23.170595169 XXX  1      h*      H   0.410
H191    16.089899063   -1.789945483   15.991801262 XXX  1      hoy     H   0.200
H192    18.426404953    0.459003776   15.983321190 XXX  1      hoy     H   0.200
H1       4.625258923   -1.334751248   10.805373192 XXX  2      hoy     H   0.200
H2       3.911349297    1.814079285   10.778832436 XXX  2      hoy     H   0.200
H3       1.478160262   -0.430076092   10.791535378 XXX  2      hoy     H   0.200
H4       2.007771254    1.306593657    7.049403191 XXX  2      hoy     H   0.200
H5       2.728241682   -1.811401844    7.087100029 XXX  2      hoy     H   0.200
H6       5.180269241    0.417435408    7.076922417 XXX  2      hoy     H   0.200
H7       9.588111877    7.211121082   10.773819923 XXX  2      hoy     H   0.200
H8       8.792237282   10.436251640   10.810944557 XXX  2      hoy     H   0.200
H9       6.480055332    8.234498024   10.788393974 XXX  2      hoy     H   0.200
H10      7.034575462   10.062044144    7.087518692 XXX  2      hoy     H   0.200
H11      7.898518085    6.835407734    7.039515972 XXX  2      hoy     H   0.200
H12     10.154664040    9.023036003    7.082241535 XXX  2      hoy     H   0.200
H13      4.602932930    4.336418629   10.775693893 XXX  2      hoy     H   0.200
H14      3.746839523    7.559863091   10.822402000 XXX  2      hoy     H   0.200
H15      1.491664052    5.365292549   10.785484314 XXX  2      hoy     H   0.200
H16      2.052215099    7.191265583    7.091700554 XXX  2      hoy     H   0.200
H17      2.915544987    3.955826044    7.038558006 XXX  2      hoy     H   0.200
H18      5.158447266    6.157219410    7.076399803 XXX  2      hoy     H   0.200
H19      9.688351631    1.655452967   10.828619957 XXX  2      hoy     H   0.200
H20      8.897974014    4.692932129   10.779483795 XXX  2      hoy     H   0.200
H21      6.453245640    2.467478752   10.783260345 XXX  2      hoy     H   0.200
H22      6.990991592    4.181641102    7.048074722 XXX  2      hoy     H   0.200
H23      7.723018646    1.067533135    7.084481239 XXX  2      hoy     H   0.200
H24     10.169938087    3.293809652    7.078458786 XXX  2      hoy     H   0.200
H25      1.305220366   -1.329068184    1.880282044 XXX  2      hoy     H   0.200
H26      0.524206340    1.802076817    1.867838383 XXX  2      hoy     H   0.200
H27     -1.877662182   -0.388559371    1.834538460 XXX  2      hoy     H   0.200
H28     -1.281428218    1.417831659   -1.845553994 XXX  2      hoy     H   0.200
H29     -0.515214920   -1.809511900   -1.869457960 XXX  2      hoy     H   0.200
H30      1.816275835    0.455515921   -1.870219350 XXX  2      hoy     H   0.200
H31      6.320723534    7.352590084    1.887859344 XXX  2      hoy     H   0.200
H32      5.504937649   10.425296783    1.876187801 XXX  2      hoy     H   0.200
H33      3.177714825    8.193448067    1.875621200 XXX  2      hoy     H   0.200
H34      3.649495602    9.913819313   -1.891655803 XXX  2      hoy     H   0.200
H35      4.394908905    6.827243805   -1.845741868 XXX  2      hoy     H   0.200
H36      6.852403164    9.034930229   -1.846541643 XXX  2      hoy     H   0.200
H37      1.329323411    4.469114780    1.886920214 XXX  2      hoy     H   0.200
H38      0.519305527    7.545098305    1.875876546 XXX  2      hoy     H   0.200
H39     -1.811841488    5.315577507    1.874745488 XXX  2      hoy     H   0.200
H40     -1.270350099    7.159007072   -1.852137446 XXX  2      hoy     H   0.200
H41     -0.626632392    3.945649624   -1.831400871 XXX  2      hoy     H   0.200
H42      1.862000346    6.171878815   -1.851183295 XXX  2      hoy     H   0.200
H43      6.292726994    1.550051451    1.880333066 XXX  2      hoy     H   0.200
H44      5.523474693    4.682356834    1.863836169 XXX  2      hoy     H   0.200
H45      3.101140976    2.498999357    1.829649091 XXX  2      hoy     H   0.200
H46      3.723299265    4.326182365   -1.833269000 XXX  2      hoy     H   0.200
H47      4.520565510    1.076617718   -1.881602287 XXX  2      hoy     H   0.200
H48      6.783377171    3.378295660   -1.882503152 XXX  2      hoy     H   0.200
H49     14.599447250    4.423848629   10.805373192 XXX  2      hoy     H   0.200
H50     13.885537148    7.572679520   10.778832436 XXX  2      hoy     H   0.200
H51     11.452347755    5.328524113   10.791535378 XXX  2      hoy     H   0.200
H52     11.981959343    7.065193653    7.049403191 XXX  2      hoy     H   0.200
H53     12.702429771    3.947197914    7.087100029 XXX  2      hoy     H   0.200
H54     15.154457092    6.176035404    7.076922417 XXX  2      hoy     H   0.200
H55     19.562299728    1.452520847   10.773819923 XXX  2      hoy     H   0.200
H56     18.766426086    4.677651405   10.810944557 XXX  2      hoy     H   0.200
H57     16.454242706    2.475898266   10.788393974 XXX  2      hoy     H   0.200
H58     17.008762360    4.303444386    7.087518692 XXX  2      hoy     H   0.200
H59     17.872705460    1.076807499    7.039515972 XXX  2      hoy     H   0.200
H60     20.128850937    3.264436245    7.082241535 XXX  2      hoy     H   0.200
H61     14.577120781   -1.422181368   10.775693893 XXX  2      hoy     H   0.200
H62     13.721027374    1.801262856   10.822402000 XXX  2      hoy     H   0.200
H63     11.465851784   -0.393307537   10.785484314 XXX  2      hoy     H   0.200
H64     12.026402473    1.432665706    7.091700554 XXX  2      hoy     H   0.200
H65     12.889732361   -1.802773833    7.038558006 XXX  2      hoy     H   0.200
H66     15.132635117    0.398619264    7.076399803 XXX  2      hoy     H   0.200
H67     19.662538528    7.414052963   10.828619957 XXX  2      hoy     H   0.200
H68     18.872161865   10.451532364   10.779483795 XXX  2      hoy     H   0.200
H69     16.427433014    8.226078987   10.783260345 XXX  2      hoy     H   0.200
H70     16.965179443    9.940240860    7.048074722 XXX  2      hoy     H   0.200
H71     17.697206497    6.826133251    7.084481239 XXX  2      hoy     H   0.200
H72     20.144126892    9.052410126    7.078458786 XXX  2      hoy     H   0.200
H73     11.279408455    4.429531574    1.880282044 XXX  2      hoy     H   0.200
H74     10.498394012    7.560677052    1.867838383 XXX  2      hoy     H   0.200
H75      8.096525192    5.370040417    1.834538460 XXX  2      hoy     H   0.200
H76      8.692759514    7.176431656   -1.845553994 XXX  2      hoy     H   0.200
H77      9.458972931    3.949088097   -1.869457960 XXX  2      hoy     H   0.200
H78     11.790463448    6.214116096   -1.870219350 XXX  2      hoy     H   0.200
H79     16.294910431    1.593989849    1.887859344 XXX  2      hoy     H   0.200
H80     15.479125977    4.666696072    1.876187801 XXX  2      hoy     H   0.200
H81     13.151903152    2.434848309    1.875621200 XXX  2      hoy     H   0.200
H82     13.623682976    4.155219555   -1.891655803 XXX  2      hoy     H   0.200
H83     14.369096756    1.068644047   -1.845741868 XXX  2      hoy     H   0.200
H84     16.826591492    3.276329517   -1.846541643 XXX  2      hoy     H   0.200
H85     11.303511620   -1.289485455    1.886920214 XXX  2      hoy     H   0.200
H86     10.493493080    1.786498308    1.875876546 XXX  2      hoy     H   0.200
H87      8.162345886   -0.443022341    1.874745488 XXX  2      hoy     H   0.200
H88      8.703837395    1.400406957   -1.852137446 XXX  2      hoy     H   0.200
H89      9.347555161   -1.812950373   -1.831400871 XXX  2      hoy     H   0.200
H90     11.836188316    0.413278580   -1.851183295 XXX  2      hoy     H   0.200
H91     16.266914368    7.308651447    1.880333066 XXX  2      hoy     H   0.200
H92     15.497662544   10.440957069    1.863836169 XXX  2      hoy     H   0.200
H93     13.075328827    8.257599831    1.829649091 XXX  2      hoy     H   0.200
H94     13.697486877   10.084782600   -1.833269000 XXX  2      hoy     H   0.200
H95     14.494752884    6.835217476   -1.881602287 XXX  2      hoy     H   0.200
H96     16.757564545    9.136896133   -1.882503152 XXX  2      hoy     H   0.200
end
end
