!BIOSYM archive 3
PBC=ON
Materials Studio Generated CAR File
!DATE Tue Apr 15 10:07:51 2014
PBC   34.9787   32.6214  133.3161   90.0000   90.0000   90.0000 (P1)
O1       6.111971174    2.963011581    3.647845731 XXXX 1      oap1    O  -0.800
O2       6.996304163    7.488586648    3.915616024 XXXX 1      oap1    O  -0.800
O3       3.605825769    6.260979057    1.877808375 XXXX 1      oap1    O  -0.800
O4       6.732445929    5.428237995    8.237482554 XXXX 1      oap1    O  -0.800
O6       9.583973955    2.091403500   10.594615955 XXXX 1      oap1    O  -0.800
O7       5.356448936    5.718512905   10.261136977 XXXX 1      oap1    O  -0.800
O9       7.865235195    2.531110169   12.440744474 XXXX 1      oap1    O  -0.800
O10      4.751011534    2.936386612    5.789947510 XXXX 1      oap1    O  -0.800
O11      6.037147166    7.591585919    6.197556045 XXXX 1      oap1    O  -0.800
O12      2.302085168    5.955118001    3.962723112 XXXX 1      oap1    O  -0.800
Ca1      9.967917797    2.730018855    5.582310204 XXXX 1      ca+h    Ca  1.500
Ca2      3.874236704    5.481639411    5.741355444 XXXX 1      ca+h    Ca  1.500
Ca3      1.956245179    5.662635321    8.589794241 XXXX 1      ca+h    Ca  1.500
Ca4      7.783295938    2.861443020    8.326505799 XXXX 1      ca+h    Ca  1.500
Ca5      3.995386863    1.655180023    3.360131783 XXXX 1      ca+h    Ca  1.500
P1       6.065614012    3.332816816    5.140899565 XXXX 1      pap     P   1.000
O13      6.143003688    4.874354298    5.219361064 XXXX 1      oap1    O  -0.800
O14      7.209528219    2.710464196    5.899717721 XXXX 1      oap1    O  -0.800
Ca6      7.981522382    6.218697565    6.477730861 XXXX 1      ca+h    Ca  1.500
P2       5.929909498    8.093173257    4.770520337 XXXX 1      pap     P   1.000
O15      4.572047940    7.641798905    4.254004047 XXXX 1      oap1    O  -0.800
O16      6.072240879    9.625282589    4.836501068 XXXX 1      oap1    O  -0.800
Ca7      2.526292043    8.281357180    2.778839321 XXXX 1      ca+h    Ca  1.500
P3       2.798596900    5.250937383    2.687053797 XXXX 1      pap     P   1.000
O17      3.712907482    4.075044144    3.163928934 XXXX 1      oap1    O  -0.800
O18      1.557072598    4.679573508    1.893303710 XXXX 1      oap1    O  -0.800
Ca8      7.673042068    6.312985462   10.518352418 XXXX 1      ca+h    Ca  1.500
P4       5.413454035    5.031198622    8.894529660 XXXX 1      pap     P   1.000
O19      5.282356286    3.562755318    9.063391990 XXXX 1      oap1    O  -0.800
O20      4.234746563    5.592773752    8.018569858 XXXX 1      oap1    O  -0.800
Ca9      3.715689466    2.251337990    7.724390076 XXXX 1      ca+h    Ca  1.500
P6       8.847646326    3.137256566   11.457557918 XXXX 1      pap     P   1.000
O23      7.915376693    3.953847084   10.544471459 XXXX 1      oap1    O  -0.800
O24      9.895273091    4.100431393   12.117678208 XXXX 1      oap1    O  -0.800
end
O1       2.220427371    3.137232396    9.344746029 XXXX 1      oap1    O  -0.800
O2       2.947470597    7.524944829    9.792961051 XXXX 1      oap1    O  -0.800
O4       2.582899305    5.273048311   13.941660282 XXXX 1      oap1    O  -0.800
O6       5.448644019    2.217665130   16.246234970 XXXX 1      oap1    O  -0.800
O7       1.071284831    5.762678065   15.836439674 XXXX 1      oap1    O  -0.800
O9       3.872508341    2.328743736   18.093976800 XXXX 1      oap1    O  -0.800
O10      0.861258704    2.912452663   11.379707384 XXXX 1      oap1    O  -0.800
O11      1.823006124    7.702646940   11.935671720 XXXX 1      oap1    O  -0.800
Ca1      5.765571404    2.851289955   11.251284436 XXXX 1      ca+h    Ca  1.500
Ca4      3.548246631    2.852555609   14.038058701 XXXX 1      ca+h    Ca  1.500
P1       2.201568261    3.440170536   10.844792750 XXXX 1      pap     P   1.000
O13      2.219315933    4.991965265   10.945384394 XXXX 1      oap1    O  -0.800
O14      3.385855071    2.756155551   11.579288510 XXXX 1      oap1    O  -0.800
Ca6      3.788896982    6.322468814   12.208302432 XXXX 1      ca+h    Ca  1.500
P2       1.753342885    8.097158112   10.466160361 XXXX 1      pap     P   1.000
O15      0.507727549    7.428361345    9.803757818 XXXX 1      oap1    O  -0.800
O16      1.700942005    9.693168524   10.305525202 XXXX 1      oap1    O  -0.800
Ca8      3.447902558    6.273272111   16.168689374 XXXX 1      ca+h    Ca  1.500
P4       1.204050176    4.983981431   14.494078330 XXXX 1      pap     P   1.000
O19      1.222388056    3.457611355   14.615742068 XXXX 1      oap1    O  -0.800
O20      0.177986758    5.439214456   13.478248907 XXXX 1      oap1    O  -0.800
P6       4.697811096    3.193628768   17.149820148 XXXX 1      pap     P   1.000
O23      3.649354755    3.976144316   16.338962709 XXXX 1      oap1    O  -0.800
O24      5.674702741    4.098339757   17.921925699 XXXX 1      oap1    O  -0.800
end
O1       2.858340171   10.266640399    1.419699759 XXXX 1      oap1    O  -0.800
O2       3.391495046   15.421913160    1.667083907 XXXX 1      oap1    O  -0.800
O4       3.050237483   13.866898378    5.775181457 XXXX 1      oap1    O  -0.800
O5       2.172427235    8.987472370    5.091079069 XXXX 1      oap1    O  -0.800
O6       5.952675485   10.421634275    7.614926601 XXXX 1      oap1    O  -0.800
O7       1.562204790   13.503253729    7.757409724 XXXX 1      oap1    O  -0.800
O8       0.640999193    9.002948374    7.032039365 XXXX 1      oap1    O  -0.800
O9       4.536735975   10.412434205    9.615310147 XXXX 1      oap1    O  -0.800
O10      1.852729322   12.001087284    3.114648871 XXXX 1      oap1    O  -0.800
O11      1.864294063   15.465436774    3.608757759 XXXX 1      oap1    O  -0.800
Ca1      6.175893093   11.051245673    2.952320176 XXXX 1      ca+h    Ca  1.500
Ca4      4.244544920   10.796150708    5.789788949 XXXX 1      ca+h    Ca  1.500
P1       3.121502871   11.317212771    2.527386754 XXXX 1      pap     P   1.000
O13      4.293748406   12.262733702    2.161266363 XXXX 1      oap1    O  -0.800
O14      3.772363615   10.378335380    3.615635815 XXXX 1      oap1    O  -0.800
Ca6      4.040113263   14.241485886    3.624064216 XXXX 1      ca+h    Ca  1.500
P2       2.070310323   16.073686553    2.190955837 XXXX 1      pap     P   1.000
O15      0.804458992   15.727500280    1.397082639 XXXX 1      oap1    O  -0.800
O16      2.249963541   17.633753537    2.327226969 XXXX 1      oap1    O  -0.800
Ca8      4.027454320   14.591243031    7.903337526 XXXX 1      ca+h    Ca  1.500
P4       1.705507529   13.232355816    6.216100202 XXXX 1      pap     P   1.000
O19      1.967255821   11.712552968    6.151036132 XXXX 1      oap1    O  -0.800
O20      0.494046242   13.684766573    5.356503468 XXXX 1      oap1    O  -0.800
P5       2.005149729    8.538865942    6.510798167 XXXX 1      pap     P   1.000
O21      3.140337150    9.249678050    7.353025667 XXXX 1      oap1    O  -0.800
O22      2.135828500    7.013964966    6.592214805 XXXX 1      oap1    O  -0.800
Ca10     4.891895610    8.114967845    8.368098482 XXXX 1      ca+h    Ca  1.500
P6       5.268356548   11.351617286    8.690728804 XXXX 1      pap     P   1.000
O23      4.234545542   12.254608128    7.952057837 XXXX 1      oap1    O  -0.800
O24      6.367427150   12.142099198    9.430065617 XXXX 1      oap1    O  -0.800
O26      0.081031480    8.603423351    3.470665584 XXXX 1      oap2    O  -1.100
H2       0.046270736    8.937015699    2.574594104 XXXX 1      hop     H   0.200
end
O1      18.103027155    2.786461994    3.937728158 XXXX 1      oap1    O  -0.800
O2      19.051511715    7.399289808    4.344332099 XXXX 1      oap1    O  -0.800
O3      15.661278494    6.076658854    1.877872819 XXXX 1      oap1    O  -0.800
O4      18.586928589    5.532773832    8.482493879 XXXX 1      oap1    O  -0.800
O6      21.279972225    2.500996167   10.423314407 XXXX 1      oap1    O  -0.800
O7      17.028549893    5.415856077   10.463892498 XXXX 1      oap1    O  -0.800
O9      19.878834724    2.256237089   12.514838077 XXXX 1      oap1    O  -0.800
O10     16.572205996    2.723663072    5.897456021 XXXX 1      oap1    O  -0.800
O11     17.505520372    7.392637265    6.348136179 XXXX 1      oap1    O  -0.800
O12     14.096026466    6.148681654    3.795905370 XXXX 1      oap1    O  -0.800
Ca1     21.513440239    2.779717659    5.750873685 XXXX 1      ca+h    Ca  1.500
Ca2     15.639674761    5.690301526    5.771673660 XXXX 1      ca+h    Ca  1.500
Ca3     13.749462045    5.587947254    8.500579254 XXXX 1      ca+h    Ca  1.500
Ca4     19.591154051    2.950795173    8.700435586 XXXX 1      ca+h    Ca  1.500
Ca5     15.969461349    1.817409128    3.651186935 XXXX 1      ca+h    Ca  1.500
P1      17.930081715    3.275640439    5.363879030 XXXX 1      pap     P   1.000
O13     18.001902278    4.871226987    5.408614019 XXXX 1      oap1    O  -0.800
O14     19.035833901    2.723435177    6.207158826 XXXX 1      oap1    O  -0.800
Ca6     19.745283092    6.257754758    6.581994526 XXXX 1      ca+h    Ca  1.500
P2      17.711311491    7.904919765    4.895264375 XXXX 1      pap     P   1.000
O15     16.540229511    7.463085696    4.034646402 XXXX 1      oap1    O  -0.800
O16     17.786903041    9.442865148    5.083800433 XXXX 1      oap1    O  -0.800
Ca7     14.775332058    8.202339861    2.744659728 XXXX 1      ca+h    Ca  1.500
P3      14.701475066    5.198013667    2.765369619 XXXX 1      pap     P   1.000
O17     15.639026521    4.316096251    3.553138557 XXXX 1      oap1    O  -0.800
O18     13.690166952    4.411943869    1.899108446 XXXX 1      oap1    O  -0.800
Ca8     19.438195806    6.595782894   10.504035113 XXXX 1      ca+h    Ca  1.500
P4      17.242507403    5.042102278    8.956953135 XXXX 1      pap     P   1.000
O19     17.255283514    3.558304127    8.889885992 XXXX 1      oap1    O  -0.800
O20     16.060029403    5.582283839    8.044978595 XXXX 1      oap1    O  -0.800
Ca9     15.344702293    2.192061805    7.792936394 XXXX 1      ca+h    Ca  1.500
P6      20.573185684    3.264888525   11.578226446 XXXX 1      pap     P   1.000
O23     19.497084873    4.091352659   10.913636404 XXXX 1      oap1    O  -0.800
O24     21.564818891    4.136891449   12.404903827 XXXX 1      oap1    O  -0.800
end
O1      13.796473999    2.944108180    9.443573914 XXXX 1      oap1    O  -0.800
O2      14.886799630    7.487924293   10.059123265 XXXX 1      oap1    O  -0.800
O3      11.099219029    6.029583766    6.954547363 XXXX 1      oap1    O  -0.800
O4      14.260147258    5.528414643   13.995633727 XXXX 1      oap1    O  -0.800
O6      17.171119695    2.084843355   16.386102389 XXXX 1      oap1    O  -0.800
O7      12.818108594    5.433003533   16.034049900 XXXX 1      oap1    O  -0.800
O9      15.359701274    2.409672205   18.082376956 XXXX 1      oap1    O  -0.800
O10     12.264552619    2.987936300   11.379543456 XXXX 1      oap1    O  -0.800
O11     13.180515385    7.550366529   11.884940701 XXXX 1      oap1    O  -0.800
O12      9.672276491    6.283965329    9.004206917 XXXX 1      oap1    O  -0.800
Ca1     17.346324969    2.990109167   11.287893649 XXXX 1      ca+h    Ca  1.500
Ca2     11.513465176    5.596030268   11.195033528 XXXX 1      ca+h    Ca  1.500
Ca3      9.352539830    5.508608391   14.034440098 XXXX 1      ca+h    Ca  1.500
Ca4     15.186965247    2.989480139   14.069589683 XXXX 1      ca+h    Ca  1.500
Ca5     11.453100131    2.139444873    9.164241484 XXXX 1      ca+h    Ca  1.500
P1      13.733019391    3.405237971   10.915256799 XXXX 1      pap     P   1.000
O13     13.869458164    4.942698524   10.908576223 XXXX 1      oap1    O  -0.800
O14     14.884394901    2.667985139   11.703599960 XXXX 1      oap1    O  -0.800
Ca6     15.494731806    6.293515087   12.164989692 XXXX 1      ca+h    Ca  1.500
P2      13.496513660    8.007480696   10.475054407 XXXX 1      pap     P   1.000
O15     12.503511244    7.270179902    9.558327148 XXXX 1      oap1    O  -0.800
O16     13.357325457    9.523903368   10.353605246 XXXX 1      oap1    O  -0.800
Ca7     10.699588490    8.343030293    8.347408585 XXXX 1      ca+h    Ca  1.500
P3      10.421888580    5.357127004    8.115255970 XXXX 1      pap     P   1.000
O17     11.472556769    4.601974697    8.916017807 XXXX 1      oap1    O  -0.800
O18      9.387098910    4.364858561    7.539643232 XXXX 1      oap1    O  -0.800
Ca8     15.357355092    6.302363930   16.292114568 XXXX 1      ca+h    Ca  1.500
P4      12.925508841    5.066620361   14.562377062 XXXX 1      pap     P   1.000
O19     12.979839298    3.591279032   14.588320562 XXXX 1      oap1    O  -0.800
O20     11.808189710    5.581080288   13.630887681 XXXX 1      oap1    O  -0.800
Ca9     11.276741057    2.329509215   13.342932498 XXXX 1      ca+h    Ca  1.500
P6      16.374232141    3.161438991   17.149700417 XXXX 1      pap     P   1.000
O23     15.469162992    3.953909656   16.143879899 XXXX 1      oap1    O  -0.800
O24     17.344113396    4.075507595   18.017566819 XXXX 1      oap1    O  -0.800
end
O1       9.738486351    3.001071641   14.989182294 XXXX 1      oap1    O  -0.800
O2      10.635110691    7.793545685   15.786903301 XXXX 1      oap1    O  -0.800
O3       6.958390540    6.048823698   12.857260749 XXXX 1      oap1    O  -0.800
O4      10.236063413    5.654101865   19.723275032 XXXX 1      oap1    O  -0.800
O6      12.971070585    2.094162133   21.966697948 XXXX 1      oap1    O  -0.800
O7       8.907552253    5.388632901   21.795937621 XXXX 1      oap1    O  -0.800
O9      11.236897972    2.443604754   23.775794607 XXXX 1      oap1    O  -0.800
O10      8.430706727    3.022993552   17.146094911 XXXX 1      oap1    O  -0.800
O11      8.753237918    7.651504527   17.473703518 XXXX 1      oap1    O  -0.800
O12      5.413091863    6.050547823   14.833632603 XXXX 1      oap1    O  -0.800
Ca1     13.270984623    2.869844298   16.996225184 XXXX 1      ca+h    Ca  1.500
Ca2      7.384099692    5.748215319   16.999839681 XXXX 1      ca+h    Ca  1.500
Ca3      5.162858834    5.707817599   19.726330696 XXXX 1      ca+h    Ca  1.500
Ca4     11.147989386    3.001227513   19.626178924 XXXX 1      ca+h    Ca  1.500
Ca5      7.349454483    2.095736879   14.762050329 XXXX 1      ca+h    Ca  1.500
P1       9.779452517    3.418688719   16.504367473 XXXX 1      pap     P   1.000
O13      9.893677034    4.905726343   16.532009112 XXXX 1      oap1    O  -0.800
O14     10.856852981    2.731678871   17.351356286 XXXX 1      oap1    O  -0.800
Ca6     11.451665173    6.359002378   17.713277054 XXXX 1      ca+h    Ca  1.500
P2       9.168646597    8.139853418   16.089120954 XXXX 1      pap     P   1.000
O15      8.256484607    7.328917261   15.122543929 XXXX 1      oap1    O  -0.800
O16      8.972805160    9.701506348   16.001163739 XXXX 1      oap1    O  -0.800
Ca7      6.413299668    8.296504580   14.002621571 XXXX 1      ca+h    Ca  1.500
P3       6.252438564    5.167479466   13.886568389 XXXX 1      pap     P   1.000
O17      7.283120660    4.457026436   14.759352733 XXXX 1      oap1    O  -0.800
O18      5.312018712    4.221992124   13.175460447 XXXX 1      oap1    O  -0.800
Ca8     11.191743441    6.388249883   21.956811314 XXXX 1      ca+h    Ca  1.500
P4       8.883250385    5.050197149   20.264618903 XXXX 1      pap     P   1.000
O19      8.795207959    3.534947304   20.045425602 XXXX 1      oap1    O  -0.800
O20      7.716956501    5.745401497   19.519466742 XXXX 1      oap1    O  -0.800
Ca9      7.185031206    2.268205678   18.986355032 XXXX 1      ca+h    Ca  1.500
P6      12.218944155    3.144236685   22.773126928 XXXX 1      pap     P   1.000
O23     11.339886892    3.945251122   21.811159325 XXXX 1      oap1    O  -0.800
O24     13.199455211    4.074934489   23.556336711 XXXX 1      oap1    O  -0.800
end
O1       5.565364646    3.004185190   20.573113321 XXXX 1      oap1    O  -0.800
O2       6.620007566    7.833215561   21.247186502 XXXX 1      oap1    O  -0.800
O3       3.001857033    6.129913371   18.686678570 XXXX 1      oap1    O  -0.800
O4       6.069768704    5.573737345   25.335980254 XXXX 1      oap1    O  -0.800
O6       9.023586484    2.261061036   27.242118149 XXXX 1      oap1    O  -0.800
O7       4.592406048    5.248386906   27.243391664 XXXX 1      oap1    O  -0.800
O9       7.666721927    2.179594697   29.309799576 XXXX 1      oap1    O  -0.800
O10      4.146681599    3.207576070   22.629550122 XXXX 1      oap1    O  -0.800
O11      5.160634877    7.631830244   23.202171124 XXXX 1      oap1    O  -0.800
O12      1.292626503    6.335363761   20.424319661 XXXX 1      oap1    O  -0.800
Ca1      9.073074324    2.941575334   22.445587563 XXXX 1      ca+h    Ca  1.500
Ca2      3.281090649    5.585263030   22.620508928 XXXX 1      ca+h    Ca  1.500
Ca3      1.182519352    5.893484120   25.369907447 XXXX 1      ca+h    Ca  1.500
Ca4      7.038419351    2.716157430   25.263534185 XXXX 1      ca+h    Ca  1.500
Ca5      3.128242307    2.079512697   20.315710218 XXXX 1      ca+h    Ca  1.500
P1       5.551108393    3.515469863   22.041042216 XXXX 1      pap     P   1.000
O13      5.662961156    5.040941196   22.002013114 XXXX 1      oap1    O  -0.800
O14      6.730401314    2.920697462   22.822738753 XXXX 1      oap1    O  -0.800
Ca6      7.319528288    6.258290413   23.352799359 XXXX 1      ca+h    Ca  1.500
P2       5.253054786    8.159611112   21.780671738 XXXX 1      pap     P   1.000
O15      4.149502726    7.633335879   20.879800581 XXXX 1      oap1    O  -0.800
O16      5.187245020    9.696155840   21.796442593 XXXX 1      oap1    O  -0.800
Ca7      2.413937902    8.421577459   19.654156149 XXXX 1      ca+h    Ca  1.500
P3       2.095263894    5.336699914   19.670292712 XXXX 1      pap     P   1.000
O17      3.033179702    4.443891869   20.535875424 XXXX 1      oap1    O  -0.800
O18      1.204192723    4.425440729   18.766786179 XXXX 1      oap1    O  -0.800
Ca8      6.955032645    6.268645733   27.359015715 XXXX 1      ca+h    Ca  1.500
P4       4.683621875    5.007853578   25.759483469 XXXX 1      pap     P   1.000
O19      4.598400029    3.475582893   25.607262701 XXXX 1      oap1    O  -0.800
O20      3.478274537    5.716931764   25.009646443 XXXX 1      oap1    O  -0.800
Ca9      2.928473023    2.249157310   24.471735500 XXXX 1      ca+h    Ca  1.500
P6       8.177479867    3.118788200   28.227099253 XXXX 1      pap     P   1.000
O23      6.982651314    3.824625028   27.460548654 XXXX 1      oap1    O  -0.800
O24      9.063255041    4.178376857   28.893754362 XXXX 1      oap1    O  -0.800
end
O1       1.391375918    2.801032377   26.284428745 XXXX 1      oap1    O  -0.800
O2       2.289191982    7.657949318   26.809327686 XXXX 1      oap1    O  -0.800
O4       1.876626579    5.730680925   31.055625505 XXXX 1      oap1    O  -0.800
O6       4.897834322    2.201254963   33.159393141 XXXX 1      oap1    O  -0.800
O7       0.485103745    5.530041489   33.001172067 XXXX 1      oap1    O  -0.800
O9       3.090390558    2.344277677   34.866014800 XXXX 1      oap1    O  -0.800
O10      0.004397108    3.061743164   28.262319735 XXXX 1      oap1    O  -0.800
O11      0.748562790    7.732509474   28.956147847 XXXX 1      oap1    O  -0.800
Ca1      4.974175226    2.913046492   28.019994687 XXXX 1      ca+h    Ca  1.500
Ca4      2.908368429    2.652956604   30.833259427 XXXX 1      ca+h    Ca  1.500
P1       1.369060492    3.440495382   27.668531345 XXXX 1      pap     P   1.000
O13      1.361286531    5.001601243   27.514817780 XXXX 1      oap1    O  -0.800
O14      2.537201997    2.914746681   28.577646092 XXXX 1      oap1    O  -0.800
Ca6      2.993474126    6.022493266   28.832998056 XXXX 1      ca+h    Ca  1.500
P2       1.003900937    8.150366766   27.456513374 XXXX 1      pap     P   1.000
O15     -0.056193421    7.359227690   26.743241979 XXXX 1      oap1    O  -0.800
O16      0.795674688    9.678813949   27.240013981 XXXX 1      oap1    O  -0.800
Ca8      2.949378180    6.054823109   33.212357380 XXXX 1      ca+h    Ca  1.500
P4       0.566553999    5.156733192   31.534373393 XXXX 1      pap     P   1.000
O19      0.659879659    3.600080767   31.379376256 XXXX 1      oap1    O  -0.800
O20     -0.568415869    5.831797115   30.743924286 XXXX 1      oap1    O  -0.800
P6       3.938501299    3.187330718   33.878275382 XXXX 1      pap     P   1.000
O23      2.899763085    3.745192367   32.884801415 XXXX 1      oap1    O  -0.800
O24      4.637221888    4.433288670   34.455268339 XXXX 1      oap1    O  -0.800
end
O1      14.702353961   10.297636479    1.363364873 XXXX 1      oap1    O  -0.800
O2      15.527549458   15.665064165    1.938176689 XXXX 1      oap1    O  -0.800
O4      14.746665445   13.571757723    5.614467891 XXXX 1      oap1    O  -0.800
O5      14.169489011    8.734287325    5.080401816 XXXX 1      oap1    O  -0.800
O6      17.685693232   10.169129061    8.008994004 XXXX 1      oap1    O  -0.800
O7      13.216802248   13.516890539    7.631178803 XXXX 1      oap1    O  -0.800
O8      12.391273249    8.925683535    6.835202111 XXXX 1      oap1    O  -0.800
O9      15.885830216   10.621746799    9.684116494 XXXX 1      oap1    O  -0.800
O10     13.783496156   11.678620590    3.250840685 XXXX 1      oap1    O  -0.800
O11     13.746232295   15.220703001    3.589130707 XXXX 1      oap1    O  -0.800
Ca1     17.961187002   11.141935967    3.216311263 XXXX 1      ca+h    Ca  1.500
Ca2     12.333427296   13.414128969    2.860457446 XXXX 1      ca+h    Ca  1.500
Ca3      9.908052390   13.617928051    5.705796883 XXXX 1      ca+h    Ca  1.500
Ca4     15.871315418   10.612932639    5.793096061 XXXX 1      ca+h    Ca  1.500
P1      15.092239047   11.181695223    2.534419258 XXXX 1      pap     P   1.000
O13     16.120764181   12.271018555    2.254834355 XXXX 1      oap1    O  -0.800
O14     15.822087755   10.239491835    3.488878178 XXXX 1      oap1    O  -0.800
Ca6     16.061944169   14.164080177    3.723547145 XXXX 1      ca+h    Ca  1.500
P2      14.040293365   15.885270553    2.251302906 XXXX 1      pap     P   1.000
O15     12.998739802   15.244025460    1.327324386 XXXX 1      oap1    O  -0.800
O16     13.829167075   17.412400585    2.399191017 XXXX 1      oap1    O  -0.800
Ca8     15.641026202   14.521656873    7.822227481 XXXX 1      ca+h    Ca  1.500
P4      13.458069293   13.014181743    6.174847718 XXXX 1      pap     P   1.000
O19     13.620404806   11.450876883    6.247901519 XXXX 1      oap1    O  -0.800
O20     12.250521890   13.355631933    5.279773968 XXXX 1      oap1    O  -0.800
Ca9     12.053181059   10.533191490    4.850024008 XXXX 1      ca+h    Ca  1.500
P5      13.825806406    8.398435776    6.536234603 XXXX 1      pap     P   1.000
O21     14.822321749    9.094210250    7.454242667 XXXX 1      oap1    O  -0.800
O22     13.865189938    6.892375705    6.654157661 XXXX 1      oap1    O  -0.800
Ca10    16.658843284    8.096425595    8.529298206 XXXX 1      ca+h    Ca  1.500
P6      16.904185143   11.260279315    8.764631298 XXXX 1      pap     P   1.000
O23     16.149901714   12.134004334    7.745863027 XXXX 1      oap1    O  -0.800
O24     17.926989180   12.099534329    9.578177485 XXXX 1      oap1    O  -0.800
O25      9.283912294    8.197285778    6.095521277 XXXX 1      oap2    O  -1.100
O26     11.622158254    8.536989171    3.644646742 XXXX 1      oap2    O  -1.100
H1      10.133733704    8.477254011    6.321264214 XXXX 1      hop     H   0.200
H2      11.339316892    8.961726841    2.900736748 XXXX 1      hop     H   0.200
end
O1      10.402443052   11.306039799    6.529144967 XXXX 1      oap1    O  -0.800
O2      10.963394081   15.635710567    7.093166560 XXXX 1      oap1    O  -0.800
O3       7.412575575   14.310402643    4.507340114 XXXX 1      oap1    O  -0.800
O4      10.667304708   13.798010563   11.344995972 XXXX 1      oap1    O  -0.800
O5       9.914546536    8.982549569   10.666397398 XXXX 1      oap1    O  -0.800
O6      13.370460099   10.291566333   13.296793414 XXXX 1      oap1    O  -0.800
O7       9.140971413   13.384999859   13.285260605 XXXX 1      oap1    O  -0.800
O8       8.138887475    8.977182486   12.398252372 XXXX 1      oap1    O  -0.800
O9      11.897604957   10.550546635   15.346079661 XXXX 1      oap1    O  -0.800
O10      8.997340860   10.519048152    8.399115309 XXXX 1      oap1    O  -0.800
O11      9.391707694   15.576270735    9.128691441 XXXX 1      oap1    O  -0.800
O12      6.026668827   14.294582942    6.617294611 XXXX 1      oap1    O  -0.800
Ca1     13.671584405   10.945256125    8.502577417 XXXX 1      ca+h    Ca  1.500
Ca2      7.620653751   13.777516916    8.405490797 XXXX 1      ca+h    Ca  1.500
Ca3      5.735695485   13.689743130   11.410736685 XXXX 1      ca+h    Ca  1.500
Ca4     11.657814575   10.945717429   11.392363612 XXXX 1      ca+h    Ca  1.500
Ca5      7.866558041   10.266066159    6.279814974 XXXX 1      ca+h    Ca  1.500
P1      10.188178195   11.449102482    8.048121870 XXXX 1      pap     P   1.000
O13      9.880329899   12.924073453    8.248889977 XXXX 1      oap1    O  -0.800
O14     11.432406897   11.005157392    8.809371763 XXXX 1      oap1    O  -0.800
Ca6     11.645728927   14.175843000    9.192083073 XXXX 1      ca+h    Ca  1.500
P2       9.649737696   16.124131745    7.701292324 XXXX 1      pap     P   1.000
O15      8.583941647   15.375138740    6.876884813 XXXX 1      oap1    O  -0.800
O16      9.533388189   17.659683176    7.576018717 XXXX 1      oap1    O  -0.800
Ca7      6.948780912   16.455768314    5.640153581 XXXX 1      ca+h    Ca  1.500
P3       6.645141026   13.438533408    5.514840092 XXXX 1      pap     P   1.000
O17      7.751611861   12.597248894    6.143319100 XXXX 1      oap1    O  -0.800
O18      5.575331238   12.601216772    4.785434698 XXXX 1      oap1    O  -0.800
Ca8     11.640360275   14.508599625   13.380306390 XXXX 1      ca+h    Ca  1.500
P4       9.350589929   13.140085461   11.725966158 XXXX 1      pap     P   1.000
O19      9.381005400   11.610937739   11.542515996 XXXX 1      oap1    O  -0.800
O20      8.154605183   13.859206328   10.986931135 XXXX 1      oap1    O  -0.800
Ca9      7.632147326   10.344929411   10.489914351 XXXX 1      ca+h    Ca  1.500
P5       9.489233277    8.442767034   12.102950460 XXXX 1      pap     P   1.000
O21     10.528218808    9.032615823   13.003451999 XXXX 1      oap1    O  -0.800
O22      9.459446398    6.895423950   12.138221855 XXXX 1      oap1    O  -0.800
Ca10    12.460428814    8.025573910   14.099769202 XXXX 1      ca+h    Ca  1.500
P6      12.662148292   11.300740021   14.253559852 XXXX 1      pap     P   1.000
O23     11.568772758   12.124338981   13.526847775 XXXX 1      oap1    O  -0.800
O24     13.617873769   12.297499878   14.866890100 XXXX 1      oap1    O  -0.800
O25      5.071259541    8.352616271   12.063569665 XXXX 1      oap2    O  -1.100
O26      7.229596876    8.239597295    9.175385156 XXXX 1      oap2    O  -1.100
H1       5.983126266    8.150692484   11.783281767 XXXX 1      hop     H   0.200
H2       7.753327664    8.235423448    8.435879065 XXXX 1      hop     H   0.200
end
O1       6.247461459   11.295668910   12.131964691 XXXX 1      oap1    O  -0.800
O2       6.767027967   15.691837752   12.650520484 XXXX 1      oap1    O  -0.800
O3       3.218328591   14.442712379   10.299779064 XXXX 1      oap1    O  -0.800
O4       6.399599027   13.957348084   16.927542941 XXXX 1      oap1    O  -0.800
O5       5.823943517    9.029860729   16.192541715 XXXX 1      oap1    O  -0.800
O6       9.204292490   10.328902439   18.837662866 XXXX 1      oap1    O  -0.800
O7       4.898605030   13.520879028   18.930767300 XXXX 1      oap1    O  -0.800
O8       4.022163158    8.920645083   17.926798300 XXXX 1      oap1    O  -0.800
O9       7.847304602   10.542072984   21.002805167 XXXX 1      oap1    O  -0.800
O10      4.649529420   10.726671199   13.960612892 XXXX 1      oap1    O  -0.800
O11      5.231932054   15.827972186   14.714983191 XXXX 1      oap1    O  -0.800
O12      1.768074342   14.300747932   12.269622133 XXXX 1      oap1    O  -0.800
Ca1      9.485473672   10.961906451   14.119973814 XXXX 1      ca+h    Ca  1.500
Ca2      3.482149941   13.943551434   14.139747972 XXXX 1      ca+h    Ca  1.500
Ca3      1.621372331   13.576048166   17.058711219 XXXX 1      ca+h    Ca  1.500
Ca4      7.318177727   11.004645655   16.937748984 XXXX 1      ca+h    Ca  1.500
Ca5      3.563692629   10.245430161   11.799166579 XXXX 1      ca+h    Ca  1.500
P1       5.947146224   11.474603887   13.655289476 XXXX 1      pap     P   1.000
O13      5.710074841   12.990329352   13.924001093 XXXX 1      oap1    O  -0.800
O14      7.091092558   10.863189846   14.564000124 XXXX 1      oap1    O  -0.800
Ca6      7.507353505   14.375893122   14.703228456 XXXX 1      ca+h    Ca  1.500
P2       5.426055763   16.256894400   13.242574902 XXXX 1      pap     P   1.000
O15      4.283385599   15.579418199   12.444771489 XXXX 1      oap1    O  -0.800
O16      5.463336441   17.794379994   13.174118050 XXXX 1      oap1    O  -0.800
Ca7      2.597330735   16.577087883   11.229704634 XXXX 1      ca+h    Ca  1.500
P3       2.493902996   13.439245854   11.212631820 XXXX 1      pap     P   1.000
O17      3.535022987   12.621111009   11.964070025 XXXX 1      oap1    O  -0.800
O18      1.429008687   12.666584427   10.452113874 XXXX 1      oap1    O  -0.800
Ca8      7.339159166   14.613159427   19.024174516 XXXX 1      ca+h    Ca  1.500
P4       5.061805610   13.345147190   17.373708633 XXXX 1      pap     P   1.000
O19      5.083499945   11.837450228   17.216902811 XXXX 1      oap1    O  -0.800
O20      3.819225130   14.004645288   16.553713172 XXXX 1      oap1    O  -0.800
Ca9      3.615947138   10.264106932   16.068087990 XXXX 1      ca+h    Ca  1.500
P5       5.504573611    8.592451099   17.630308465 XXXX 1      pap     P   1.000
O21      6.443525503    9.416832919   18.599714259 XXXX 1      oap1    O  -0.800
O22      5.668534896    7.044766415   17.854201178 XXXX 1      oap1    O  -0.800
Ca10     8.292299769    8.217284417   19.650174673 XXXX 1      ca+h    Ca  1.500
P6       8.596244796   11.305521153   19.913045888 XXXX 1      pap     P   1.000
O23      7.520518482   12.239251900   19.238291103 XXXX 1      oap1    O  -0.800
O24      9.756302864   12.056204704   20.668233296 XXXX 1      oap1    O  -0.800
O25      0.938334906    8.167671196   17.793405592 XXXX 1      oap2    O  -1.100
O26      3.091576067    8.188843456   14.682947076 XXXX 1      oap2    O  -1.100
H1       1.451183530    8.391895460   16.983411807 XXXX 1      hop     H   0.200
H2       3.655736032    7.961440829   13.942637358 XXXX 1      hop     H   0.200
end
O1       1.957365753   11.105945963   17.809929715 XXXX 1      oap1    O  -0.800
O2       2.789211697   15.781920656   18.588262759 XXXX 1      oap1    O  -0.800
O4       2.254975833   13.892785382   22.546867845 XXXX 1      oap1    O  -0.800
O5       1.510316334    9.104403767   21.883508145 XXXX 1      oap1    O  -0.800
O6       5.109938822   10.469894033   24.572314074 XXXX 1      oap1    O  -0.800
O7       0.618003464   13.527291667   24.360289735 XXXX 1      oap1    O  -0.800
O8      -0.027910739    9.113554985   23.775280066 XXXX 1      oap1    O  -0.800
O9       3.553084042   10.626170728   26.514698574 XXXX 1      oap1    O  -0.800
O10      0.633246619   10.815576598   19.766626065 XXXX 1      oap1    O  -0.800
O11      1.053787764   15.489555838   20.246033745 XXXX 1      oap1    O  -0.800
Ca1      5.463295481   11.159748141   19.791181505 XXXX 1      ca+h    Ca  1.500
Ca4      3.263963590   10.973407016   22.494448623 XXXX 1      ca+h    Ca  1.500
P1       1.950859676   11.414020676   19.292520933 XXXX 1      pap     P   1.000
O13      1.807135179   12.947838517   19.383619366 XXXX 1      oap1    O  -0.800
O14      3.180129684   10.849833096   19.991486350 XXXX 1      oap1    O  -0.800
Ca6      3.285355372   14.347531419   20.501836597 XXXX 1      ca+h    Ca  1.500
P2       1.361513383   16.119389222   18.900292529 XXXX 1      pap     P   1.000
O15      0.473837566   15.460880527   17.935611375 XXXX 1      oap1    O  -0.800
O16      1.121699156   17.634028085   18.787874249 XXXX 1      oap1    O  -0.800
Ca8      3.180509601   14.711956105   24.671349876 XXXX 1      ca+h    Ca  1.500
P4       0.868459068   13.252141714   22.919372207 XXXX 1      pap     P   1.000
O19      0.997402920   11.729950857   22.855295724 XXXX 1      oap1    O  -0.800
O20     -0.232059564   13.714871139   22.000813197 XXXX 1      oap1    O  -0.800
P5       1.378154139    8.603668597   23.310338780 XXXX 1      pap     P   1.000
O21      2.420275784    9.218528236   24.194921304 XXXX 1      oap1    O  -0.800
O22      1.363303644    7.021722376   23.326835147 XXXX 1      oap1    O  -0.800
Ca10     4.315737634    8.255745960   25.300428250 XXXX 1      ca+h    Ca  1.500
P6       4.336701001   11.422812089   25.472141475 XXXX 1      pap     P   1.000
O23      3.381607649   12.203035482   24.547169543 XXXX 1      oap1    O  -0.800
O24      5.311854452   12.386129375   26.175639329 XXXX 1      oap1    O  -0.800
O26     33.757776964    8.245048671   20.680528243 XXXX 1      oap2    O  -1.100
H2      34.060554408    8.164036633   19.776650653 XXXX 1      hop     H   0.200
end
O1       6.309103887   19.290839517    3.840559833 XXXX 1      oap1    O  -0.800
O2       7.150713667   23.986797028    4.038711468 XXXX 1      oap1    O  -0.800
O3       3.758538670   22.794510025    2.082786253 XXXX 1      oap1    O  -0.800
O4       6.893228253   21.560785423    8.488404141 XXXX 1      oap1    O  -0.800
O5       5.773457844   17.000587807    7.806509769 XXXX 1      oap1    O  -0.800
O6       9.531621299   18.488768216   10.398459868 XXXX 1      oap1    O  -0.800
O7       5.401518175   21.537614499   10.405830484 XXXX 1      oap1    O  -0.800
O8       4.441316772   17.152010975    9.956544519 XXXX 1      oap1    O  -0.800
O9       8.074989403   18.629631832   12.366665193 XXXX 1      oap1    O  -0.800
O10      4.867379795   19.349667487    5.748748356 XXXX 1      oap1    O  -0.800
O11      6.031569215   23.930957651    6.419782211 XXXX 1      oap1    O  -0.800
O12      2.173302665   22.581606442    3.867995910 XXXX 1      oap1    O  -0.800
Ca1     10.048614613   18.971831473    5.596867494 XXXX 1      ca+h    Ca  1.500
Ca2      3.853101415   21.800716865    5.815808742 XXXX 1      ca+h    Ca  1.500
Ca3      1.899873666   21.857337819    8.536467184 XXXX 1      ca+h    Ca  1.500
Ca4      7.728553972   19.112470080    8.442728940 XXXX 1      ca+h    Ca  1.500
Ca5      4.146112024   18.359263165    3.526193868 XXXX 1      ca+h    Ca  1.500
P1       6.245218069   19.799495573    5.252739251 XXXX 1      pap     P   1.000
O13      6.226992419   21.347479711    5.236551497 XXXX 1      oap1    O  -0.800
O14      7.402205251   19.132652662    6.044629106 XXXX 1      oap1    O  -0.800
Ca6      7.972289157   22.378805947    6.413801670 XXXX 1      ca+h    Ca  1.500
P2       5.945303705   24.407874152    4.950304920 XXXX 1      pap     P   1.000
O15      4.709514577   23.815496705    4.289890642 XXXX 1      oap1    O  -0.800
O16      5.963898138   25.962358746    5.000892243 XXXX 1      oap1    O  -0.800
Ca7      2.602585105   24.779494182    2.836083248 XXXX 1      ca+h    Ca  1.500
P3       2.864380982   21.709603558    2.754627726 XXXX 1      pap     P   1.000
O17      3.757623095   20.714587137    3.528880121 XXXX 1      oap1    O  -0.800
O18      1.888017428   20.956218135    1.915459353 XXXX 1      oap1    O  -0.800
Ca8      7.772575855   22.722195394   10.626410206 XXXX 1      ca+h    Ca  1.500
P4       5.471874617   21.186559775    8.960164884 XXXX 1      pap     P   1.000
O19      5.323635975   19.718694365    8.786584479 XXXX 1      oap1    O  -0.800
O20      4.362677599   21.940518413    8.173808535 XXXX 1      oap1    O  -0.800
Ca9      3.818368030   18.505780254    7.577980053 XXXX 1      ca+h    Ca  1.500
P5       5.712123400   16.648305022    9.329185574 XXXX 1      pap     P   1.000
O21      6.809190141   17.399365299   10.047772638 XXXX 1      oap1    O  -0.800
O22      5.886472108   15.145459700    9.585796651 XXXX 1      oap1    O  -0.800
Ca10     8.591335700   16.331948124   11.322484491 XXXX 1      ca+h    Ca  1.500
P6       8.868858039   19.480064156   11.378734838 XXXX 1      pap     P   1.000
O23      7.833856994   20.307069754   10.607320520 XXXX 1      oap1    O  -0.800
O24      9.927394725   20.345327683   12.156029276 XXXX 1      oap1    O  -0.800
O25      2.526716574   16.403302960    7.596043144 XXXX 1      oap2    O  -1.100
O26      4.478563295   16.429470384    4.909869176 XXXX 1      oap2    O  -1.100
H1       1.852340952   16.517408551    8.276339029 XXXX 1      hop     H   0.200
H2       3.963953718   16.053615815    5.639969029 XXXX 1      hop     H   0.200
end
O1       2.123897796   19.087458630    9.539046122 XXXX 1      oap1    O  -0.800
O2       3.107513813   23.714034515   10.100726949 XXXX 1      oap1    O  -0.800
O4       2.576471671   21.477108957   13.895073834 XXXX 1      oap1    O  -0.800
O5       1.697895474   17.081861142   13.387841600 XXXX 1      oap1    O  -0.800
O6       5.572003373   18.555651459   16.115529192 XXXX 1      oap1    O  -0.800
O7       1.265167969   22.056850895   15.880927131 XXXX 1      oap1    O  -0.800
O8       0.211569486   17.235056601   15.420142597 XXXX 1      oap1    O  -0.800
O9       3.921432025   18.670656887   18.093641541 XXXX 1      oap1    O  -0.800
O10      0.702134037   19.278380474   11.526898204 XXXX 1      oap1    O  -0.800
O11      1.599870934   23.847795674   12.008459876 XXXX 1      oap1    O  -0.800
Ca1      5.664287585   19.259213288   11.191587869 XXXX 1      ca+h    Ca  1.500
Ca4      3.479409126   19.184746714   14.020942695 XXXX 1      ca+h    Ca  1.500
P1       2.051804116   19.632390739   10.986615976 XXXX 1      pap     P   1.000
O13      2.121623670   21.157112592   10.783377243 XXXX 1      oap1    O  -0.800
O14      3.260954908   19.077480480   11.761716022 XXXX 1      oap1    O  -0.800
Ca6      3.833053768   22.360137500   12.010260581 XXXX 1      ca+h    Ca  1.500
P2       1.795541433   24.311607378   10.546261961 XXXX 1      pap     P   1.000
O15      0.674367475   23.636102899    9.681664957 XXXX 1      oap1    O  -0.800
O16      1.834610892   25.880881055   10.484908077 XXXX 1      oap1    O  -0.800
Ca8      3.619053163   22.607638507   16.239354172 XXXX 1      ca+h    Ca  1.500
P4       1.193067115   21.324123485   14.528813543 XXXX 1      pap     P   1.000
O19      1.053042084   19.778820847   14.667469983 XXXX 1      oap1    O  -0.800
O20      0.061952413   21.940990545   13.598165292 XXXX 1      oap1    O  -0.800
P5       1.613199823   16.696135832   14.941160309 XXXX 1      pap     P   1.000
O21      2.703823141   17.531669419   15.700595009 XXXX 1      oap1    O  -0.800
O22      1.797292345   15.141279214   15.249697925 XXXX 1      oap1    O  -0.800
Ca10     4.419292420   16.515819358   16.948736285 XXXX 1      ca+h    Ca  1.500
P6       4.699224354   19.470098807   17.034342681 XXXX 1      pap     P   1.000
O23      3.713071805   20.244897371   16.158869184 XXXX 1      oap1    O  -0.800
O24      5.560999508   20.459112959   17.800929830 XXXX 1      oap1    O  -0.800
O26      0.337637266   16.395997025   10.362133645 XXXX 1      oap2    O  -1.100
H2      -0.348684527   16.401588352   11.008503283 XXXX 1      hop     H   0.200
end
O1       2.560780674   26.772260597    1.523947593 XXXX 1      oap1    O  -0.800
O2       3.677045278   32.232711084    2.191906734 XXXX 1      oap1    O  -0.800
O4       2.920319122   30.180501925    5.945017713 XXXX 1      oap1    O  -0.800
O5       2.275023239   25.361194481    5.175782020 XXXX 1      oap1    O  -0.800
O6       5.781625652   26.613660519    7.671111575 XXXX 1      oap1    O  -0.800
O7       1.340479518   29.798319649    7.756369570 XXXX 1      oap1    O  -0.800
O8       0.615714499   25.169277555    6.955728157 XXXX 1      oap1    O  -0.800
O9       4.616374018   26.765981740    9.841755120 XXXX 1      oap1    O  -0.800
O10      1.839341992   28.509943256    3.269762452 XXXX 1      oap1    O  -0.800
O11      1.878323829   31.781275818    3.670239307 XXXX 1      oap1    O  -0.800
Ca1      6.055762514   27.465794035    3.260409335 XXXX 1      ca+h    Ca  1.500
Ca4      4.121215494   27.106483981    6.046042506 XXXX 1      ca+h    Ca  1.500
P1       3.002395707   27.780694201    2.565318517 XXXX 1      pap     P   1.000
O13      4.191041934   28.773032463    2.248796529 XXXX 1      oap1    O  -0.800
O14      3.742113236   26.884769672    3.565743339 XXXX 1      oap1    O  -0.800
Ca6      3.896122464   30.562855607    3.812369798 XXXX 1      ca+h    Ca  1.500
P2       2.152193857   32.374533751    2.281159988 XXXX 1      pap     P   1.000
O15      1.377428333   31.447110410    1.306838023 XXXX 1      oap1    O  -0.800
O16      1.817679399   33.842768180    2.189186947 XXXX 1      oap1    O  -0.800
Ca8      3.917630253   31.032305905    7.929354926 XXXX 1      ca+h    Ca  1.500
P4       1.634848971   29.432790432    6.348782392 XXXX 1      pap     P   1.000
O19      1.996390320   27.978520275    6.328704750 XXXX 1      oap1    O  -0.800
O20      0.483174980   29.733334899    5.355578764 XXXX 1      oap1    O  -0.800
P5       2.031245103   24.795715273    6.595161369 XXXX 1      pap     P   1.000
O21      3.005599415   25.556677904    7.541730791 XXXX 1      oap1    O  -0.800
O22      2.250784251   23.271447794    6.711947389 XXXX 1      oap1    O  -0.800
Ca10     4.771614616   24.425608210    8.592919664 XXXX 1      ca+h    Ca  1.500
P6       5.208661508   27.616814387    8.725830406 XXXX 1      pap     P   1.000
O23      4.070922719   28.484762757    8.046744950 XXXX 1      oap1    O  -0.800
O24      6.298295027   28.535272670    9.312160974 XXXX 1      oap1    O  -0.800
O26     -0.064032441   24.890948227    3.672658040 XXXX 1      oap2    O  -1.100
H2      -0.210035110   24.803454119    2.719476161 XXXX 1      hop     H   0.200
end
O1      29.529310293    3.003329133    3.877374347 XXXX 1      oap1    O  -0.800
O2      30.395746193    7.529451723    4.170176443 XXXX 1      oap1    O  -0.800
O3      27.106423718    6.307029189    2.082039337 XXXX 1      oap1    O  -0.800
O4      30.052305074    5.214338111    8.397993925 XXXX 1      oap1    O  -0.800
O6      32.647193843    2.182616048   10.427598514 XXXX 1      oap1    O  -0.800
O7      28.694744851    5.873274870   10.391720333 XXXX 1      oap1    O  -0.800
O9      31.310178647    2.273328333   12.563879581 XXXX 1      oap1    O  -0.800
O10     28.094002968    2.846377316    5.956467940 XXXX 1      oap1    O  -0.800
O11     29.533483187    7.902491460    6.560280361 XXXX 1      oap1    O  -0.800
O12     25.606488265    6.070120267    3.981481213 XXXX 1      oap1    O  -0.800
Ca1     33.256706790    2.796358793    5.666343730 XXXX 1      ca+h    Ca  1.500
Ca2     26.995320433    5.488778680    5.827885862 XXXX 1      ca+h    Ca  1.500
Ca3     25.313558737    5.657743962    8.516238136 XXXX 1      ca+h    Ca  1.500
Ca4     30.929521644    2.893789496    8.571186304 XXXX 1      ca+h    Ca  1.500
Ca5     27.424350277    1.931170920    3.346582559 XXXX 1      ca+h    Ca  1.500
P1      29.387002745    3.366071249    5.357259802 XXXX 1      pap     P   1.000
O13     29.342061511    4.927814985    5.476971537 XXXX 1      oap1    O  -0.800
O14     30.636218622    2.869943183    6.064460664 XXXX 1      oap1    O  -0.800
Ca6     31.093607372    6.112385279    6.524973981 XXXX 1      ca+h    Ca  1.500
P2      29.255468911    8.085008299    5.043622321 XXXX 1      pap     P   1.000
O15     28.025051269    7.338321465    4.563879495 XXXX 1      oap1    O  -0.800
O16     29.222796484    9.626432801    4.729185167 XXXX 1      oap1    O  -0.800
Ca7     26.149825115    8.324858932    3.069795752 XXXX 1      ca+h    Ca  1.500
P3      26.216768271    5.295122172    2.846771303 XXXX 1      pap     P   1.000
O17     27.177026379    4.311036661    3.487932168 XXXX 1      oap1    O  -0.800
O18     25.114650467    4.551931985    1.998068007 XXXX 1      oap1    O  -0.800
Ca8     31.029582824    6.398663240   10.747787728 XXXX 1      ca+h    Ca  1.500
P4      28.678712188    5.094448201    9.038439809 XXXX 1      pap     P   1.000
O19     28.423346553    3.575712481    9.247923591 XXXX 1      oap1    O  -0.800
O20     27.591743338    5.629065389    8.053058174 XXXX 1      oap1    O  -0.800
Ca9     27.138393080    2.117132472    7.954347901 XXXX 1      ca+h    Ca  1.500
P6      32.068682623    3.147226173   11.495233392 XXXX 1      pap     P   1.000
O23     30.936203389    3.928072188   10.808399341 XXXX 1      oap1    O  -0.800
O24     33.121263571    4.076066414   12.155862223 XXXX 1      oap1    O  -0.800
end
O1      25.430574706    2.684393949    9.612072981 XXXX 1      oap1    O  -0.800
O2      26.264232033    7.484432621    9.793340410 XXXX 1      oap1    O  -0.800
O3      22.764088188    6.187515458    7.369049063 XXXX 1      oap1    O  -0.800
O4      26.041830658    5.334074536   13.958214387 XXXX 1      oap1    O  -0.800
O6      28.900831251    2.215356485   16.479069288 XXXX 1      oap1    O  -0.800
O7      24.635038817    5.790130313   15.941352680 XXXX 1      oap1    O  -0.800
O9      27.077106878    2.451994718   18.074055650 XXXX 1      oap1    O  -0.800
O10     24.132438852    3.030790078   11.724328127 XXXX 1      oap1    O  -0.800
O11     25.230086442    7.746805789   11.948787813 XXXX 1      oap1    O  -0.800
O12     21.491739909    6.044329101    9.569753410 XXXX 1      oap1    O  -0.800
Ca1     29.075451959    2.695637085   11.468682545 XXXX 1      ca+h    Ca  1.500
Ca2     23.186075493    5.581372245   11.315624002 XXXX 1      ca+h    Ca  1.500
Ca3     21.314509587    5.669101607   14.250099208 XXXX 1      ca+h    Ca  1.500
Ca4     26.709967532    2.944528927   14.142075098 XXXX 1      ca+h    Ca  1.500
Ca5     23.140467640    2.158785946    8.992201112 XXXX 1      ca+h    Ca  1.500
P1      25.457823575    3.274795770   10.964471477 XXXX 1      pap     P   1.000
O13     25.728422539    4.770531328   10.899594382 XXXX 1      oap1    O  -0.800
O14     26.636142424    2.643044786   11.778727053 XXXX 1      oap1    O  -0.800
Ca6     27.265514415    6.124370255   12.108764555 XXXX 1      ca+h    Ca  1.500
P2      25.115337239    8.176742518   10.471301534 XXXX 1      pap     P   1.000
O15     23.920005077    7.491366956    9.880760755 XXXX 1      oap1    O  -0.800
O16     25.132464193    9.731558359   10.304475313 XXXX 1      oap1    O  -0.800
Ca7     22.250675318    8.463561287    8.431469024 XXXX 1      ca+h    Ca  1.500
P3      22.181007330    5.270063803    8.438860780 XXXX 1      pap     P   1.000
O17     23.323589506    4.558156327    9.067148090 XXXX 1      oap1    O  -0.800
O18     21.254248408    4.203264956    7.803744631 XXXX 1      oap1    O  -0.800
Ca8     26.852918869    6.369950841   16.335252434 XXXX 1      ca+h    Ca  1.500
P4      24.649809764    5.142716707   14.550117219 XXXX 1      pap     P   1.000
O19     24.413472897    3.620838216   14.776101743 XXXX 1      oap1    O  -0.800
O20     23.606874455    5.785490350   13.604055253 XXXX 1      oap1    O  -0.800
Ca9     22.807099332    2.272731397   13.449641991 XXXX 1      ca+h    Ca  1.500
P6      28.000221846    3.268622048   17.166730457 XXXX 1      pap     P   1.000
O23     27.134264971    4.008804062   16.191458613 XXXX 1      oap1    O  -0.800
O24     28.895965315    4.209553767   18.041059341 XXXX 1      oap1    O  -0.800
end
O1      21.416358703    2.710513251   15.276461232 XXXX 1      oap1    O  -0.800
O2      22.191370333    7.649097389   15.378658955 XXXX 1      oap1    O  -0.800
O3      18.752350116    6.203133092   12.966764812 XXXX 1      oap1    O  -0.800
O4      21.810377267    5.180462664   19.638686720 XXXX 1      oap1    O  -0.800
O6      24.765196656    2.163469671   22.060918162 XXXX 1      oap1    O  -0.800
O7      20.394343244    5.490640736   21.622472687 XXXX 1      oap1    O  -0.800
O9      23.074118490    2.376060711   23.807961353 XXXX 1      oap1    O  -0.800
O10     19.866743356    2.989161799   17.124235522 XXXX 1      oap1    O  -0.800
O11     21.138376945    7.658140997   17.585980604 XXXX 1      oap1    O  -0.800
O12     17.371977238    6.092485297   14.948014253 XXXX 1      oap1    O  -0.800
Ca1     24.872024861    2.686961511   16.975556645 XXXX 1      ca+h    Ca  1.500
Ca2     19.045750534    5.531597070   16.998497620 XXXX 1      ca+h    Ca  1.500
Ca3     16.978593216    5.658300978   19.782878902 XXXX 1      ca+h    Ca  1.500
Ca4     22.804534159    2.964554255   19.774766180 XXXX 1      ca+h    Ca  1.500
Ca5     19.130989752    2.042317082   14.815902463 XXXX 1      ca+h    Ca  1.500
P1      21.331011221    3.357673930   16.633613873 XXXX 1      pap     P   1.000
O13     21.449028876    4.892381892   16.509065484 XXXX 1      oap1    O  -0.800
O14     22.379153794    2.684187263   17.494179862 XXXX 1      oap1    O  -0.800
Ca6     22.941506042    6.204296128   17.856944306 XXXX 1      ca+h    Ca  1.500
P2      20.927897005    8.085531630   16.151644082 XXXX 1      pap     P   1.000
O15     19.726316231    7.259296921   15.600499334 XXXX 1      oap1    O  -0.800
O16     20.741924231    9.608364440   15.921005771 XXXX 1      oap1    O  -0.800
Ca7     18.185377453    8.306134133   14.051990827 XXXX 1      ca+h    Ca  1.500
P3      18.052975493    5.208635612   13.894742472 XXXX 1      pap     P   1.000
O17     19.063413611    4.362790940   14.672268368 XXXX 1      oap1    O  -0.800
O18     16.877389879    4.377070484   13.184289016 XXXX 1      oap1    O  -0.800
Ca8     22.692214216    6.218690142   21.857112677 XXXX 1      ca+h    Ca  1.500
P4      20.351396564    4.991832515   20.198220206 XXXX 1      pap     P   1.000
O19     20.136441899    3.477172830   20.272020232 XXXX 1      oap1    O  -0.800
O20     19.272008614    5.777116115   19.323759442 XXXX 1      oap1    O  -0.800
Ca9     18.690016047    2.044388086   18.961227666 XXXX 1      ca+h    Ca  1.500
P6      23.969847992    3.217987385   22.856628848 XXXX 1      pap     P   1.000
O23     23.044782799    3.933727728   21.878901532 XXXX 1      oap1    O  -0.800
O24     24.953804326    4.143149330   23.614803161 XXXX 1      oap1    O  -0.800
end
O1      17.122306057    2.770464313   20.732731831 XXXX 1      oap1    O  -0.800
O2      18.005797326    7.673035860   21.044951827 XXXX 1      oap1    O  -0.800
O3      14.516676888    6.261100545   18.650727141 XXXX 1      oap1    O  -0.800
O4      17.580179866    5.456195401   25.145751196 XXXX 1      oap1    O  -0.800
O6      20.398415877    2.145840124   27.350590857 XXXX 1      oap1    O  -0.800
O7      16.106930642    5.832759132   27.105942532 XXXX 1      oap1    O  -0.800
O9      18.910927522    2.231349158   29.286334798 XXXX 1      oap1    O  -0.800
O10     15.724308436    3.216066857   22.782436460 XXXX 1      oap1    O  -0.800
O11     16.660951989    7.673838893   23.257141955 XXXX 1      oap1    O  -0.800
O12     12.988740648    6.110368976   20.627658926 XXXX 1      oap1    O  -0.800
Ca1     20.775076957    2.920513380   22.597091683 XXXX 1      ca+h    Ca  1.500
Ca2     14.840288827    5.564067994   22.547912115 XXXX 1      ca+h    Ca  1.500
Ca3     12.834903212    5.646091251   25.371475328 XXXX 1      ca+h    Ca  1.500
Ca4     18.545018091    2.927090933   25.306727333 XXXX 1      ca+h    Ca  1.500
Ca5     14.916317357    1.995124101   20.388298396 XXXX 1      ca+h    Ca  1.500
P1      17.087955093    3.426586834   22.146609152 XXXX 1      pap     P   1.000
O13     17.093463499    4.971577112   22.069240313 XXXX 1      oap1    O  -0.800
O14     18.231150723    2.738413923   22.964789535 XXXX 1      oap1    O  -0.800
Ca6     18.696294708    6.224513439   23.219857238 XXXX 1      ca+h    Ca  1.500
P2      16.704858927    8.078956905   21.720775329 XXXX 1      pap     P   1.000
O15     15.653284797    7.271748443   20.921260272 XXXX 1      oap1    O  -0.800
O16     16.518974122    9.595791292   21.640448018 XXXX 1      oap1    O  -0.800
Ca7     14.035161824    8.483101535   19.710353774 XXXX 1      ca+h    Ca  1.500
P3      13.720580102    5.313411151   19.540523233 XXXX 1      pap     P   1.000
O17     14.731558018    4.408121632   20.329897217 XXXX 1      oap1    O  -0.800
O18     12.671386839    4.484798041   18.738968255 XXXX 1      oap1    O  -0.800
Ca8     18.587113114    6.534532736   27.524242913 XXXX 1      ca+h    Ca  1.500
P4      16.238937513    5.085008982   25.741293840 XXXX 1      pap     P   1.000
O19     16.177789995    3.563769693   25.886269417 XXXX 1      oap1    O  -0.800
O20     15.074732604    5.700755952   24.907115929 XXXX 1      oap1    O  -0.800
Ca9     14.736746655    2.189833924   24.656746793 XXXX 1      ca+h    Ca  1.500
P6      19.673514428    3.105685751   28.293287060 XXXX 1      pap     P   1.000
O23     18.589465449    3.937001759   27.584034266 XXXX 1      oap1    O  -0.800
O24     20.759731073    3.945039291   29.039157970 XXXX 1      oap1    O  -0.800
end
O1      13.219663983    2.999312785   26.310566830 XXXX 1      oap1    O  -0.800
O2      13.878141909    7.554528578   26.618004025 XXXX 1      oap1    O  -0.800
O3      10.216768477    6.245336235   24.104245180 XXXX 1      oap1    O  -0.800
O4      13.302911179    6.251423956   31.069439434 XXXX 1      oap1    O  -0.800
O6      16.377367389    2.308199027   32.955952677 XXXX 1      oap1    O  -0.800
O7      11.967412543    5.487918363   33.022780103 XXXX 1      oap1    O  -0.800
O9      14.500653646    2.331588462   34.636798501 XXXX 1      oap1    O  -0.800
O10     11.641213660    2.839872033   28.151155571 XXXX 1      oap1    O  -0.800
O11     12.656108689    7.595779243   28.755921242 XXXX 1      oap1    O  -0.800
O12      8.991121989    6.234150694   26.186527957 XXXX 1      oap1    O  -0.800
Ca1     16.528472697    2.724895187   28.104625753 XXXX 1      ca+h    Ca  1.500
Ca2     10.760625927    5.725029901   28.109352637 XXXX 1      ca+h    Ca  1.500
Ca3      8.598854875    5.539057297   30.798175304 XXXX 1      ca+h    Ca  1.500
Ca4     14.603484306    2.792216095   30.905289405 XXXX 1      ca+h    Ca  1.500
Ca5     10.975107974    1.967429366   25.997210246 XXXX 1      ca+h    Ca  1.500
P1      12.967348617    3.427949380   27.802468037 XXXX 1      pap     P   1.000
O13     12.953027026    4.949799838   27.862676801 XXXX 1      oap1    O  -0.800
O14     14.177561156    2.833865444   28.639157961 XXXX 1      oap1    O  -0.800
Ca6     14.645157067    6.249907399   29.075362049 XXXX 1      ca+h    Ca  1.500
P2      12.644286051    8.036124855   27.287820139 XXXX 1      pap     P   1.000
O15     11.518076228    7.417839788   26.577715590 XXXX 1      oap1    O  -0.800
O16     12.601205541    9.536788698   27.168533761 XXXX 1      oap1    O  -0.800
Ca7      9.803454181    8.507259551   25.219949050 XXXX 1      ca+h    Ca  1.500
P3       9.604720561    5.273027043   25.151556952 XXXX 1      pap     P   1.000
O17     10.768569188    4.540629608   25.887888755 XXXX 1      oap1    O  -0.800
O18      8.508201234    4.307158256   24.456137239 XXXX 1      oap1    O  -0.800
Ca8     14.345332820    6.470952696   33.405656176 XXXX 1      ca+h    Ca  1.500
P4      12.195163466    5.276553894   31.477775953 XXXX 1      pap     P   1.000
O19     12.464316499    3.764709893   31.208818813 XXXX 1      oap1    O  -0.800
O20     10.995080776    5.869182077   30.696480961 XXXX 1      oap1    O  -0.800
Ca9     10.459765714    2.150254559   30.184967814 XXXX 1      ca+h    Ca  1.500
P6      15.485086869    3.241521123   33.809221307 XXXX 1      pap     P   1.000
O23     14.577411886    4.034373123   32.865451053 XXXX 1      oap1    O  -0.800
O24     16.318076888    4.235203403   34.673026644 XXXX 1      oap1    O  -0.800
end
O1       9.623367223    3.462064246   31.844688190 XXXX 1      oap1    O  -0.800
O2       9.963292900    7.745987194   32.679318151 XXXX 1      oap1    O  -0.800
O3       6.172334226    6.110945079   29.642492072 XXXX 1      oap1    O  -0.800
O10      8.412666267    2.080301927   33.524022212 XXXX 1      oap1    O  -0.800
O11      8.054472150    7.475004428   34.310336887 XXXX 1      oap1    O  -0.800
O12      4.913929645    5.943961160   31.869857254 XXXX 1      oap1    O  -0.800
Ca1     12.509800061    2.938963327   33.535423919 XXXX 1      ca+h    Ca  1.500
Ca2      6.333113385    5.790434979   33.868927882 XXXX 1      ca+h    Ca  1.500
Ca5      6.850975338    1.673372862   31.567791156 XXXX 1      ca+h    Ca  1.500
P1       9.193245957    3.394659519   33.294445171 XXXX 1      pap     P   1.000
O13      8.400266877    4.678678044   33.369585455 XXXX 1      oap1    O  -0.800
O14     10.395763411    3.605915143   34.254513914 XXXX 1      oap1    O  -0.800
Ca6     10.089291539    5.991243096   34.506094158 XXXX 1      ca+h    Ca  1.500
P2       8.514719160    8.084352434   32.941267525 XXXX 1      pap     P   1.000
O15      7.745943853    7.533886944   31.748239172 XXXX 1      oap1    O  -0.800
O16      8.458355104    9.642929464   32.970145981 XXXX 1      oap1    O  -0.800
Ca7      5.782390115    8.454669441   30.577602406 XXXX 1      ca+h    Ca  1.500
P3       5.473370750    5.096861608   30.727762936 XXXX 1      pap     P   1.000
O17      6.468041206    4.059583304   31.268502480 XXXX 1      oap1    O  -0.800
O18      4.326941762    4.337717795   30.024512498 XXXX 1      oap1    O  -0.800
end
O1      26.252967965   10.477474881    1.401202582 XXXX 1      oap1    O  -0.800
O2      26.929597733   15.671066188    1.740196414 XXXX 1      oap1    O  -0.800
O4      26.546852095   13.840183730    5.828416063 XXXX 1      oap1    O  -0.800
O5      25.468877398    9.167142467    5.175702138 XXXX 1      oap1    O  -0.800
O6      29.100469515   10.608756735    7.591105359 XXXX 1      oap1    O  -0.800
O7      24.845666252   13.767091909    7.603586516 XXXX 1      oap1    O  -0.800
O8      24.175746631    9.181974338    7.318441658 XXXX 1      oap1    O  -0.800
O9      27.965895989   10.301775032    9.664178181 XXXX 1      oap1    O  -0.800
O10     25.115377477   11.913442370    3.123365355 XXXX 1      oap1    O  -0.800
O11     25.357394757   15.536019935    3.634632742 XXXX 1      oap1    O  -0.800
Ca1     29.485464808   11.191729913    2.949854429 XXXX 1      ca+h    Ca  1.500
Ca2     23.677927467   13.845999802    2.853332363 XXXX 1      ca+h    Ca  1.500
Ca3     21.677324450   13.802839442    5.884907864 XXXX 1      ca+h    Ca  1.500
Ca4     27.433039482   11.049093519    5.834210250 XXXX 1      ca+h    Ca  1.500
P1      26.464732327   11.381704675    2.572313037 XXXX 1      pap     P   1.000
O13     27.554815191   12.451141744    2.472276091 XXXX 1      oap1    O  -0.800
O14     27.123841955   10.415019953    3.569680982 XXXX 1      oap1    O  -0.800
Ca6     27.396725702   14.431882534    3.765901736 XXXX 1      ca+h    Ca  1.500
P2      25.525627282   16.093600564    2.227532321 XXXX 1      pap     P   1.000
O15     24.382328709   15.509234419    1.413381309 XXXX 1      oap1    O  -0.800
O16     25.529925191   17.589024751    2.360967903 XXXX 1      oap1    O  -0.800
Ca8     27.275679196   14.617267890    8.032273587 XXXX 1      ca+h    Ca  1.500
P4      25.141996769   13.321174951    6.158555938 XXXX 1      pap     P   1.000
O19     25.127000427   11.778949693    6.214788820 XXXX 1      oap1    O  -0.800
O20     24.056539782   13.843451374    5.262347180 XXXX 1      oap1    O  -0.800
Ca9     23.744455915   10.682980318    4.704847075 XXXX 1      ca+h    Ca  1.500
P5      25.425931291    8.682723073    6.647625591 XXXX 1      pap     P   1.000
O21     26.623685777    9.334899552    7.346313082 XXXX 1      oap1    O  -0.800
O22     25.454920566    7.091960064    6.727601888 XXXX 1      oap1    O  -0.800
Ca10    28.220913243    8.088418279    8.542190741 XXXX 1      ca+h    Ca  1.500
P6      28.489698054   11.393598181    8.755906909 XXXX 1      pap     P   1.000
O23     27.364142940   12.240232020    8.124041356 XXXX 1      oap1    O  -0.800
O24     29.650922117   12.227200940    9.427213124 XXXX 1      oap1    O  -0.800
O25     21.526188350    8.239866572    5.667299795 XXXX 1      oap2    O  -1.100
O26     23.572111885    8.637275854    3.419317201 XXXX 1      oap2    O  -1.100
H1      22.181899672    8.789209263    6.165568912 XXXX 1      hop     H   0.200
H2      23.846063387    8.662920312    2.499165342 XXXX 1      hop     H   0.200
end
O1      22.084306517   11.181907805    6.535262845 XXXX 1      oap1    O  -0.800
O2      22.675330785   15.809908756    7.264886265 XXXX 1      oap1    O  -0.800
O3      18.766477633   14.254761636    4.371185239 XXXX 1      oap1    O  -0.800
O4      22.212375431   13.707312687   11.263951615 XXXX 1      oap1    O  -0.800
O5      21.362744302    8.956199135   10.573450711 XXXX 1      oap1    O  -0.800
O6      25.041340481   10.694930023   13.153078619 XXXX 1      oap1    O  -0.800
O7      20.815132017   13.499799698   13.217250332 XXXX 1      oap1    O  -0.800
O8      20.061246369    9.076579776   12.795312005 XXXX 1      oap1    O  -0.800
O9      23.750476316   10.408255782   15.329529583 XXXX 1      oap1    O  -0.800
O10     20.480003305   11.031207763    8.412556742 XXXX 1      oap1    O  -0.800
O11     21.196441475   15.607644361    9.266697671 XXXX 1      oap1    O  -0.800
O12     17.692396195   14.371260591    6.646585874 XXXX 1      oap1    O  -0.800
Ca1     25.257214375   11.131188469    8.499329967 XXXX 1      ca+h    Ca  1.500
Ca2     19.399890201   13.761036132    8.523578370 XXXX 1      ca+h    Ca  1.500
Ca3     17.290975233   13.846877022   11.226077377 XXXX 1      ca+h    Ca  1.500
Ca4     23.280933432   11.154689382   11.342560973 XXXX 1      ca+h    Ca  1.500
Ca5     19.748674700   10.094896321    6.391535040 XXXX 1      ca+h    Ca  1.500
P1      21.831964645   11.588560747    8.036970772 XXXX 1      pap     P   1.000
O13     21.795291751   13.127717076    8.114099178 XXXX 1      oap1    O  -0.800
O14     22.921119627   11.020193458    8.948425963 XXXX 1      oap1    O  -0.800
Ca6     23.439349977   14.501661740    9.427778182 XXXX 1      ca+h    Ca  1.500
P2      21.305190377   16.179317638    7.821407806 XXXX 1      pap     P   1.000
O15     20.190588244   15.517684076    7.023183742 XXXX 1      oap1    O  -0.800
O16     21.133822386   17.691056151    7.933695617 XXXX 1      oap1    O  -0.800
Ca7     18.508416996   16.488029067    5.606504224 XXXX 1      ca+h    Ca  1.500
P3      18.350061659   13.465048901    5.623750504 XXXX 1      pap     P   1.000
O17     19.500551537   12.754384495    6.316778250 XXXX 1      oap1    O  -0.800
O18     17.287928159   12.472990703    5.076992252 XXXX 1      oap1    O  -0.800
Ca8     23.127352768   14.494098660   13.520964652 XXXX 1      ca+h    Ca  1.500
P4      20.859107060   13.208897201   11.730233865 XXXX 1      pap     P   1.000
O19     20.906993813   11.689508296   11.531984552 XXXX 1      oap1    O  -0.800
O20     19.715896068   13.908200615   10.972288334 XXXX 1      oap1    O  -0.800
Ca9     19.322363876   10.332301345   10.367822506 XXXX 1      ca+h    Ca  1.500
P5      21.349339340    8.552121387   12.113634035 XXXX 1      pap     P   1.000
O21     22.496087666    9.369849528   12.725691035 XXXX 1      oap1    O  -0.800
O22     21.459289369    7.008717429   12.231023108 XXXX 1      oap1    O  -0.800
Ca10    24.127025558    8.264154464   14.019763546 XXXX 1      ca+h    Ca  1.500
P6      24.338865524   11.410192844   14.292124487 XXXX 1      pap     P   1.000
O23     23.246705418   12.184103910   13.563922393 XXXX 1      oap1    O  -0.800
O24     25.225079604   12.461041067   14.941546983 XXXX 1      oap1    O  -0.800
O25     17.708676613    8.402336917   10.643488922 XXXX 1      oap2    O  -1.100
O26     19.814747247    8.103934050    8.181515625 XXXX 1      oap2    O  -1.100
H1      17.173865049    8.182292952   11.396036658 XXXX 1      hop     H   0.200
H2      19.306775544    8.866521320    8.483987060 XXXX 1      hop     H   0.200
end
O1      17.818777961   10.995114335   12.288882017 XXXX 1      oap1    O  -0.800
O2      18.525348969   15.844182260   12.823669460 XXXX 1      oap1    O  -0.800
O3      14.952179604   14.335565043   10.139631157 XXXX 1      oap1    O  -0.800
O4      18.136505577   13.504293419   16.836403502 XXXX 1      oap1    O  -0.800
O5      17.229086045    8.832059914   16.137250649 XXXX 1      oap1    O  -0.800
O6      20.650111057   10.293496555   18.775576005 XXXX 1      oap1    O  -0.800
O7      16.591546194   13.589678404   18.792295250 XXXX 1      oap1    O  -0.800
O8      15.728800028    8.809254887   18.073586098 XXXX 1      oap1    O  -0.800
O9      19.555114672   10.316016246   20.991229929 XXXX 1      oap1    O  -0.800
O10     16.136792863   11.161598688   14.174712270 XXXX 1      oap1    O  -0.800
O11     16.994281977   15.616330819   14.893032728 XXXX 1      oap1    O  -0.800
O12     13.609036568   14.287950545   12.245899725 XXXX 1      oap1    O  -0.800
Ca1     21.008207269   11.024347547   13.977399951 XXXX 1      ca+h    Ca  1.500
Ca2     15.252307239   13.786483773   14.078077198 XXXX 1      ca+h    Ca  1.500
Ca3     13.152714810   13.671063194   16.775457079 XXXX 1      ca+h    Ca  1.500
Ca4     19.029248428   10.907318835   16.996769693 XXXX 1      ca+h    Ca  1.500
Ca5     15.438216970   10.291434204   11.958746665 XXXX 1      ca+h    Ca  1.500
P1      17.569274702   11.506665608   13.686635502 XXXX 1      pap     P   1.000
O13     17.631270074   13.024407374   13.627444324 XXXX 1      oap1    O  -0.800
O14     18.679385373   10.951568075   14.615446188 XXXX 1      oap1    O  -0.800
Ca6     19.297719901   14.255368234   14.895083693 XXXX 1      ca+h    Ca  1.500
P2      17.160139893   16.211791513   13.479973962 XXXX 1      pap     P   1.000
O15     16.058261845   15.604600825   12.549714552 XXXX 1      oap1    O  -0.800
O16     17.065035540   17.760235338   13.504842831 XXXX 1      oap1    O  -0.800
Ca7     14.396539277   16.539147588   11.388152779 XXXX 1      ca+h    Ca  1.500
P3      14.250379186   13.459548798   11.164998981 XXXX 1      pap     P   1.000
O17     15.230431752   12.561423638   11.865876807 XXXX 1      oap1    O  -0.800
O18     13.188760569   12.591536784   10.445899498 XXXX 1      oap1    O  -0.800
Ca8     18.936948573   14.456909663   19.114666818 XXXX 1      ca+h    Ca  1.500
P4      16.692704567   13.187898331   17.294370792 XXXX 1      pap     P   1.000
O19     16.572964530   11.628478621   17.269705425 XXXX 1      oap1    O  -0.800
O20     15.615570159   13.854255837   16.442347541 XXXX 1      oap1    O  -0.800
Ca9     15.104688970   10.170440603   16.076769812 XXXX 1      ca+h    Ca  1.500
P5      17.092848090    8.479537138   17.619789411 XXXX 1      pap     P   1.000
O21     18.100975906    9.188036202   18.474834922 XXXX 1      oap1    O  -0.800
O22     17.174998588    6.967149319   17.770716753 XXXX 1      oap1    O  -0.800
Ca10    19.896843890    8.161657258   19.781234149 XXXX 1      ca+h    Ca  1.500
P6      20.132147562   11.191807672   19.912669667 XXXX 1      pap     P   1.000
O23     18.991259519   11.978855761   19.247457751 XXXX 1      oap1    O  -0.800
O24     21.243964927   12.093777036   20.455647501 XXXX 1      oap1    O  -0.800
O25     13.795022624    8.090928280   16.119264874 XXXX 1      oap2    O  -1.100
O26     15.653809942    8.316984681   13.556955544 XXXX 1      oap2    O  -1.100
H1      13.548117501    8.578437542   16.936941402 XXXX 1      hop     H   0.200
H2      15.082978429    8.369592373   14.340635410 XXXX 1      hop     H   0.200
end
O1      13.593990931   10.895340035   17.777166143 XXXX 1      oap1    O  -0.800
O2      14.457093262   15.799996039   18.436419630 XXXX 1      oap1    O  -0.800
O3      10.715751750   14.271790398   15.517579026 XXXX 1      oap1    O  -0.800
O4      13.858361475   13.540918261   22.414621821 XXXX 1      oap1    O  -0.800
O5      13.076755162    8.991016376   21.810303027 XXXX 1      oap1    O  -0.800
O6      16.538255186   10.584500399   24.276725570 XXXX 1      oap1    O  -0.800
O7      12.347150105   13.512980086   24.372181461 XXXX 1      oap1    O  -0.800
O8      11.690177024    9.126480030   23.920234978 XXXX 1      oap1    O  -0.800
O9      15.506816221   10.202044595   26.538780447 XXXX 1      oap1    O  -0.800
O10     12.004749829   11.116588961   19.705896913 XXXX 1      oap1    O  -0.800
O11     12.855175720   15.579388335   20.324688062 XXXX 1      oap1    O  -0.800
O12      9.400235394   14.203896764   17.675059088 XXXX 1      oap1    O  -0.800
Ca1     16.894063525   10.989015809   19.699919798 XXXX 1      ca+h    Ca  1.500
Ca2     11.214192088   13.790488208   19.668936477 XXXX 1      ca+h    Ca  1.500
Ca3      9.043675368   13.747391950   22.423612847 XXXX 1      ca+h    Ca  1.500
Ca4     14.830999037   10.958068389   22.606368598 XXXX 1      ca+h    Ca  1.500
Ca5     11.227773638   10.179275006   17.562811581 XXXX 1      ca+h    Ca  1.500
P1      13.427901541   11.488199794   19.194647140 XXXX 1      pap     P   1.000
O13     13.544349106   13.057738285   19.084258561 XXXX 1      oap1    O  -0.800
O14     14.537490813   10.966594377   20.143352827 XXXX 1      oap1    O  -0.800
Ca6     15.108909047   14.185406189   20.516393429 XXXX 1      ca+h    Ca  1.500
P2      13.065235120   16.192859324   18.924016125 XXXX 1      pap     P   1.000
O15     12.028754222   15.539686344   18.067161721 XXXX 1      oap1    O  -0.800
O16     12.851807215   17.750964768   18.934026112 XXXX 1      oap1    O  -0.800
Ca7     10.262870893   16.481551550   16.899144231 XXXX 1      ca+h    Ca  1.500
P3      10.006874228   13.371751023   16.536099416 XXXX 1      pap     P   1.000
O17     11.097988734   12.566723284   17.172683771 XXXX 1      oap1    O  -0.800
O18      8.948536306   12.473433440   15.860824869 XXXX 1      oap1    O  -0.800
Ca8     14.666054183   14.576735289   24.608863437 XXXX 1      ca+h    Ca  1.500
P4      12.427019839   13.127037588   22.853290814 XXXX 1      pap     P   1.000
O19     12.343479648   11.620830887   22.827870483 XXXX 1      oap1    O  -0.800
O20     11.353560375   13.860008794   22.038858896 XXXX 1      oap1    O  -0.800
Ca9     10.841020512   10.332913317   21.648877374 XXXX 1      ca+h    Ca  1.500
P5      13.011799489    8.531934104   23.287124114 XXXX 1      pap     P   1.000
O21     14.126122019    9.204083211   24.027872868 XXXX 1      oap1    O  -0.800
O22     13.043583852    7.023127995   23.378291241 XXXX 1      oap1    O  -0.800
Ca10    15.776139380    8.228314734   25.433675003 XXXX 1      ca+h    Ca  1.500
P6      15.934960098   11.284167997   25.534397084 XXXX 1      pap     P   1.000
O23     14.752608001   12.204464194   25.067984304 XXXX 1      oap1    O  -0.800
O24     17.061315669   12.137837978   26.197114376 XXXX 1      oap1    O  -0.800
O25      9.590275502    8.310546559   21.826953342 XXXX 1      oap2    O  -1.100
O26     11.734624658    8.398415930   19.028852493 XXXX 1      oap2    O  -1.100
H1       9.303054487    8.129103404   22.716700722 XXXX 1      hop     H   0.200
H2      11.288120443    8.078252500   19.778176396 XXXX 1      hop     H   0.200
end
O1       9.289929988   11.006871936   23.394008134 XXXX 1      oap1    O  -0.800
O2      10.262385293   15.766809011   24.128949657 XXXX 1      oap1    O  -0.800
O3       6.579925822   14.397598373   21.307698260 XXXX 1      oap1    O  -0.800
O4       9.703908764   13.926853905   28.118375891 XXXX 1      oap1    O  -0.800
O5       9.034412451    9.168215284   27.441172532 XXXX 1      oap1    O  -0.800
O6      12.728239303   10.299260823   30.199685735 XXXX 1      oap1    O  -0.800
O7       8.290324206   13.533317932   30.102966612 XXXX 1      oap1    O  -0.800
O8       7.569209737    9.230286513   29.409969446 XXXX 1      oap1    O  -0.800
O9      11.130548712   10.618310701   31.989246774 XXXX 1      oap1    O  -0.800
O10      7.799264729   11.249533521   25.295633336 XXXX 1      oap1    O  -0.800
O11      8.706823587   15.612411768   26.047869831 XXXX 1      oap1    O  -0.800
O12      5.197369540   14.424680078   23.368964567 XXXX 1      oap1    O  -0.800
Ca1     12.678406832   11.046501412   25.204756444 XXXX 1      ca+h    Ca  1.500
Ca2      7.012795251   13.817041524   25.325984506 XXXX 1      ca+h    Ca  1.500
Ca3      4.912085319   13.851744518   28.029394114 XXXX 1      ca+h    Ca  1.500
Ca4     10.698832885   10.876073355   28.069884226 XXXX 1      ca+h    Ca  1.500
Ca5      6.993894370   10.376910286   23.066582953 XXXX 1      ca+h    Ca  1.500
P1       9.202723917   11.575932121   24.777957091 XXXX 1      pap     P   1.000
O13      9.208323141   13.129392205   24.744932602 XXXX 1      oap1    O  -0.800
O14     10.337403174   11.139414784   25.694097228 XXXX 1      oap1    O  -0.800
Ca6     10.907241166   14.165030465   26.053134622 XXXX 1      ca+h    Ca  1.500
P2       8.869284568   16.190717940   24.629320870 XXXX 1      pap     P   1.000
O15      7.835034664   15.655846782   23.697672298 XXXX 1      oap1    O  -0.800
O16      8.802240650   17.750110082   24.580772286 XXXX 1      oap1    O  -0.800
Ca7      5.961600670   16.626484549   22.418233611 XXXX 1      ca+h    Ca  1.500
P3       5.845656399   13.494541297   22.295280005 XXXX 1      pap     P   1.000
O17      6.963714006   12.662258021   22.985858144 XXXX 1      oap1    O  -0.800
O18      4.783039845   12.655488024   21.626319560 XXXX 1      oap1    O  -0.800
Ca8     10.671869679   14.531025253   30.219079006 XXXX 1      ca+h    Ca  1.500
P4       8.376816625   13.195166775   28.638323694 XXXX 1      pap     P   1.000
O19      8.498388357   11.685991444   28.501424496 XXXX 1      oap1    O  -0.800
O20      7.255656714   13.878249980   27.889131555 XXXX 1      oap1    O  -0.800
Ca9      6.807683777   10.394176647   27.339303323 XXXX 1      ca+h    Ca  1.500
P5       8.910125687    8.595714589   28.889924337 XXXX 1      pap     P   1.000
O21     10.125685749    9.069698922   29.644062000 XXXX 1      oap1    O  -0.800
O22      8.896109433    7.060420605   28.855621211 XXXX 1      oap1    O  -0.800
Ca10    11.805863573    8.208446911   31.090585509 XXXX 1      ca+h    Ca  1.500
P6      12.057540070   11.372773591   31.039912356 XXXX 1      pap     P   1.000
O23     11.100257651   12.222387804   30.197963453 XXXX 1      oap1    O  -0.800
O24     13.090763576   12.172116194   31.835719908 XXXX 1      oap1    O  -0.800
O25      5.521256895    8.315135868   27.415614373 XXXX 1      oap2    O  -1.100
O26      7.530374483    8.376738456   24.510791543 XXXX 1      oap2    O  -1.100
H1       4.832360724    8.361628896   28.030800554 XXXX 1      hop     H   0.200
H2       7.036056521    8.904634073   25.107810907 XXXX 1      hop     H   0.200
end
O1       5.440774331   11.037115514   29.091615500 XXXX 1      oap1    O  -0.800
O2       5.968682474   15.798362937   29.294402855 XXXX 1      oap1    O  -0.800
O3       2.318304740   14.392800008   26.847262382 XXXX 1      oap1    O  -0.800
O4       4.789412308   12.723513958   33.374277554 XXXX 1      oap1    O  -0.800
O5       5.401088778    9.006209678   32.843994780 XXXX 1      oap1    O  -0.800
O7       4.222393239   14.608369581   35.166475507 XXXX 1      oap1    O  -0.800
O8       2.961076200    8.497345979   33.220101974 XXXX 1      oap1    O  -0.800
O10      3.846250307   11.025645998   30.987729985 XXXX 1      oap1    O  -0.800
O11      4.578499405   15.673263566   31.354977474 XXXX 1      oap1    O  -0.800
O12      0.949406147   14.278416553   28.855829909 XXXX 1      oap1    O  -0.800
Ca1      8.765550707   11.110605143   30.959191005 XXXX 1      ca+h    Ca  1.500
Ca2      2.780971257   13.950675080   30.660785009 XXXX 1      ca+h    Ca  1.500
Ca3      0.637105791   13.855486684   33.480127907 XXXX 1      ca+h    Ca  1.500
Ca4      6.476402639   11.015539481   33.818514467 XXXX 1      ca+h    Ca  1.500
Ca5      2.903499448   10.288168943   28.831739212 XXXX 1      ca+h    Ca  1.500
P1       5.170803103   11.628413930   30.459976892 XXXX 1      pap     P   1.000
O13      5.002199774   13.148114678   30.278802772 XXXX 1      oap1    O  -0.800
O14      6.351580510   11.332181103   31.327988130 XXXX 1      oap1    O  -0.800
Ca6      6.434816859   14.037587579   31.841033160 XXXX 1      ca+h    Ca  1.500
P2       4.658239072   16.241811206   29.936064011 XXXX 1      pap     P   1.000
O15      3.567754039   15.530309667   29.154656483 XXXX 1      oap1    O  -0.800
O16      4.613301887   17.805721008   29.844890921 XXXX 1      oap1    O  -0.800
Ca7      1.792366994   16.673639182   28.003677973 XXXX 1      ca+h    Ca  1.500
P3       1.665778701   13.406671280   27.844681985 XXXX 1      pap     P   1.000
O17      2.808602245   12.597873636   28.509274674 XXXX 1      oap1    O  -0.800
O18      0.704324999   12.446463202   27.057303744 XXXX 1      oap1    O  -0.800
P4       3.684437712   13.548797613   34.162976300 XXXX 1      pap     P   1.000
O19      2.453384538   12.673904196   34.617486985 XXXX 1      oap1    O  -0.800
O20      2.967316981   14.321843520   33.062944378 XXXX 1      oap1    O  -0.800
Ca9      2.741286407   10.884471394   33.084440029 XXXX 1      ca+h    Ca  1.500
P5       4.352033790    8.603474659   33.856868360 XXXX 1      pap     P   1.000
O21      4.337732508    9.818876137   34.842023289 XXXX 1      oap1    O  -0.800
O22      4.681462690    7.230410429   34.507468615 XXXX 1      oap1    O  -0.800
O25      0.268718913    8.291867744   34.038079902 XXXX 1      oap2    O  -1.100
O26      3.401671963    8.188696744   29.910285567 XXXX 1      oap2    O  -1.100
H1       1.240980169    8.400211365   33.942637364 XXXX 1      hop     H   0.200
H2       3.060620397    8.026952500   30.790713952 XXXX 1      hop     H   0.200
end
O1      17.901296747   19.480534804    3.786971393 XXXX 1      oap1    O  -0.800
O2      18.925503825   23.892621781    4.132205763 XXXX 1      oap1    O  -0.800
O3      15.423699371   22.573302678    1.991854983 XXXX 1      oap1    O  -0.800
O4      18.359877171   21.602858882    8.364442299 XXXX 1      oap1    O  -0.800
O5      17.573893659   17.235782618    7.744902239 XXXX 1      oap1    O  -0.800
O6      21.247076589   18.452145608   10.632067691 XXXX 1      oap1    O  -0.800
O7      16.887211512   21.894276384   10.339859970 XXXX 1      oap1    O  -0.800
O8      16.231822158   17.107265145    9.751343501 XXXX 1      oap1    O  -0.800
O9      19.601838395   18.685713144   12.415893365 XXXX 1      oap1    O  -0.800
O10     16.556025036   19.217939970    5.690597372 XXXX 1      oap1    O  -0.800
O11     17.785171215   24.002955370    6.512111897 XXXX 1      oap1    O  -0.800
O12     14.012395009   22.455075635    4.035624629 XXXX 1      oap1    O  -0.800
Ca1     21.516293707   19.224602773    5.622106030 XXXX 1      ca+h    Ca  1.500
Ca2     15.527392189   21.799835337    5.644026649 XXXX 1      ca+h    Ca  1.500
Ca3     13.686017410   21.842739469    8.576020807 XXXX 1      ca+h    Ca  1.500
Ca4     19.302256738   19.146068885    8.379976290 XXXX 1      ca+h    Ca  1.500
Ca5     15.788699303   18.157453386    3.566400948 XXXX 1      ca+h    Ca  1.500
P1      17.908184072   19.799335693    5.278754293 XXXX 1      pap     P   1.000
O13     17.940291089   21.280714747    5.470883277 XXXX 1      oap1    O  -0.800
O14     19.154233249   19.124670653    5.968161032 XXXX 1      oap1    O  -0.800
Ca6     19.540688006   22.520851120    6.651594650 XXXX 1      ca+h    Ca  1.500
P2      17.708827954   24.420495402    4.956183365 XXXX 1      pap     P   1.000
O15     16.507150406   23.728998542    4.260836084 XXXX 1      oap1    O  -0.800
O16     17.681947019   25.985777638    4.854996400 XXXX 1      oap1    O  -0.800
Ca7     14.547887798   24.736263387    2.934529271 XXXX 1      ca+h    Ca  1.500
P3      14.506091122   21.638598530    2.844964257 XXXX 1      pap     P   1.000
O17     15.501873313   20.667868213    3.476677565 XXXX 1      oap1    O  -0.800
O18     13.485133068   20.829644226    2.054065163 XXXX 1      oap1    O  -0.800
Ca8     19.247254786   22.601330266   10.606495546 XXXX 1      ca+h    Ca  1.500
P4      16.929370406   21.303527737    8.905326375 XXXX 1      pap     P   1.000
O19     16.808243555   19.754703563    8.930022088 XXXX 1      oap1    O  -0.800
O20     15.845158702   22.001618455    7.981067370 XXXX 1      oap1    O  -0.800
Ca9     15.380667397   18.404525197    7.685581403 XXXX 1      ca+h    Ca  1.500
P5      17.550259994   16.707262315    9.163061300 XXXX 1      pap     P   1.000
O21     18.648808503   17.418272703    9.984109152 XXXX 1      oap1    O  -0.800
O22     17.607453638   15.163427226    9.188843340 XXXX 1      oap1    O  -0.800
Ca10    20.371651877   16.404946082   11.267840739 XXXX 1      ca+h    Ca  1.500
P6      20.468289256   19.440158482   11.489965083 XXXX 1      pap     P   1.000
O23     19.543558108   20.359141526   10.639956090 XXXX 1      oap1    O  -0.800
O24     21.352063467   20.344630412   12.320274675 XXXX 1      oap1    O  -0.800
O25     14.118704085   16.427026664    7.584805540 XXXX 1      oap2    O  -1.100
O26     16.179535241   16.212750641    4.962274855 XXXX 1      oap2    O  -1.100
H1      13.494716229   16.451953291    8.330764663 XXXX 1      hop     H   0.200
H2      15.754364164   16.603499714    5.736858742 XXXX 1      hop     H   0.200
end
O1      13.962608956   19.274368701    9.344423475 XXXX 1      oap1    O  -0.800
O2      14.732532665   23.742689753   10.090696735 XXXX 1      oap1    O  -0.800
O3      11.096135463   22.533384157    7.191393506 XXXX 1      oap1    O  -0.800
O4      14.288946181   21.712939379   14.016352535 XXXX 1      oap1    O  -0.800
O5      13.412680574   17.255518361   13.481066100 XXXX 1      oap1    O  -0.800
O6      17.277572074   18.329387633   16.450569477 XXXX 1      oap1    O  -0.800
O7      12.814039940   21.866220681   15.989326021 XXXX 1      oap1    O  -0.800
O8      12.075640643   17.137932180   15.561506325 XXXX 1      oap1    O  -0.800
O9      15.436591099   18.875864824   18.154568327 XXXX 1      oap1    O  -0.800
O10     12.514576977   18.967151149   11.482525682 XXXX 1      oap1    O  -0.800
O11     13.238086411   23.854175057   12.035731995 XXXX 1      oap1    O  -0.800
O12      9.668960617   22.456945170    9.256113030 XXXX 1      oap1    O  -0.800
Ca1     17.424484139   19.126018218   11.274990401 XXXX 1      ca+h    Ca  1.500
Ca2     11.447158899   21.804857494   11.174108576 XXXX 1      ca+h    Ca  1.500
Ca3      9.394238022   21.976166696   14.093475844 XXXX 1      ca+h    Ca  1.500
Ca4     15.213486188   19.302244813   14.010679211 XXXX 1      ca+h    Ca  1.500
Ca5     11.606179869   18.441193819    9.088004614 XXXX 1      ca+h    Ca  1.500
P1      13.827382474   19.572624267   10.907279850 XXXX 1      pap     P   1.000
O13     13.766302453   21.104346193   11.126351720 XXXX 1      oap1    O  -0.800
O14     15.053469371   19.039348286   11.682615266 XXXX 1      oap1    O  -0.800
Ca6     15.404664610   22.573142664   12.197447414 XXXX 1      ca+h    Ca  1.500
P2      13.411605755   24.280143107   10.542460319 XXXX 1      pap     P   1.000
O15     12.382096315   23.477667960    9.763331840 XXXX 1      oap1    O  -0.800
O16     13.227744291   25.809433468   10.542156727 XXXX 1      oap1    O  -0.800
Ca7     10.812229025   24.576426958    8.454037324 XXXX 1      ca+h    Ca  1.500
P3      10.397464369   21.597174754    8.236510715 XXXX 1      pap     P   1.000
O17     11.454022469   20.808290451    9.023317710 XXXX 1      oap1    O  -0.800
O18      9.410972116   20.576429205    7.483648692 XXXX 1      oap1    O  -0.800
Ca8     15.251642352   22.657369781   16.103655419 XXXX 1      ca+h    Ca  1.500
P4      12.908595354   21.349372165   14.564701617 XXXX 1      pap     P   1.000
O19     12.876029384   19.812042143   14.643141520 XXXX 1      oap1    O  -0.800
O20     11.786249119   21.965480025   13.640471339 XXXX 1      oap1    O  -0.800
Ca9     11.138035379   18.517508767   13.281281774 XXXX 1      ca+h    Ca  1.500
P5      13.368283957   16.757072290   14.894786597 XXXX 1      pap     P   1.000
O21     14.593104087   17.337756442   15.640000864 XXXX 1      oap1    O  -0.800
O22     13.501174027   15.195843128   14.881450926 XXXX 1      oap1    O  -0.800
Ca10    16.221989967   16.358229847   16.965609530 XXXX 1      ca+h    Ca  1.500
P6      16.451320687   19.471988260   17.126189302 XXXX 1      pap     P   1.000
O23     15.723982862   20.264726320   16.042740908 XXXX 1      oap1    O  -0.800
O24     17.463081600   20.355855961   17.952706170 XXXX 1      oap1    O  -0.800
O25     10.033755768   16.394057954   13.372428283 XXXX 1      oap2    O  -1.100
O26     12.235399733   16.371004793   10.183343536 XXXX 1      oap2    O  -1.100
H1       9.377763489   16.120800904   14.016348688 XXXX 1      hop     H   0.200
H2      11.540559035   16.098010922   10.844989589 XXXX 1      hop     H   0.200
end
O1       9.569610486   19.363301603   14.982874802 XXXX 1      oap1    O  -0.800
O2      10.555565226   23.869260301   15.557074109 XXXX 1      oap1    O  -0.800
O3       7.240990794   22.343426696   12.854619180 XXXX 1      oap1    O  -0.800
O4      10.142780113   21.664091364   19.535002625 XXXX 1      oap1    O  -0.800
O5       9.099550342   17.028096559   19.026634766 XXXX 1      oap1    O  -0.800
O6      13.096294851   18.455245990   21.849170590 XXXX 1      oap1    O  -0.800
O7       8.865588759   21.730980127   21.666598687 XXXX 1      oap1    O  -0.800
O8       7.781420618   17.306211328   21.085470023 XXXX 1      oap1    O  -0.800
O9      11.272769054   18.661086483   23.589224007 XXXX 1      oap1    O  -0.800
O10      8.342861346   19.164542128   17.097132272 XXXX 1      oap1    O  -0.800
O11      9.077149329   24.019865165   17.611238010 XXXX 1      oap1    O  -0.800
O12      5.531237465   22.735330542   14.709068761 XXXX 1      oap1    O  -0.800
Ca1     13.325947238   19.108803716   16.976654343 XXXX 1      ca+h    Ca  1.500
Ca2      7.344730721   21.769277539   16.966625032 XXXX 1      ca+h    Ca  1.500
Ca3      5.165359341   21.909234322   19.741457349 XXXX 1      ca+h    Ca  1.500
Ca4     11.079719472   19.201753037   19.551055247 XXXX 1      ca+h    Ca  1.500
Ca5      7.374133105   18.499017967   14.581213741 XXXX 1      ca+h    Ca  1.500
P1       9.624805267   19.717552671   16.443242455 XXXX 1      pap     P   1.000
O13      9.543769363   21.271766098   16.601573349 XXXX 1      oap1    O  -0.800
O14     10.819292628   19.133240769   17.187263824 XXXX 1      oap1    O  -0.800
Ca6     11.249453406   22.657814786   17.718543298 XXXX 1      ca+h    Ca  1.500
P2       9.203640135   24.426870579   16.090281236 XXXX 1      pap     P   1.000
O15      8.118953140   23.640280990   15.349685939 XXXX 1      oap1    O  -0.800
O16      9.171132857   25.958112772   15.994536633 XXXX 1      oap1    O  -0.800
Ca7      6.536188597   24.937712378   13.974921588 XXXX 1      ca+h    Ca  1.500
P3       6.300034500   21.695925132   13.895391817 XXXX 1      pap     P   1.000
O17      7.146371082   20.870019612   14.838062271 XXXX 1      oap1    O  -0.800
O18      5.215110167   20.725452909   13.224278019 XXXX 1      oap1    O  -0.800
Ca8     11.188425796   22.629714104   21.675845827 XXXX 1      ca+h    Ca  1.500
P4       8.829643518   21.268240784   20.181488553 XXXX 1      pap     P   1.000
O19      8.778311056   19.784782593   20.072080520 XXXX 1      oap1    O  -0.800
O20      7.651638598   21.933282224   19.414479556 XXXX 1      oap1    O  -0.800
Ca9      7.104012133   18.451958283   18.946730255 XXXX 1      ca+h    Ca  1.500
P5       9.150083645   16.724411015   20.562694979 XXXX 1      pap     P   1.000
O21     10.299494221   17.572490181   21.211855085 XXXX 1      oap1    O  -0.800
O22      9.312276978   15.188351826   20.582860359 XXXX 1      oap1    O  -0.800
Ca10    11.997571040   16.376975647   22.475904228 XXXX 1      ca+h    Ca  1.500
P6      12.251038750   19.494990816   22.640536754 XXXX 1      pap     P   1.000
O23     11.388514112   20.244333066   21.589514807 XXXX 1      oap1    O  -0.800
O24     13.132790298   20.504747505   23.459956829 XXXX 1      oap1    O  -0.800
O25      5.822552625   16.497774538   18.811304132 XXXX 1      oap2    O  -1.100
O26      8.130872546   16.434736981   15.832833566 XXXX 1      oap2    O  -1.100
H1       5.084485744   16.322797875   19.357812816 XXXX 1      hop     H   0.200
H2       7.210077895   16.310912508   16.072459422 XXXX 1      hop     H   0.200
end
O1       5.436541059   19.665483766   20.522410569 XXXX 1      oap1    O  -0.800
O2       6.401610314   23.784347140   21.106828189 XXXX 1      oap1    O  -0.800
O3       2.980824359   22.314577214   18.464445201 XXXX 1      oap1    O  -0.800
O4       6.013077628   21.807550085   25.249606535 XXXX 1      oap1    O  -0.800
O5       4.853234376   17.186447340   24.651366341 XXXX 1      oap1    O  -0.800
O6       8.910641228   18.523359677   27.579870037 XXXX 1      oap1    O  -0.800
O7       4.535199788   21.888525923   27.181520782 XXXX 1      oap1    O  -0.800
O8       3.657525233   17.265170124   26.799514275 XXXX 1      oap1    O  -0.800
O9       7.449894230   18.602850072   29.438839782 XXXX 1      oap1    O  -0.800
O10      4.125873038   19.063084769   22.534922592 XXXX 1      oap1    O  -0.800
O11      4.939767820   24.126232686   23.206205045 XXXX 1      oap1    O  -0.800
O12      1.213515602   22.601051584   20.193502220 XXXX 1      oap1    O  -0.800
Ca1      9.081314677   19.155085815   22.546426102 XXXX 1      ca+h    Ca  1.500
Ca2      2.991349020   21.960772503   22.401612886 XXXX 1      ca+h    Ca  1.500
Ca3      1.074838020   22.138655147   25.144736416 XXXX 1      ca+h    Ca  1.500
Ca4      6.925683322   19.280478408   25.274912081 XXXX 1      ca+h    Ca  1.500
Ca5      3.228574142   18.439416317   20.320815347 XXXX 1      ca+h    Ca  1.500
P1       5.409369430   19.811743901   22.067746991 XXXX 1      pap     P   1.000
O13      5.260888695   21.297778273   22.283077819 XXXX 1      oap1    O  -0.800
O14      6.724091011   19.315217460   22.729794667 XXXX 1      oap1    O  -0.800
Ca6      7.179991162   22.465991866   23.022684157 XXXX 1      ca+h    Ca  1.500
P2       5.062780046   24.367795685   21.644484217 XXXX 1      pap     P   1.000
O15      3.883995874   23.634680055   20.999291147 XXXX 1      oap1    O  -0.800
O16      5.054717985   25.947966831   21.464487387 XXXX 1      oap1    O  -0.800
Ca7      2.203161976   24.645026514   19.595743572 XXXX 1      ca+h    Ca  1.500
P3       2.011547333   21.576412404   19.420611548 XXXX 1      pap     P   1.000
O17      2.859206203   20.763317385   20.395120000 XXXX 1      oap1    O  -0.800
O18      1.144505172   20.626283288   18.564102949 XXXX 1      oap1    O  -0.800
Ca8      6.882323058   22.672073682   27.336477150 XXXX 1      ca+h    Ca  1.500
P4       4.594295322   21.416287236   25.686953934 XXXX 1      pap     P   1.000
O19      4.576477171   19.840355902   25.672602419 XXXX 1      oap1    O  -0.800
O20      3.496461499   22.024077810   24.787062081 XXXX 1      oap1    O  -0.800
Ca9      2.980266374   18.606722947   24.548511982 XXXX 1      ca+h    Ca  1.500
P5       4.930694610   16.792063389   26.079405760 XXXX 1      pap     P   1.000
O21      6.126961692   17.460087403   26.699244394 XXXX 1      oap1    O  -0.800
O22      5.022181605   15.247488517   26.134010798 XXXX 1      oap1    O  -0.800
Ca10     7.839723914   16.385506656   28.129422331 XXXX 1      ca+h    Ca  1.500
P6       8.089802780   19.486069864   28.434175067 XXXX 1      pap     P   1.000
O23      6.997745947   20.194618081   27.551359240 XXXX 1      oap1    O  -0.800
O24      9.089477328   20.447484613   29.091628157 XXXX 1      oap1    O  -0.800
O25      1.717094365   16.524780729   24.557310956 XXXX 1      oap2    O  -1.100
O26      3.708266564   16.515934398   21.519367614 XXXX 1      oap2    O  -1.100
H1       0.952536639   16.235988677   25.043492275 XXXX 1      hop     H   0.200
H2       3.448519836   16.945287878   22.305786386 XXXX 1      hop     H   0.200
end
O1       1.455454028   19.260135274   26.097079569 XXXX 1      oap1    O  -0.800
O2       2.218046281   23.962179133   26.680232509 XXXX 1      oap1    O  -0.800
O4       1.918437083   21.639401494   30.584128113 XXXX 1      oap1    O  -0.800
O5       1.114860771   17.234964883   30.264292366 XXXX 1      oap1    O  -0.800
O6       4.469492269   18.480724233   32.635240082 XXXX 1      oap1    O  -0.800
O7       0.614207959   21.760112602   32.674208651 XXXX 1      oap1    O  -0.800
O8      -0.447184748   17.155174298   32.234496141 XXXX 1      oap1    O  -0.800
O9       2.936124415   18.334854274   34.634450476 XXXX 1      oap1    O  -0.800
O10     -0.076911732   19.341301158   28.010509283 XXXX 1      oap1    O  -0.800
O11      0.711264547   23.937591822   28.773882724 XXXX 1      oap1    O  -0.800
Ca1      4.839234618   19.248315730   27.967414102 XXXX 1      ca+h    Ca  1.500
Ca4      2.956111605   19.341002169   30.821721410 XXXX 1      ca+h    Ca  1.500
P1       1.318747205   19.797910177   27.496204886 XXXX 1      pap     P   1.000
O13      1.315862502   21.343583206   27.428733612 XXXX 1      oap1    O  -0.800
O14      2.455700875   19.240390439   28.408508205 XXXX 1      oap1    O  -0.800
Ca6      2.896166421   22.664291887   28.647636673 XXXX 1      ca+h    Ca  1.500
P2       0.850374181   24.407958396   27.284882356 XXXX 1      pap     P   1.000
O15     -0.214022118   23.748125790   26.479460806 XXXX 1      oap1    O  -0.800
O16      0.820937830   25.965484731   27.172643876 XXXX 1      oap1    O  -0.800
Ca8      2.707242820   22.886707827   32.861718249 XXXX 1      ca+h    Ca  1.500
P4       0.625734623   21.297897409   31.211527657 XXXX 1      pap     P   1.000
O19      0.651609564   19.742199047   31.271998623 XXXX 1      oap1    O  -0.800
O20     -0.644573551   21.880635110   30.519472430 XXXX 1      oap1    O  -0.800
P5       0.867412466   16.638689290   31.618851783 XXXX 1      pap     P   1.000
O21      1.935889723   17.117588059   32.543468967 XXXX 1      oap1    O  -0.800
O22      0.816050071   15.087041734   31.537141269 XXXX 1      oap1    O  -0.800
Ca10     4.175037890   16.403374832   33.674086407 XXXX 1      ca+h    Ca  1.500
P6       3.903511348   19.317076317   33.819795135 XXXX 1      pap     P   1.000
O23      2.958304953   20.377750692   33.153542614 XXXX 1      oap1    O  -0.800
O24      5.135863054   19.892974291   34.554848327 XXXX 1      oap1    O  -0.800
O26     -0.343253319   16.560031510   27.105688346 XXXX 1      oap2    O  -1.100
H2      -1.225562735   16.879589355   27.296656489 XXXX 1      hop     H   0.200
end
O1      14.651038643   26.645443773    1.543172262 XXXX 1      oap1    O  -0.800
O2      15.520709661   31.970107886    1.908063912 XXXX 1      oap1    O  -0.800
O4      14.751434744   29.805177365    5.917645536 XXXX 1      oap1    O  -0.800
O5      14.299397723   25.251922533    5.208099151 XXXX 1      oap1    O  -0.800
O6      17.351635194   26.839422047    7.649819520 XXXX 1      oap1    O  -0.800
O7      13.156038659   30.088285132    7.722367180 XXXX 1      oap1    O  -0.800
O8      12.330838980   25.217982995    6.735311735 XXXX 1      oap1    O  -0.800
O9      16.120870508   26.742031350    9.760759719 XXXX 1      oap1    O  -0.800
O10     13.389116688   28.038229263    3.335459855 XXXX 1      oap1    O  -0.800
O11     13.914702992   31.772455637    3.741851939 XXXX 1      oap1    O  -0.800
Ca1     17.676342199   27.568116105    3.105700965 XXXX 1      ca+h    Ca  1.500
Ca2     12.118712180   30.143712457    2.928490032 XXXX 1      ca+h    Ca  1.500
Ca3      9.852151136   29.955630642    5.694443037 XXXX 1      ca+h    Ca  1.500
Ca4     15.710968866   27.254667506    5.910935949 XXXX 1      ca+h    Ca  1.500
P1      14.720828753   27.678471892    2.696088133 XXXX 1      pap     P   1.000
O13     15.766674075   28.763759309    2.501962263 XXXX 1      oap1    O  -0.800
O14     15.516130837   26.890376751    3.730179340 XXXX 1      oap1    O  -0.800
Ca6     16.006999106   30.658688386    3.883930169 XXXX 1      ca+h    Ca  1.500
P2      14.113370896   32.295527030    2.266215584 XXXX 1      pap     P   1.000
O15     13.003533540   31.690023382    1.378883552 XXXX 1      oap1    O  -0.800
O16     14.025301434   33.782370801    2.320806523 XXXX 1      oap1    O  -0.800
Ca8     15.658755132   30.921317599    7.877031047 XXXX 1      ca+h    Ca  1.500
P4      13.364602548   29.446687537    6.386291213 XXXX 1      pap     P   1.000
O19     13.317488992   27.985886895    6.448137928 XXXX 1      oap1    O  -0.800
O20     12.340570630   29.969665989    5.386067492 XXXX 1      oap1    O  -0.800
Ca9     11.981713491   27.000382381    4.840349887 XXXX 1      ca+h    Ca  1.500
P5      13.792325438   24.814959337    6.596898329 XXXX 1      pap     P   1.000
O21     14.553030265   25.435595364    7.727268031 XXXX 1      oap1    O  -0.800
O22     13.836398511   23.273527252    6.726018131 XXXX 1      oap1    O  -0.800
Ca10    16.589426074   24.415160194    8.614271687 XXXX 1      ca+h    Ca  1.500
P6      16.829054209   27.696144524    8.779647371 XXXX 1      pap     P   1.000
O23     15.691865023   28.548128143    8.199415550 XXXX 1      oap1    O  -0.800
O24     17.968020673   28.528419069    9.462537233 XXXX 1      oap1    O  -0.800
O25      9.304327684   24.479057624    6.115817213 XXXX 1      oap2    O  -1.100
O26     11.831503545   24.838825749    3.712825629 XXXX 1      oap2    O  -1.100
H1      10.115112448   24.943603427    5.900326647 XXXX 1      hop     H   0.200
H2      12.159374497   24.634670589    2.863624574 XXXX 1      hop     H   0.200
end
O1      10.267318300   27.549071697    6.529240832 XXXX 1      oap1    O  -0.800
O2      10.939720859   32.000687762    7.007501525 XXXX 1      oap1    O  -0.800
O3       7.208506510   30.565778893    4.577621181 XXXX 1      oap1    O  -0.800
O4      10.599644380   29.943984387   11.165153872 XXXX 1      oap1    O  -0.800
O5       9.898574297   25.376031551   10.743798145 XXXX 1      oap1    O  -0.800
O6      13.374602059   26.841753738   13.287123953 XXXX 1      oap1    O  -0.800
O7       9.193956602   30.006621377   13.126292121 XXXX 1      oap1    O  -0.800
O8       8.202072016   25.303633952   12.430938813 XXXX 1      oap1    O  -0.800
O9      11.956722587   26.872046151   15.287962933 XXXX 1      oap1    O  -0.800
O10      8.931777129   27.064200574    8.527990403 XXXX 1      oap1    O  -0.800
O11      9.566036125   32.007728520    9.119752406 XXXX 1      oap1    O  -0.800
O12      5.999181612   30.618094471    6.732452871 XXXX 1      oap1    O  -0.800
Ca1     13.640145841   27.534041547    8.789609225 XXXX 1      ca+h    Ca  1.500
Ca2      7.813793954   30.181911520    8.579228173 XXXX 1      ca+h    Ca  1.500
Ca3      5.720730178   29.958451394   11.219913020 XXXX 1      ca+h    Ca  1.500
Ca4     11.504223068   27.344329837   11.414332738 XXXX 1      ca+h    Ca  1.500
Ca5      7.783665192   26.412413526    6.463720265 XXXX 1      ca+h    Ca  1.500
P1      10.224450553   27.805959536    8.070231670 XXXX 1      pap     P   1.000
O13     10.059922140   29.309045063    8.400765329 XXXX 1      oap1    O  -0.800
O14     11.265804905   27.135611663    9.020861209 XXXX 1      oap1    O  -0.800
Ca6     11.672047216   30.754014818    9.284123752 XXXX 1      ca+h    Ca  1.500
P2       9.634644138   32.471377040    7.660005890 XXXX 1      pap     P   1.000
O15      8.497239951   31.780537952    6.927011297 XXXX 1      oap1    O  -0.800
O16      9.611529700   34.027010215    7.612340158 XXXX 1      oap1    O  -0.800
Ca7      6.768861055   32.774200236    5.632781224 XXXX 1      ca+h    Ca  1.500
P3       6.546537151   29.727661855    5.650981505 XXXX 1      pap     P   1.000
O17      7.539266746   28.806541740    6.338556336 XXXX 1      oap1    O  -0.800
O18      5.408364807   28.859952033    4.969944610 XXXX 1      oap1    O  -0.800
Ca8     11.527856507   31.002991748   13.421170187 XXXX 1      ca+h    Ca  1.500
P4       9.218693510   29.562010046   11.692067761 XXXX 1      pap     P   1.000
O19      9.025335483   28.034783647   11.723856644 XXXX 1      oap1    O  -0.800
O20      8.067430457   30.322019859   11.018961934 XXXX 1      oap1    O  -0.800
Ca9      7.688222850   26.667762363   10.438000963 XXXX 1      ca+h    Ca  1.500
P5       9.613276394   24.984946547   12.169136110 XXXX 1      pap     P   1.000
O21     10.575705683   25.720613402   13.155043477 XXXX 1      oap1    O  -0.800
O22      9.778396352   23.484004508   12.260191278 XXXX 1      oap1    O  -0.800
Ca10    12.338658188   24.488311353   14.182006786 XXXX 1      ca+h    Ca  1.500
P6      12.705925861   27.759993520   14.309792951 XXXX 1      pap     P   1.000
O23     11.635802503   28.614792330   13.569621135 XXXX 1      oap1    O  -0.800
O24     13.725854287   28.640515506   15.054883430 XXXX 1      oap1    O  -0.800
O25      4.949861439   24.559611549   12.171141631 XXXX 1      oap2    O  -1.100
O26      7.051311747   24.639267172    9.358404965 XXXX 1      oap2    O  -1.100
H1       5.294716544   24.456664443   11.309907979 XXXX 1      hop     H   0.200
H2       7.508939409   24.173092249    8.681488394 XXXX 1      hop     H   0.200
end
O1       6.172882731   27.413380444   12.203997285 XXXX 1      oap1    O  -0.800
O2       6.951729959   32.088168844   12.856340699 XXXX 1      oap1    O  -0.800
O3       3.027920189   30.825891471   10.185498342 XXXX 1      oap1    O  -0.800
O4       6.424493091   29.912409408   16.840034749 XXXX 1      oap1    O  -0.800
O5       5.586718432   25.339676755   16.133343874 XXXX 1      oap1    O  -0.800
O6       8.986854821   26.746136751   18.770118092 XXXX 1      oap1    O  -0.800
O7       4.856873906   29.798194851   18.717366709 XXXX 1      oap1    O  -0.800
O8       3.966849277   25.127507889   18.082731975 XXXX 1      oap1    O  -0.800
O9       7.942370921   26.693151093   21.010748187 XXXX 1      oap1    O  -0.800
O10      4.631627932   27.446289696   14.115222708 XXXX 1      oap1    O  -0.800
O11      5.420051551   32.027551447   14.791889888 XXXX 1      oap1    O  -0.800
O12      1.756525674   30.726009341   12.285661543 XXXX 1      oap1    O  -0.800
Ca1      9.514198639   27.537557606   14.157736248 XXXX 1      ca+h    Ca  1.500
Ca2      3.513294815   30.054493312   13.983284429 XXXX 1      ca+h    Ca  1.500
Ca3      1.592059372   30.002550581   16.941072816 XXXX 1      ca+h    Ca  1.500
Ca4      7.340533573   27.239445241   16.883109745 XXXX 1      ca+h    Ca  1.500
Ca5      3.612665636   26.613398687   12.023395242 XXXX 1      ca+h    Ca  1.500
P1       5.959675448   27.942110107   13.598105802 XXXX 1      pap     P   1.000
O13      5.946984720   29.443058243   13.533413943 XXXX 1      oap1    O  -0.800
O14      7.103159035   27.504345131   14.504583268 XXXX 1      oap1    O  -0.800
Ca6      7.624104027   30.643737048   14.845116763 XXXX 1      ca+h    Ca  1.500
P2       5.541332411   32.466746599   13.329149143 XXXX 1      pap     P   1.000
O15      4.572605873   31.601955403   12.511909230 XXXX 1      oap1    O  -0.800
O16      5.255526303   33.956655955   13.189694703 XXXX 1      oap1    O  -0.800
Ca7      2.665333467   32.907825594   11.225784781 XXXX 1      ca+h    Ca  1.500
P3       2.375370145   29.788528651   11.227001751 XXXX 1      pap     P   1.000
O17      3.484513884   28.904353811   11.840844228 XXXX 1      oap1    O  -0.800
O18      1.286166353   28.888604177   10.524764779 XXXX 1      oap1    O  -0.800
Ca8      7.277780051   30.918601296   19.020813847 XXXX 1      ca+h    Ca  1.500
P4       5.001617305   29.483292800   17.259759916 XXXX 1      pap     P   1.000
O19      4.807414966   27.964211560   17.105234985 XXXX 1      oap1    O  -0.800
O20      3.925768823   30.329625231   16.471052253 XXXX 1      oap1    O  -0.800
Ca9      3.303803713   26.571920581   16.050279423 XXXX 1      ca+h    Ca  1.500
P5       5.399978867   24.845234492   17.613123274 XXXX 1      pap     P   1.000
O21      6.341232461   25.721609724   18.468989131 XXXX 1      oap1    O  -0.800
O22      5.692901253   23.329615490   17.813832466 XXXX 1      oap1    O  -0.800
Ca10     8.192908255   24.503566429   19.669465585 XXXX 1      ca+h    Ca  1.500
P6       8.489687781   27.620455465   19.900373804 XXXX 1      pap     P   1.000
O23      7.323448665   28.435440577   19.330138017 XXXX 1      oap1    O  -0.800
O24      9.542581741   28.542429657   20.523974081 XXXX 1      oap1    O  -0.800
O25      0.883531931   24.736884611   17.632238838 XXXX 1      oap2    O  -1.100
O26      3.095337111   24.529572682   14.794501086 XXXX 1      oap2    O  -1.100
H1       1.018177870   24.392505613   16.742184374 XXXX 1      hop     H   0.200
H2       3.624885944   24.439091720   13.991705231 XXXX 1      hop     H   0.200
end
O1       1.890339266   27.680574909   17.751768119 XXXX 1      oap1    O  -0.800
O2       2.784235192   32.239108525   18.518721308 XXXX 1      oap1    O  -0.800
O4       2.164016606   30.492323247   22.582321286 XXXX 1      oap1    O  -0.800
O5       1.561212051   25.494889850   21.806812049 XXXX 1      oap1    O  -0.800
O6       4.887756745   26.588171647   24.386736701 XXXX 1      oap1    O  -0.800
O7       0.579498152   29.997292403   24.459636501 XXXX 1      oap1    O  -0.800
O8      -0.249589242   25.418294536   23.613345808 XXXX 1      oap1    O  -0.800
O9       3.811326062   26.715272712   26.582908929 XXXX 1      oap1    O  -0.800
O10      0.324410158   27.440293244   19.624358391 XXXX 1      oap1    O  -0.800
O11      1.385201201   32.107238102   20.463949355 XXXX 1      oap1    O  -0.800
Ca1      5.191850443   27.462613302   19.589862284 XXXX 1      ca+h    Ca  1.500
Ca4      3.205669673   27.215922195   22.469079806 XXXX 1      ca+h    Ca  1.500
P1       1.710204725   27.927197588   19.246784657 XXXX 1      pap     P   1.000
O13      1.808541589   29.442786182   19.361064000 XXXX 1      oap1    O  -0.800
O14      2.831644008   27.239982872   20.087044966 XXXX 1      oap1    O  -0.800
Ca6      3.376642611   30.792496214   20.418061561 XXXX 1      ca+h    Ca  1.500
P2       1.400852584   32.671798962   19.032015030 XXXX 1      pap     P   1.000
O15      0.380678846   31.883261965   18.180770570 XXXX 1      oap1    O  -0.800
O16      1.169430951   34.199291732   19.064709939 XXXX 1      oap1    O  -0.800
Ca8      3.127304325   30.958896117   24.652327463 XXXX 1      ca+h    Ca  1.500
P4       0.866713362   29.703517163   22.944389687 XXXX 1      pap     P   1.000
O19      1.119107697   28.198202320   22.928299663 XXXX 1      oap1    O  -0.800
O20     -0.332166152   30.073931068   22.033601671 XXXX 1      oap1    O  -0.800
P5       1.162943086   24.907027842   23.191000544 XXXX 1      pap     P   1.000
O21      2.113202781   25.574862446   24.153009453 XXXX 1      oap1    O  -0.800
O22      1.336244990   23.366827359   23.207841944 XXXX 1      oap1    O  -0.800
Ca10     4.026221849   24.515740173   25.319690945 XXXX 1      ca+h    Ca  1.500
P6       4.439811088   27.582968957   25.468889892 XXXX 1      pap     P   1.000
O23      3.379341305   28.527171958   24.849274687 XXXX 1      oap1    O  -0.800
O24      5.572515232   28.412657521   26.087389119 XXXX 1      oap1    O  -0.800
O26     33.802706362   24.856775776   20.496140282 XXXX 1      oap2    O  -1.100
H2      34.294513419   25.311248025   19.788910224 XXXX 1      hop     H   0.200
end
O1      33.000581767    2.846363737   15.072631811 XXXX 1      oap1    O  -0.800
O2      33.897101525    7.684736535   15.468095189 XXXX 1      oap1    O  -0.800
O3      30.445252368    6.121019517   12.934047175 XXXX 1      oap1    O  -0.800
O4      33.438741064    5.450008088   19.609443218 XXXX 1      oap1    O  -0.800
O7      32.057073115    5.322389252   21.730073347 XXXX 1      oap1    O  -0.800
O10     31.660637862    3.183500448   17.166754994 XXXX 1      oap1    O  -0.800
O11     32.653833226    7.660937659   17.670473247 XXXX 1      oap1    O  -0.800
O12     28.834398848    6.237956886   14.798804196 XXXX 1      oap1    O  -0.800
Ca2     30.646695552    5.652934418   17.010319569 XXXX 1      ca+h    Ca  1.500
Ca3     28.574241326    5.747301419   19.769679040 XXXX 1      ca+h    Ca  1.500
Ca4     34.387069715    2.920406723   19.745530547 XXXX 1      ca+h    Ca  1.500
Ca5     30.554194838    2.180277696   14.860771053 XXXX 1      ca+h    Ca  1.500
P1      32.989057563    3.478812977   16.489242932 XXXX 1      pap     P   1.000
O13     33.061101335    5.002988323   16.399955154 XXXX 1      oap1    O  -0.800
O14     34.182813310    2.881681324   17.360204695 XXXX 1      oap1    O  -0.800
Ca6     34.620443590    6.125554917   17.704294417 XXXX 1      ca+h    Ca  1.500
P2      32.649270189    8.113633182   16.187036366 XXXX 1      pap     P   1.000
O15     31.457336348    7.375703435   15.517780214 XXXX 1      oap1    O  -0.800
O16     32.338919897    9.579670379   16.075496725 XXXX 1      oap1    O  -0.800
Ca7     29.823116471    8.542862352   14.168227013 XXXX 1      ca+h    Ca  1.500
P3      29.647742252    5.328035728   13.970782151 XXXX 1      pap     P   1.000
O17     30.754106910    4.591148805   14.808991517 XXXX 1      oap1    O  -0.800
O18     28.768707672    4.280688747   13.313898031 XXXX 1      oap1    O  -0.800
Ca8     34.360762392    6.275815391   21.982854260 XXXX 1      ca+h    Ca  1.500
P4      32.088718804    5.081231412   20.230116629 XXXX 1      pap     P   1.000
O19     32.144649165    3.549062356   20.134771952 XXXX 1      oap1    O  -0.800
O20     30.918506531    5.671642224   19.461568087 XXXX 1      oap1    O  -0.800
Ca9     30.500278731    2.247516465   18.958705409 XXXX 1      ca+h    Ca  1.500
end
O1      29.057187513    2.736345788   20.744125472 XXXX 1      oap1    O  -0.800
O2      29.620927897    7.659486744   21.088921028 XXXX 1      oap1    O  -0.800
O3      26.330981953    6.133463194   18.651627335 XXXX 1      oap1    O  -0.800
O4      29.409244146    5.304732218   25.230709833 XXXX 1      oap1    O  -0.800
O6      32.077729468    2.219927922   27.519843585 XXXX 1      oap1    O  -0.800
O7      27.971628825    5.771636084   27.211409782 XXXX 1      oap1    O  -0.800
O9      30.783896757    2.401200889   29.605865072 XXXX 1      oap1    O  -0.800
O10     27.477259457    2.983419353   22.652002129 XXXX 1      oap1    O  -0.800
O11     28.592546587    7.718253199   23.256966516 XXXX 1      oap1    O  -0.800
O12     24.660489008    6.076795654   20.494531036 XXXX 1      oap1    O  -0.800
Ca1     32.466108979    3.021704314   22.600375160 XXXX 1      ca+h    Ca  1.500
Ca2     26.432045316    5.520898735   22.464984849 XXXX 1      ca+h    Ca  1.500
Ca3     24.432033509    5.614888436   25.415862826 XXXX 1      ca+h    Ca  1.500
Ca4     30.352910498    2.933815512   25.473624805 XXXX 1      ca+h    Ca  1.500
Ca5     26.652963354    2.083240948   20.383671180 XXXX 1      ca+h    Ca  1.500
P1      28.910276854    3.396805326   22.124614196 XXXX 1      pap     P   1.000
O13     28.993208370    4.917880042   22.000277140 XXXX 1      oap1    O  -0.800
O14     30.071542333    2.874531407   23.007871644 XXXX 1      oap1    O  -0.800
Ca6     30.486117360    6.194181105   23.275031577 XXXX 1      ca+h    Ca  1.500
P2      28.422557961    8.112935525   21.807581584 XXXX 1      pap     P   1.000
O15     27.222811426    7.350652070   21.187431744 XXXX 1      oap1    O  -0.800
O16     28.312985319    9.643177050   21.725131187 XXXX 1      oap1    O  -0.800
Ca7     25.597944603    8.388784622   19.704859076 XXXX 1      ca+h    Ca  1.500
P3      25.497921200    5.231080505   19.523391712 XXXX 1      pap     P   1.000
O17     26.401152003    4.360020261   20.367305669 XXXX 1      oap1    O  -0.800
O18     24.454036119    4.421548852   18.719421326 XXXX 1      oap1    O  -0.800
Ca8     30.310642939    6.424733705   27.377870230 XXXX 1      ca+h    Ca  1.500
P4      28.034733334    5.121759232   25.839005610 XXXX 1      pap     P   1.000
O19     27.917676949    3.606746074   25.966894442 XXXX 1      oap1    O  -0.800
O20     26.901945314    5.661738037   24.870953352 XXXX 1      oap1    O  -0.800
Ca9     26.385496028    2.163042252   24.607262605 XXXX 1      ca+h    Ca  1.500
P6      31.420069110    3.200562454   28.478421290 XXXX 1      pap     P   1.000
O23     30.336940254    3.942664101   27.614699066 XXXX 1      oap1    O  -0.800
O24     32.398975952    4.232820412   29.068868814 XXXX 1      oap1    O  -0.800
end
O1      24.824143249    2.812992722   26.376809182 XXXX 1      oap1    O  -0.800
O2      25.574443352    7.614748655   26.828628210 XXXX 1      oap1    O  -0.800
O3      22.122040256    6.184842157   24.170206690 XXXX 1      oap1    O  -0.800
O4      25.240608457    5.406127222   30.802365301 XXXX 1      oap1    O  -0.800
O6      27.928230236    2.335689350   32.912659904 XXXX 1      oap1    O  -0.800
O7      23.896047784    5.291454737   32.895985971 XXXX 1      oap1    O  -0.800
O9      26.288517195    2.297206853   34.691027718 XXXX 1      oap1    O  -0.800
O10     23.233988144    3.114628633   28.243822246 XXXX 1      oap1    O  -0.800
O11     24.096610083    7.459173495   28.809783765 XXXX 1      oap1    O  -0.800
O12     20.358244647    6.269015509   25.993220437 XXXX 1      oap1    O  -0.800
Ca1     28.176451649    2.775532561   28.224848193 XXXX 1      ca+h    Ca  1.500
Ca2     22.441148575    5.486789307   28.181929489 XXXX 1      ca+h    Ca  1.500
Ca3     20.023071610    5.678345101   30.872264699 XXXX 1      ca+h    Ca  1.500
Ca4     26.386719573    3.140362264   31.010399097 XXXX 1      ca+h    Ca  1.500
Ca5     22.370645626    2.225679332   26.007285762 XXXX 1      ca+h    Ca  1.500
P1      24.714303687    3.364201639   27.811652166 XXXX 1      pap     P   1.000
O13     24.784900004    4.923512654   27.773172154 XXXX 1      oap1    O  -0.800
O14     25.787562860    2.668992937   28.758953176 XXXX 1      oap1    O  -0.800
Ca6     26.377754994    6.358244978   28.981349401 XXXX 1      ca+h    Ca  1.500
P2      24.198277497    8.061845571   27.339117635 XXXX 1      pap     P   1.000
O15     23.139746640    7.269397859   26.530180502 XXXX 1      oap1    O  -0.800
O16     23.974295704    9.588408364   27.303571134 XXXX 1      oap1    O  -0.800
Ca7     21.525439339    8.413104203   25.365142946 XXXX 1      ca+h    Ca  1.500
P3      21.191543929    5.303134200   25.073318419 XXXX 1      pap     P   1.000
O17     22.142034180    4.551700664   26.068122193 XXXX 1      oap1    O  -0.800
O18     20.207687528    4.409586627   24.205315845 XXXX 1      oap1    O  -0.800
Ca8     25.967904913    6.549545773   32.967592164 XXXX 1      ca+h    Ca  1.500
P4      23.916808980    4.927183116   31.367644708 XXXX 1      pap     P   1.000
O19     23.887473675    3.438035493   31.234128424 XXXX 1      oap1    O  -0.800
O20     22.721813401    5.654440106   30.684443943 XXXX 1      oap1    O  -0.800
Ca9     22.143206273    2.183880377   30.090899231 XXXX 1      ca+h    Ca  1.500
P6      27.280199556    3.200233711   33.982597317 XXXX 1      pap     P   1.000
O23     26.359878445    4.226685005   33.282549219 XXXX 1      oap1    O  -0.800
O24     28.316362738    3.961480908   34.820214526 XXXX 1      oap1    O  -0.800
end
O1      20.869180448    3.409909899   31.632385258 XXXX 1      oap1    O  -0.800
O2      21.340668128    7.528300306   32.190561293 XXXX 1      oap1    O  -0.800
O3      17.871524021    6.118994467   29.822733874 XXXX 1      oap1    O  -0.800
O10     19.976036735    2.278098703   33.563654538 XXXX 1      oap1    O  -0.800
O11     20.517662037    7.811320694   34.488445383 XXXX 1      oap1    O  -0.800
O12     16.423093411    6.383774314   31.720266379 XXXX 1      oap1    O  -0.800
Ca1     24.230966710    2.858449242   33.536249198 XXXX 1      ca+h    Ca  1.500
Ca2     17.898122514    5.718150958   33.841918989 XXXX 1      ca+h    Ca  1.500
Ca5     18.424621683    2.075665509   31.647510675 XXXX 1      ca+h    Ca  1.500
P1      20.727765375    3.554287469   33.097331573 XXXX 1      pap     P   1.000
O13     19.962553452    4.868528908   33.434525750 XXXX 1      oap1    O  -0.800
O14     22.085520991    3.609064437   33.811332746 XXXX 1      oap1    O  -0.800
Ca6     22.062945822    6.109544714   34.047317049 XXXX 1      ca+h    Ca  1.500
P2      20.215099869    8.143923419   33.000541884 XXXX 1      pap     P   1.000
O15     18.858592530    7.529056886   32.498632222 XXXX 1      oap1    O  -0.800
O16     20.227538693    9.764104104   32.852043348 XXXX 1      oap1    O  -0.800
Ca7     17.457922033    8.579222669   31.047731779 XXXX 1      ca+h    Ca  1.500
P3      17.060559843    5.354873236   30.800152084 XXXX 1      pap     P   1.000
O17     18.054554997    4.417162105   31.573896961 XXXX 1      oap1    O  -0.800
O18     16.028329794    4.501941046   30.016405077 XXXX 1      oap1    O  -0.800
end
O1      34.000390610   11.447601956    6.434250109 XXXX 1      oap1    O  -0.800
O2      34.331930247   15.685218863    7.404647909 XXXX 1      oap1    O  -0.800
O3      30.481747136   14.459988978    4.556207585 XXXX 1      oap1    O  -0.800
O4      33.855536600   13.906969902   11.418080553 XXXX 1      oap1    O  -0.800
O5      33.185471015    8.932236251   10.547953641 XXXX 1      oap1    O  -0.800
O7      32.308330525   13.352602720   13.284011660 XXXX 1      oap1    O  -0.800
O8      31.513116142    8.946204405   12.335792347 XXXX 1      oap1    O  -0.800
O10     32.340021793   10.426230816    8.220952451 XXXX 1      oap1    O  -0.800
O11     32.589504085   15.703254326    9.188304832 XXXX 1      oap1    O  -0.800
O12     29.318727349   14.250036831    6.783459827 XXXX 1      oap1    O  -0.800
Ca2     30.965191874   13.898868877    8.484926652 XXXX 1      ca+h    Ca  1.500
Ca3     29.027472577   13.732947805   11.362964292 XXXX 1      ca+h    Ca  1.500
Ca4     34.921159829   10.963184131   11.289759182 XXXX 1      ca+h    Ca  1.500
Ca5     31.070198049   10.093165409    6.322394594 XXXX 1      ca+h    Ca  1.500
P1      33.582871191   11.379249019    7.923976362 XXXX 1      pap     P   1.000
O13     33.224861383   12.823304403    8.299120695 XXXX 1      oap1    O  -0.800
O14     34.738358778   10.923218373    8.825559043 XXXX 1      oap1    O  -0.800
Ca6     34.953193324   14.192001732    9.339678976 XXXX 1      ca+h    Ca  1.500
P2      32.852941597   16.180102073    7.720954185 XXXX 1      pap     P   1.000
O15     31.795577533   15.421672257    6.864134480 XXXX 1      oap1    O  -0.800
O16     32.810764381   17.733349379    7.592456761 XXXX 1      oap1    O  -0.800
Ca7     30.106273508   16.642058068    5.711473690 XXXX 1      ca+h    Ca  1.500
P3      29.920032621   13.443491031    5.599668563 XXXX 1      pap     P   1.000
O17     31.081597901   12.535900131    6.153578642 XXXX 1      oap1    O  -0.800
O18     28.864855482   12.566815584    4.897203402 XXXX 1      oap1    O  -0.800
Ca8     34.761831544   14.548518440   13.539204377 XXXX 1      ca+h    Ca  1.500
P4      32.548622253   13.230050262   11.748524708 XXXX 1      pap     P   1.000
O19     32.740944190   11.709753112   11.400385366 XXXX 1      oap1    O  -0.800
O20     31.457993765   13.886416533   10.911982356 XXXX 1      oap1    O  -0.800
Ca9     31.003660449   10.323518935   10.462190621 XXXX 1      ca+h    Ca  1.500
P5      32.935403442    8.519622381   12.011396435 XXXX 1      pap     P   1.000
O21     33.834616618    9.397717001   12.874697645 XXXX 1      oap1    O  -0.800
O22     33.136108514    7.060467417   12.372533179 XXXX 1      oap1    O  -0.800
O25     28.275242523    8.427373902   12.203466786 XXXX 1      oap2    O  -1.100
O26     30.601672614    8.284491992    9.269061821 XXXX 1      oap2    O  -1.100
H1      28.841760518    7.937307862   11.663298874 XXXX 1      hop     H   0.200
H2      31.069317540    8.849177754    8.642204465 XXXX 1      hop     H   0.200
end
O1      29.567088023   11.298946273   12.126257994 XXXX 1      oap1    O  -0.800
O2      30.182765217   15.856204100   12.900126085 XXXX 1      oap1    O  -0.800
O3      26.406679120   14.544900192   10.231623472 XXXX 1      oap1    O  -0.800
O4      29.699066438   13.849611918   16.808225993 XXXX 1      oap1    O  -0.800
O5      28.911579116    9.046494340   16.295066702 XXXX 1      oap1    O  -0.800
O6      32.516964450   10.396235007   18.831301369 XXXX 1      oap1    O  -0.800
O7      28.351378530   13.616603846   18.897629169 XXXX 1      oap1    O  -0.800
O8      27.439486735    9.091990253   18.324056894 XXXX 1      oap1    O  -0.800
O9      31.123264257   10.312868066   20.859849434 XXXX 1      oap1    O  -0.800
O10     27.943552618   10.951121456   14.072231402 XXXX 1      oap1    O  -0.800
O11     28.642595933   15.760199661   14.806264987 XXXX 1      oap1    O  -0.800
O12     25.146608811   14.357650544   12.291082392 XXXX 1      oap1    O  -0.800
Ca1     32.686106605   11.071866809   14.101918361 XXXX 1      ca+h    Ca  1.500
Ca2     27.006893043   13.816858657   14.275644962 XXXX 1      ca+h    Ca  1.500
Ca3     24.825525761   13.802999957   16.884326036 XXXX 1      ca+h    Ca  1.500
Ca4     30.631879764   10.981330488   17.040890284 XXXX 1      ca+h    Ca  1.500
Ca5     26.925862640   10.300277495   11.904391930 XXXX 1      ca+h    Ca  1.500
P1      29.271740462   11.558960262   13.584934289 XXXX 1      pap     P   1.000
O13     29.294075156   13.075974960   13.769618153 XXXX 1      oap1    O  -0.800
O14     30.402119662   11.031980192   14.449084374 XXXX 1      oap1    O  -0.800
Ca6     30.913956303   14.505000569   14.808729367 XXXX 1      ca+h    Ca  1.500
P2      28.837561911   16.288509394   13.410787812 XXXX 1      pap     P   1.000
O15     27.829624867   15.587657428   12.534635913 XXXX 1      oap1    O  -0.800
O16     28.662143925   17.808076897   13.281685003 XXXX 1      oap1    O  -0.800
Ca7     26.053962389   16.674078575   11.442306061 XXXX 1      ca+h    Ca  1.500
P3      25.821458127   13.532412197   11.213573032 XXXX 1      pap     P   1.000
O17     26.910658273   12.712636037   11.834440437 XXXX 1      oap1    O  -0.800
O18     24.783960819   12.657399207   10.474852488 XXXX 1      oap1    O  -0.800
Ca8     30.599588582   14.402193238   18.970139289 XXXX 1      ca+h    Ca  1.500
P4      28.369014565   13.291258001   17.346313095 XXXX 1      pap     P   1.000
O19     28.400300893   11.740234197   17.112011620 XXXX 1      oap1    O  -0.800
O20     27.232241440   13.894843031   16.569542943 XXXX 1      oap1    O  -0.800
Ca9     26.803966241   10.331743138   16.011757753 XXXX 1      ca+h    Ca  1.500
P5      28.786308128    8.578035468   17.741601846 XXXX 1      pap     P   1.000
O21     29.904662178    9.257429666   18.532355417 XXXX 1      oap1    O  -0.800
O22     28.897641068    7.064809555   17.907618372 XXXX 1      oap1    O  -0.800
Ca10    31.535950115    8.167865170   19.758416110 XXXX 1      ca+h    Ca  1.500
P6      31.869308045   11.243778892   19.889069360 XXXX 1      pap     P   1.000
O23     30.717547041   11.968834748   19.223989838 XXXX 1      oap1    O  -0.800
O24     32.736104993   12.295116210   20.533735872 XXXX 1      oap1    O  -0.800
O25     24.386559898    8.258355856   17.667072517 XXXX 1      oap2    O  -1.100
O26     26.209302173    8.235969536   14.979859294 XXXX 1      oap2    O  -1.100
H1      24.590162350    8.312340370   16.710273175 XXXX 1      hop     H   0.200
H2      26.830352042    7.995081846   14.321748055 XXXX 1      hop     H   0.200
end
O1      25.356960019   11.002651382   17.805756320 XXXX 1      oap1    O  -0.800
O2      26.078027613   15.863899283   18.486269395 XXXX 1      oap1    O  -0.800
O3      22.199381066   14.389545599   15.741270057 XXXX 1      oap1    O  -0.800
O4      25.492184641   13.811542265   22.453171727 XXXX 1      oap1    O  -0.800
O5      24.788147823    9.005132109   21.811213980 XXXX 1      oap1    O  -0.800
O6      28.242739680   10.346042617   24.362900527 XXXX 1      oap1    O  -0.800
O7      24.000006201   13.752083279   24.319090176 XXXX 1      oap1    O  -0.800
O8      23.188529782    8.949731353   23.621899828 XXXX 1      oap1    O  -0.800
O9      26.823206129   10.357790793   26.410077060 XXXX 1      oap1    O  -0.800
O10     23.768549317   10.895060201   19.658122412 XXXX 1      oap1    O  -0.800
O11     24.358943473   15.775843729   20.390152321 XXXX 1      oap1    O  -0.800
O12     21.013527410   14.099455636   17.903026708 XXXX 1      oap1    O  -0.800
Ca1     28.510813015   11.056370396   19.782067318 XXXX 1      ca+h    Ca  1.500
Ca2     22.775812597   13.913180558   19.643367713 XXXX 1      ca+h    Ca  1.500
Ca3     20.671247436   13.536926846   22.527330542 XXXX 1      ca+h    Ca  1.500
Ca4     26.594565362   10.888478503   22.541559760 XXXX 1      ca+h    Ca  1.500
Ca5     22.868829074   10.237089774   17.581618530 XXXX 1      ca+h    Ca  1.500
P1      25.144756290   11.498462612   19.268257225 XXXX 1      pap     P   1.000
O13     24.980726203   13.014294890   19.311464441 XXXX 1      oap1    O  -0.800
O14     26.226570352   10.977783520   20.250707968 XXXX 1      oap1    O  -0.800
Ca6     26.609629862   14.390020392   20.360197263 XXXX 1      ca+h    Ca  1.500
P2      24.707500768   16.265236476   18.966803368 XXXX 1      pap     P   1.000
O15     23.639310036   15.592170710   18.053669346 XXXX 1      oap1    O  -0.800
O16     24.509087603   17.817042561   18.988254507 XXXX 1      oap1    O  -0.800
Ca7     21.913261530   16.621420757   16.709981065 XXXX 1      ca+h    Ca  1.500
P3      21.597443460   13.379710291   16.760693973 XXXX 1      pap     P   1.000
O17     22.822443217   12.578160670   17.375145585 XXXX 1      oap1    O  -0.800
O18     20.571112153   12.512831126   15.975121235 XXXX 1      oap1    O  -0.800
Ca8     26.445409575   14.590428811   24.573408424 XXXX 1      ca+h    Ca  1.500
P4      24.185643353   13.218143022   22.888645102 XXXX 1      pap     P   1.000
O19     24.356318530   11.683713477   22.906898578 XXXX 1      oap1    O  -0.800
O20     23.008746213   13.669783321   22.017318314 XXXX 1      oap1    O  -0.800
Ca9     22.617285713   10.320478372   21.709184504 XXXX 1      ca+h    Ca  1.500
P5      24.608613441    8.461375286   23.209166050 XXXX 1      pap     P   1.000
O21     25.614475440    9.110489324   24.183995736 XXXX 1      oap1    O  -0.800
O22     24.662795819    6.968246435   23.277917465 XXXX 1      oap1    O  -0.800
Ca10    27.464765776    8.061297650   25.360255323 XXXX 1      ca+h    Ca  1.500
P6      27.658070625   11.271189501   25.439590004 XXXX 1      pap     P   1.000
O23     26.762009002   12.224869145   24.681583762 XXXX 1      oap1    O  -0.800
O24     28.755586524   12.047831341   26.221512481 XXXX 1      oap1    O  -0.800
O25     19.977109453    8.239508577   23.444939474 XXXX 1      oap2    O  -1.100
O26     22.289497551    8.122053804   20.487496379 XXXX 1      oap2    O  -1.100
H1      20.539935427    8.495337651   22.771407136 XXXX 1      hop     H   0.200
H2      23.065331584    8.546588452   20.102389944 XXXX 1      hop     H   0.200
end
O1      21.123633261   11.231058507   23.201650199 XXXX 1      oap1    O  -0.800
O2      21.933352036   15.819494383   24.177600133 XXXX 1      oap1    O  -0.800
O3      18.334493785   14.219982596   21.514499751 XXXX 1      oap1    O  -0.800
O4      21.391438558   14.044148119   28.123797990 XXXX 1      oap1    O  -0.800
O5      20.739337322    9.155149394   27.452525789 XXXX 1      oap1    O  -0.800
O6      24.207476762   10.574568084   29.942663312 XXXX 1      oap1    O  -0.800
O7      19.761423225   13.746744884   30.083286858 XXXX 1      oap1    O  -0.800
O8      19.125776023    9.141990156   29.286873329 XXXX 1      oap1    O  -0.800
O9      23.016291307   10.470871304   32.091112483 XXXX 1      oap1    O  -0.800
O10     19.686350814   10.865979338   25.252832857 XXXX 1      oap1    O  -0.800
O11     20.302391714   15.684824273   26.012680627 XXXX 1      oap1    O  -0.800
O12     16.642934024   14.272862175   23.243065612 XXXX 1      oap1    O  -0.800
Ca1     24.613148076   11.009251667   25.307158797 XXXX 1      ca+h    Ca  1.500
Ca2     18.660709741   13.702975580   25.308151120 XXXX 1      ca+h    Ca  1.500
Ca3     16.540498807   13.736994268   28.068198876 XXXX 1      ca+h    Ca  1.500
Ca4     22.330496970   11.037247172   28.154832784 XXXX 1      ca+h    Ca  1.500
Ca5     18.570889067   10.204914631   23.158848672 XXXX 1      ca+h    Ca  1.500
P1      21.067852612   11.380314535   24.760518995 XXXX 1      pap     P   1.000
O13     21.000249088   12.918698747   24.875163433 XXXX 1      oap1    O  -0.800
O14     22.267023460   10.734447485   25.578036633 XXXX 1      oap1    O  -0.800
Ca6     22.596635231   14.438568346   26.066915015 XXXX 1      ca+h    Ca  1.500
P2      20.521340315   16.205042476   24.597575279 XXXX 1      pap     P   1.000
O15     19.541871992   15.407524413   23.711907860 XXXX 1      oap1    O  -0.800
O16     20.294171059   17.690562514   24.366975656 XXXX 1      oap1    O  -0.800
Ca7     17.739530234   16.531089858   22.411571829 XXXX 1      ca+h    Ca  1.500
P3      17.472130231   13.320334253   22.374155862 XXXX 1      pap     P   1.000
O17     18.425856273   12.494027236   23.271058575 XXXX 1      oap1    O  -0.800
O18     16.421833993   12.523862275   21.598136450 XXXX 1      oap1    O  -0.800
Ca8     22.338399189   14.604083841   30.226265346 XXXX 1      ca+h    Ca  1.500
P4      20.079130710   13.393680375   28.569528424 XXXX 1      pap     P   1.000
O19     20.159548438   11.900967567   28.446860692 XXXX 1      oap1    O  -0.800
O20     18.929079357   13.803707434   27.687246355 XXXX 1      oap1    O  -0.800
Ca9     18.638135557   10.556683540   27.310709400 XXXX 1      ca+h    Ca  1.500
P5      20.485865738    8.647150003   28.903932358 XXXX 1      pap     P   1.000
O21     21.531818229    9.272854541   29.812185728 XXXX 1      oap1    O  -0.800
O22     20.471395042    7.100208764   28.992257042 XXXX 1      oap1    O  -0.800
Ca10    23.341188150    8.153819288   31.084045092 XXXX 1      ca+h    Ca  1.500
P6      23.619812283   11.442605223   31.068794287 XXXX 1      pap     P   1.000
O23     22.521313580   12.231508724   30.355064754 XXXX 1      oap1    O  -0.800
O24     24.667057296   12.349882007   31.757185679 XXXX 1      oap1    O  -0.800
O25     15.874918811    8.407478474   29.189796469 XXXX 1      oap2    O  -1.100
O26     18.231462834    8.436698132   26.050533327 XXXX 1      oap2    O  -1.100
H1      16.447643636    8.490613512   28.443732646 XXXX 1      hop     H   0.200
H2      18.818554448    8.379667278   25.265230585 XXXX 1      hop     H   0.200
end
O1      17.010406488   11.277817308   28.986057581 XXXX 1      oap1    O  -0.800
O2      17.794553853   15.920853235   29.743405792 XXXX 1      oap1    O  -0.800
O3      13.983347936   14.368304256   26.800920571 XXXX 1      oap1    O  -0.800
O4      16.624083287   12.797468208   33.520495069 XXXX 1      oap1    O  -0.800
O5      16.672956053    9.379934994   32.965778259 XXXX 1      oap1    O  -0.800
O7      15.597843436   14.541775802   35.192834486 XXXX 1      oap1    O  -0.800
O8      15.228893032    9.464925499   34.952474886 XXXX 1      oap1    O  -0.800
O10     15.461713574   11.055764849   30.962131470 XXXX 1      oap1    O  -0.800
O11     16.153193730   15.718750581   31.566213572 XXXX 1      oap1    O  -0.800
O12     12.734610406   14.365603185   29.005703872 XXXX 1      oap1    O  -0.800
Ca1     20.261265045   11.248297647   30.821805219 XXXX 1      ca+h    Ca  1.500
Ca2     14.297718055   13.925401834   30.794844048 XXXX 1      ca+h    Ca  1.500
Ca3     12.476957920   13.771522531   33.711529738 XXXX 1      ca+h    Ca  1.500
Ca4     18.250420426   11.102520089   33.887132831 XXXX 1      ca+h    Ca  1.500
Ca5     14.620874395   10.272413216   28.718100224 XXXX 1      ca+h    Ca  1.500
P1      16.771140165   11.672016377   30.461754552 XXXX 1      pap     P   1.000
O13     16.626896039   13.199818145   30.538835562 XXXX 1      oap1    O  -0.800
O14     18.007093496   11.189916622   31.318551665 XXXX 1      oap1    O  -0.800
Ca6     18.136958902   14.299063359   31.950102938 XXXX 1      ca+h    Ca  1.500
P2      16.372695724   16.312338246   30.132646408 XXXX 1      pap     P   1.000
O15     15.375255549   15.623838096   29.197062409 XXXX 1      oap1    O  -0.800
O16     16.197041952   17.831878112   30.014035424 XXXX 1      oap1    O  -0.800
Ca7     13.667082077   16.709147039   28.093731679 XXXX 1      ca+h    Ca  1.500
P3      13.438420132   13.500756773   27.966620270 XXXX 1      pap     P   1.000
O17     14.541176202   12.700165458   28.689403391 XXXX 1      oap1    O  -0.800
O18     12.402630541   12.473226144   27.336403718 XXXX 1      oap1    O  -0.800
P4      15.350712740   13.425750107   34.178286403 XXXX 1      pap     P   1.000
O19     14.272675315   12.427041959   34.560715183 XXXX 1      oap1    O  -0.800
O20     14.727732553   14.245400535   33.057594760 XXXX 1      oap1    O  -0.800
Ca9     14.465823574   10.635192751   33.190603624 XXXX 1      ca+h    Ca  1.500
P5      16.539016713    8.833988247   34.417614725 XXXX 1      pap     P   1.000
O21     17.741948946    9.331435044   35.213390014 XXXX 1      oap1    O  -0.800
O22     16.396953853    7.336800447   34.329898353 XXXX 1      oap1    O  -0.800
O25     11.116267883    7.851579857   35.714580163 XXXX 1      oap2    O  -1.100
O26     13.042427811    8.463548262   33.205399233 XXXX 1      oap2    O  -1.100
H1      11.798236448    7.918979647   36.413883911 XXXX 1      hop     H   0.200
H2      13.438384958    8.500484691   34.075064475 XXXX 1      hop     H   0.200
end
O1      29.568372525   19.115651311    4.021741474 XXXX 1      oap1    O  -0.800
O2      30.551193970   23.779917008    4.330940784 XXXX 1      oap1    O  -0.800
O3      26.936548112   22.645633929    2.072739867 XXXX 1      oap1    O  -0.800
O4      30.122743763   21.781022110    8.473284606 XXXX 1      oap1    O  -0.800
O5      29.032164682   17.033864300    7.826705376 XXXX 1      oap1    O  -0.800
O6      32.915369623   18.500448153   10.545690654 XXXX 1      oap1    O  -0.800
O7      28.705588230   22.148675856   10.373316925 XXXX 1      oap1    O  -0.800
O8      27.835398487   17.269107536    9.941129117 XXXX 1      oap1    O  -0.800
O9      31.347045726   18.589691060   12.410837186 XXXX 1      oap1    O  -0.800
O10     28.179606542   19.331034731    5.927848722 XXXX 1      oap1    O  -0.800
O11     29.572099614   24.343360934    6.581106542 XXXX 1      oap1    O  -0.800
O12     25.355842887   22.244534355    3.793955583 XXXX 1      oap1    O  -0.800
Ca1     33.226421480   19.007292256    5.724127107 XXXX 1      ca+h    Ca  1.500
Ca2     27.100636482   21.644604662    5.741380558 XXXX 1      ca+h    Ca  1.500
Ca3     25.204170741   21.972737628    8.497304885 XXXX 1      ca+h    Ca  1.500
Ca4     31.151958748   19.224019135    8.529463775 XXXX 1      ca+h    Ca  1.500
Ca5     27.381175786   18.208562153    3.495514480 XXXX 1      ca+h    Ca  1.500
P1      29.552313515   19.701231890    5.414123108 XXXX 1      pap     P   1.000
O13     29.573203542   21.260480924    5.433172239 XXXX 1      oap1    O  -0.800
O14     30.683061788   19.049757879    6.245981530 XXXX 1      oap1    O  -0.800
Ca6     31.289061082   22.511206519    6.400328407 XXXX 1      ca+h    Ca  1.500
P2      29.363340214   24.430691285    5.048601354 XXXX 1      pap     P   1.000
O15     28.106435032   23.686408556    4.510919179 XXXX 1      oap1    O  -0.800
O16     29.347033239   25.945600111    4.746060662 XXXX 1      oap1    O  -0.800
Ca7     25.863628231   24.647079405    2.671491547 XXXX 1      ca+h    Ca  1.500
P3      26.166890721   21.518093630    2.725936035 XXXX 1      pap     P   1.000
O17     27.202031379   20.607189547    3.419653070 XXXX 1      oap1    O  -0.800
O18     25.232974317   20.789134773    1.728816766 XXXX 1      oap1    O  -0.800
Ca8     30.948799065   22.630039717   10.560415619 XXXX 1      ca+h    Ca  1.500
P4      28.708110384   21.422430532    8.995601276 XXXX 1      pap     P   1.000
O19     28.687834437   19.901482830    9.106971028 XXXX 1      oap1    O  -0.800
O20     27.606075296   21.973662159    8.027410939 XXXX 1      oap1    O  -0.800
Ca9     27.172501647   18.599340617    7.850744602 XXXX 1      ca+h    Ca  1.500
P5      29.093379958   16.654483924    9.312064888 XXXX 1      pap     P   1.000
O21     30.252186006   17.420942692    9.933771045 XXXX 1      oap1    O  -0.800
O22     29.126116470   15.138027284    9.512999629 XXXX 1      oap1    O  -0.800
Ca10    31.908430037   16.361010022   11.233532974 XXXX 1      ca+h    Ca  1.500
P6      32.138115955   19.470443710   11.453735183 XXXX 1      pap     P   1.000
O23     31.164545264   20.289336482   10.600751167 XXXX 1      oap1    O  -0.800
O24     33.066320653   20.434964885   12.184201135 XXXX 1      oap1    O  -0.800
O25     25.892294108   16.581500775    7.599654210 XXXX 1      oap2    O  -1.100
O26     27.807730303   16.389454363    5.113601145 XXXX 1      oap2    O  -1.100
H1      25.289456154   17.098300537    8.089943078 XXXX 1      hop     H   0.200
H2      27.344842727   16.092742737    5.819790128 XXXX 1      hop     H   0.200
end
O1      25.463594905   18.923785632    9.492969724 XXXX 1      oap1    O  -0.800
O2      26.387208693   23.804700434    9.903227402 XXXX 1      oap1    O  -0.800
O3      22.749554748   22.547305837    7.249556890 XXXX 1      oap1    O  -0.800
O4      26.042340392   21.622343509   14.057982933 XXXX 1      oap1    O  -0.800
O5      25.135983168   17.207990947   13.495920860 XXXX 1      oap1    O  -0.800
O6      28.688370808   18.600664153   16.130741820 XXXX 1      oap1    O  -0.800
O7      24.764710853   22.106858714   16.069876592 XXXX 1      oap1    O  -0.800
O8      23.767597826   17.205985035   15.552275357 XXXX 1      oap1    O  -0.800
O9      27.213333193   18.561667217   18.257756970 XXXX 1      oap1    O  -0.800
O10     24.065702463   19.346906646   11.489345113 XXXX 1      oap1    O  -0.800
O11     25.020124639   23.969486575   11.914499432 XXXX 1      oap1    O  -0.800
O12     21.319900398   22.419365981    9.364420712 XXXX 1      oap1    O  -0.800
Ca1     29.042202975   19.069199983   11.308814391 XXXX 1      ca+h    Ca  1.500
Ca2     22.991994766   21.731856223   11.304255450 XXXX 1      ca+h    Ca  1.500
Ca3     21.290269904   21.824581863   14.263307611 XXXX 1      ca+h    Ca  1.500
Ca4     26.902807719   19.241954022   14.093209134 XXXX 1      ca+h    Ca  1.500
Ca5     23.216461838   18.466361975    9.128192756 XXXX 1      ca+h    Ca  1.500
P1      25.449677394   19.633671310   10.872880063 XXXX 1      pap     P   1.000
O13     25.571370912   21.136947444   10.658802375 XXXX 1      oap1    O  -0.800
O14     26.583733922   19.102614403   11.756357552 XXXX 1      oap1    O  -0.800
Ca6     27.071582493   22.487358486   12.140254832 XXXX 1      ca+h    Ca  1.500
P2      25.028424538   24.309695179   10.481007168 XXXX 1      pap     P   1.000
O15     23.913553129   23.541473813    9.710345257 XXXX 1      oap1    O  -0.800
O16     24.988015590   25.829549405   10.314793874 XXXX 1      oap1    O  -0.800
Ca7     22.342383864   24.709183633    8.431363452 XXXX 1      ca+h    Ca  1.500
P3      22.059172411   21.579950636    8.283256129 XXXX 1      pap     P   1.000
O17     23.170506375   20.824246626    9.062553281 XXXX 1      oap1    O  -0.800
O18     21.042265991   20.620754037    7.565789367 XXXX 1      oap1    O  -0.800
Ca8     27.003961657   22.644155682   16.401091649 XXXX 1      ca+h    Ca  1.500
P4      24.687652800   21.383251588   14.730634173 XXXX 1      pap     P   1.000
O19     24.546181803   19.889416443   14.783974284 XXXX 1      oap1    O  -0.800
O20     23.573915636   22.003445868   13.807262656 XXXX 1      oap1    O  -0.800
Ca9     23.132911478   18.515761355   13.371516730 XXXX 1      ca+h    Ca  1.500
P5      25.091240574   16.784080778   14.937374368 XXXX 1      pap     P   1.000
O21     26.244156909   17.563203769   15.659009812 XXXX 1      oap1    O  -0.800
O22     25.329532769   15.277610687   15.152919820 XXXX 1      oap1    O  -0.800
Ca10    27.815303236   16.393080269   16.879934356 XXXX 1      ca+h    Ca  1.500
P6      27.955453255   19.402480544   17.213438182 XXXX 1      pap     P   1.000
O23     26.883525249   20.269126901   16.546919038 XXXX 1      oap1    O  -0.800
O24     28.989223192   20.339125309   17.845681321 XXXX 1      oap1    O  -0.800
O25     21.799895190   16.521917046   13.373132251 XXXX 1      oap2    O  -1.100
O26     23.635710915   16.665008188   10.774159137 XXXX 1      oap2    O  -1.100
H1      21.494904888   16.345138462   14.279132641 XXXX 1      hop     H   0.200
H2      23.005727176   16.760970329   11.445312850 XXXX 1      hop     H   0.200
end
O1      21.467411075   19.387493911   15.018179431 XXXX 1      oap1    O  -0.800
O2      22.385860706   23.795493653   15.758356312 XXXX 1      oap1    O  -0.800
O3      18.655992373   22.579498178   12.871829987 XXXX 1      oap1    O  -0.800
O4      21.864800532   21.824684845   19.610343841 XXXX 1      oap1    O  -0.800
O5      20.756591920   16.986719264   18.960841527 XXXX 1      oap1    O  -0.800
O6      24.681093252   18.475030664   21.975253344 XXXX 1      oap1    O  -0.800
O7      20.456049437   21.790591462   21.648943194 XXXX 1      oap1    O  -0.800
O8      19.436918493   17.176559875   20.975093308 XXXX 1      oap1    O  -0.800
O9      22.938949569   18.816980816   23.688101659 XXXX 1      oap1    O  -0.800
O10     19.956574815   19.364301378   16.943132779 XXXX 1      oap1    O  -0.800
O11     20.843161117   24.004809603   17.738583265 XXXX 1      oap1    O  -0.800
O12     16.979716366   22.598514098   14.629029942 XXXX 1      oap1    O  -0.800
Ca1     24.766645413   19.113578835   17.008711888 XXXX 1      ca+h    Ca  1.500
Ca2     19.093584210   21.990158741   17.033106332 XXXX 1      ca+h    Ca  1.500
Ca3     16.773755740   22.022226952   19.583587281 XXXX 1      ca+h    Ca  1.500
Ca4     22.773582590   19.273492138   19.743865442 XXXX 1      ca+h    Ca  1.500
Ca5     19.042864623   18.386979413   14.795374637 XXXX 1      ca+h    Ca  1.500
P1      21.368644209   19.729969541   16.540358413 XXXX 1      pap     P   1.000
O13     21.588417784   21.238990710   16.652748030 XXXX 1      oap1    O  -0.800
O14     22.379652406   18.853121365   17.319938529 XXXX 1      oap1    O  -0.800
Ca6     23.209753541   22.586369349   17.912105772 XXXX 1      ca+h    Ca  1.500
P2      21.029051126   24.306589232   16.217365543 XXXX 1      pap     P   1.000
O15     20.009067513   23.407151053   15.408672322 XXXX 1      oap1    O  -0.800
O16     20.785801895   25.830206232   15.890841625 XXXX 1      oap1    O  -0.800
Ca7     18.351053964   24.601152554   14.073663677 XXXX 1      ca+h    Ca  1.500
P3      17.869629813   21.643304753   13.852655449 XXXX 1      pap     P   1.000
O17     18.932896403   20.967118220   14.729090174 XXXX 1      oap1    O  -0.800
O18     16.971085257   20.685945689   13.035454029 XXXX 1      oap1    O  -0.800
Ca8     22.749045560   22.641089659   21.910894292 XXXX 1      ca+h    Ca  1.500
P4      20.487205765   21.369100548   20.154201277 XXXX 1      pap     P   1.000
O19     20.383998902   19.871422699   20.139815741 XXXX 1      oap1    O  -0.800
O20     19.262123856   22.058656139   19.432532568 XXXX 1      oap1    O  -0.800
Ca9     18.779567994   18.569078292   18.955851366 XXXX 1      ca+h    Ca  1.500
P5      20.805973426   16.675530394   20.477547469 XXXX 1      pap     P   1.000
O21     21.895038857   17.535543898   21.210150849 XXXX 1      oap1    O  -0.800
O22     20.980661171   15.135095641   20.633223848 XXXX 1      oap1    O  -0.800
Ca10    23.608528759   16.364140996   22.532790281 XXXX 1      ca+h    Ca  1.500
P6      23.884722419   19.543395688   22.761750009 XXXX 1      pap     P   1.000
O23     22.973760581   20.318806904   21.773840912 XXXX 1      oap1    O  -0.800
O24     24.847826737   20.448028090   23.543429832 XXXX 1      oap1    O  -0.800
O25     17.500780752   16.453487398   19.010191930 XXXX 1      oap2    O  -1.100
O26     19.703299708   16.415262479   15.991361392 XXXX 1      oap2    O  -1.100
H1      16.574824034   16.564883479   19.268134433 XXXX 1      hop     H   0.200
H2      19.258618911   16.662409494   16.809308959 XXXX 1      hop     H   0.200
end
O1      17.225539443   19.183515636   20.625782638 XXXX 1      oap1    O  -0.800
O2      18.153405043   23.812709811   21.306430080 XXXX 1      oap1    O  -0.800
O3      14.798383664   22.357788156   18.353822142 XXXX 1      oap1    O  -0.800
O4      17.652768495   21.631639145   25.088895593 XXXX 1      oap1    O  -0.800
O5      16.606770864   17.153695507   24.482962485 XXXX 1      oap1    O  -0.800
O6      20.672591307   18.462403461   27.581046922 XXXX 1      oap1    O  -0.800
O7      16.241040619   21.876774609   27.151896534 XXXX 1      oap1    O  -0.800
O8      15.441927466   17.141762716   26.615631766 XXXX 1      oap1    O  -0.800
O9      18.965523442   18.639784172   29.342804702 XXXX 1      oap1    O  -0.800
O10     15.836688430   19.387881841   22.570059131 XXXX 1      oap1    O  -0.800
O11     16.576401614   23.956748640   23.229850606 XXXX 1      oap1    O  -0.800
O12     12.789663909   22.827982410   19.817568679 XXXX 1      oap1    O  -0.800
Ca1     20.748513825   19.215878585   22.491185361 XXXX 1      ca+h    Ca  1.500
Ca2     14.946720856   21.893676345   22.589106178 XXXX 1      ca+h    Ca  1.500
Ca3     12.696433801   21.890387334   25.374579559 XXXX 1      ca+h    Ca  1.500
Ca4     18.490981350   19.146542799   25.188854191 XXXX 1      ca+h    Ca  1.500
Ca5     14.843136664   18.542785094   20.350233665 XXXX 1      ca+h    Ca  1.500
P1      17.171076811   19.742564858   21.962564889 XXXX 1      pap     P   1.000
O13     17.171719133   21.247774421   21.853536189 XXXX 1      oap1    O  -0.800
O14     18.325108777   19.246028066   22.875136273 XXXX 1      oap1    O  -0.800
Ca6     18.716781693   22.621854133   23.273905274 XXXX 1      ca+h    Ca  1.500
P2      16.803983959   24.404843825   21.696975286 XXXX 1      pap     P   1.000
O15     15.770312627   23.730791001   20.861480510 XXXX 1      oap1    O  -0.800
O16     16.780274962   25.980838423   21.544715729 XXXX 1      oap1    O  -0.800
Ca7     14.026084164   24.843574173   19.643789606 XXXX 1      ca+h    Ca  1.500
P3      13.742836768   21.723374741   19.331940217 XXXX 1      pap     P   1.000
O17     14.553098536   21.031737624   20.468493285 XXXX 1      oap1    O  -0.800
O18     12.908500993   20.652001944   18.629895266 XXXX 1      oap1    O  -0.800
Ca8     18.638718482   22.660323067   27.451681061 XXXX 1      ca+h    Ca  1.500
P4      16.296189546   21.346642628   25.659909154 XXXX 1      pap     P   1.000
O19     16.173443476   19.835142834   25.674340642 XXXX 1      oap1    O  -0.800
O20     15.222845511   21.989869798   24.825153232 XXXX 1      oap1    O  -0.800
Ca9     14.626470379   18.640644771   24.413903707 XXXX 1      ca+h    Ca  1.500
P5      16.721248537   16.702112759   25.928061027 XXXX 1      pap     P   1.000
O21     17.890112045   17.405101261   26.662404930 XXXX 1      oap1    O  -0.800
O22     16.840999547   15.149917691   25.988036158 XXXX 1      oap1    O  -0.800
Ca10    19.516939320   16.378569861   28.177539712 XXXX 1      ca+h    Ca  1.500
P6      19.770542312   19.491675474   28.341442683 XXXX 1      pap     P   1.000
O23     18.804248081   20.161554748   27.311385503 XXXX 1      oap1    O  -0.800
O24     20.586251769   20.584196214   29.062198548 XXXX 1      oap1    O  -0.800
O25     13.385833183   16.626674193   24.438561115 XXXX 1      oap2    O  -1.100
O26     15.345045175   16.465895449   21.517174964 XXXX 1      oap2    O  -1.100
H1      12.773389742   16.436294858   25.143375863 XXXX 1      hop     H   0.200
H2      15.483496828   17.021481824   22.290960859 XXXX 1      hop     H   0.200
end
O1      13.078972981   19.395140381   26.133759961 XXXX 1      oap1    O  -0.800
O2      13.936010009   23.771989177   26.632337274 XXXX 1      oap1    O  -0.800
O3      10.435349064   22.332110217   24.012894312 XXXX 1      oap1    O  -0.800
O4      13.496086367   21.794078972   30.605430121 XXXX 1      oap1    O  -0.800
O5      12.280408447   17.036122440   30.222802715 XXXX 1      oap1    O  -0.800
O6      16.127405278   18.588740975   32.720079108 XXXX 1      oap1    O  -0.800
O7      12.271323788   21.862115949   32.700401815 XXXX 1      oap1    O  -0.800
O8      11.260700135   17.257074753   32.489796520 XXXX 1      oap1    O  -0.800
O9      14.590039098   18.466973194   34.655374927 XXXX 1      oap1    O  -0.800
O10     11.676409437   19.133015283   28.226219874 XXXX 1      oap1    O  -0.800
O11     12.581536919   24.030282112   28.716241078 XXXX 1      oap1    O  -0.800
O12      8.858958587   22.669552259   25.779095374 XXXX 1      oap1    O  -0.800
Ca1     16.607378400   19.069624829   27.974015838 XXXX 1      ca+h    Ca  1.500
Ca2     10.731750153   21.911990290   28.079387701 XXXX 1      ca+h    Ca  1.500
Ca3      8.487185200   21.930367272   30.886680945 XXXX 1      ca+h    Ca  1.500
Ca4     14.514850222   19.216898093   30.838459820 XXXX 1      ca+h    Ca  1.500
Ca5     10.756325803   18.363304956   26.005565177 XXXX 1      ca+h    Ca  1.500
P1      12.969715392   19.713968536   27.590135755 XXXX 1      pap     P   1.000
O13     12.918665416   21.254292480   27.721016052 XXXX 1      oap1    O  -0.800
O14     14.095117996   19.110038917   28.382070011 XXXX 1      oap1    O  -0.800
Ca6     14.741354195   22.488411602   28.776526784 XXXX 1      ca+h    Ca  1.500
P2      12.606276283   24.360946501   27.214676930 XXXX 1      pap     P   1.000
O15     11.438155620   23.719355801   26.476586839 XXXX 1      oap1    O  -0.800
O16     12.581458634   25.830235373   26.953374778 XXXX 1      oap1    O  -0.800
Ca7      9.885082016   24.732781069   25.142022034 XXXX 1      ca+h    Ca  1.500
P3       9.562535584   21.620908690   25.043766149 XXXX 1      pap     P   1.000
O17     10.525469823   20.863342483   25.963143168 XXXX 1      oap1    O  -0.800
O18      8.566006059   20.680487787   24.324055098 XXXX 1      oap1    O  -0.800
Ca8     14.245188960   22.924340089   33.220147998 XXXX 1      ca+h    Ca  1.500
P4      12.221177210   21.336593907   31.276850388 XXXX 1      pap     P   1.000
O19     12.214630038   19.797598500   31.240912063 XXXX 1      oap1    O  -0.800
O20     10.937007120   21.920143225   30.556031608 XXXX 1      oap1    O  -0.800
Ca9     10.452061756   18.593378866   30.058647437 XXXX 1      ca+h    Ca  1.500
P5      12.469537921   16.653744256   31.665266853 XXXX 1      pap     P   1.000
O21     13.752833055   17.188333011   32.326245578 XXXX 1      oap1    O  -0.800
O22     12.443762711   15.102634151   31.721132108 XXXX 1      oap1    O  -0.800
Ca10    15.766855968   16.432341556   33.825007266 XXXX 1      ca+h    Ca  1.500
P6      15.462777588   19.421670407   33.840086740 XXXX 1      pap     P   1.000
O23     14.543868178   20.398939587   33.106234227 XXXX 1      oap1    O  -0.800
O24     16.518462225   20.157040573   34.613812840 XXXX 1      oap1    O  -0.800
O25      9.043489966   16.466916584   30.505667196 XXXX 1      oap2    O  -1.100
O26     11.483256621   16.285026687   27.178476204 XXXX 1      oap2    O  -1.100
H1       8.059834287   16.446525472   30.659143492 XXXX 1      hop     H   0.200
H2      11.091566356   15.614435833   27.789354090 XXXX 1      hop     H   0.200
end
O1       9.347030899   19.831049016   31.803657321 XXXX 1      oap1    O  -0.800
O2       9.677949771   23.802820349   32.127072336 XXXX 1      oap1    O  -0.800
O3       6.290236249   22.476547462   29.738501338 XXXX 1      oap1    O  -0.800
O10      8.274747941   18.583672243   33.523353522 XXXX 1      oap1    O  -0.800
O11      8.928626572   24.220449426   34.405136927 XXXX 1      oap1    O  -0.800
O12      4.610373270   22.508065414   31.493750559 XXXX 1      oap1    O  -0.800
Ca1     12.444457441   19.068951120   33.607707388 XXXX 1      ca+h    Ca  1.500
Ca2      6.103068265   21.799627936   33.753025979 XXXX 1      ca+h    Ca  1.500
Ca5      6.690436748   18.457825122   31.743282580 XXXX 1      ca+h    Ca  1.500
P1       9.123628797   19.897022159   33.304785809 XXXX 1      pap     P   1.000
O13      8.310655370   21.169659458   33.508892338 XXXX 1      oap1    O  -0.800
O14     10.387658585   19.987567173   34.182682415 XXXX 1      oap1    O  -0.800
Ca6     10.468481880   22.421142747   34.247772873 XXXX 1      ca+h    Ca  1.500
P2       8.485187006   24.351228704   32.879877404 XXXX 1      pap     P   1.000
O15      7.227615247   23.517705529   32.475931125 XXXX 1      oap1    O  -0.800
O16      8.381966532   25.844811162   32.510843782 XXXX 1      oap1    O  -0.800
Ca7      5.781544935   24.604453797   30.714284973 XXXX 1      ca+h    Ca  1.500
P3       5.424093573   21.611474817   30.650662166 XXXX 1      pap     P   1.000
O17      6.397107801   20.728450289   31.470411143 XXXX 1      oap1    O  -0.800
O18      4.489129671   20.783228533   29.754098339 XXXX 1      oap1    O  -0.800
O26      6.741597339   16.176096164   33.021707869 XXXX 1      oap2    O  -1.100
H2       6.860974200   16.419480630   33.950435736 XXXX 1      hop     H   0.200
end
O1      26.116255223   26.716964035    1.385540468 XXXX 1      oap1    O  -0.800
O2      26.826726725   31.782205817    1.792791774 XXXX 1      oap1    O  -0.800
O4      26.264835125   30.205249042    5.919360931 XXXX 1      oap1    O  -0.800
O5      25.605697175   25.252008717    5.073567642 XXXX 1      oap1    O  -0.800
O6      29.036462838   27.007516027    7.632268257 XXXX 1      oap1    O  -0.800
O7      24.621091659   29.627690142    7.777165056 XXXX 1      oap1    O  -0.800
O8      24.135189502   25.256811784    6.947778005 XXXX 1      oap1    O  -0.800
O9      27.990153097   26.510265376    9.706199349 XXXX 1      oap1    O  -0.800
O10     25.120877903   28.388184436    3.108911355 XXXX 1      oap1    O  -0.800
O11     25.107929435   31.845178680    3.618939981 XXXX 1      oap1    O  -0.800
Ca1     29.342254154   27.540443218    2.919356062 XXXX 1      ca+h    Ca  1.500
Ca2     23.577154750   30.164879190    2.902895211 XXXX 1      ca+h    Ca  1.500
Ca3     21.618713993   29.914730366    5.897783140 XXXX 1      ca+h    Ca  1.500
Ca4     27.465992368   26.956639236    5.838943699 XXXX 1      ca+h    Ca  1.500
P1      26.392149877   27.759447909    2.481542595 XXXX 1      pap     P   1.000
O13     27.536144250   28.812537436    2.248517489 XXXX 1      oap1    O  -0.800
O14     26.990899913   26.827726474    3.572015117 XXXX 1      oap1    O  -0.800
Ca6     27.229112132   30.623808785    3.937511415 XXXX 1      ca+h    Ca  1.500
P2      25.450541730   32.324442638    2.223738000 XXXX 1      pap     P   1.000
O15     24.284151220   31.841267775    1.260826841 XXXX 1      oap1    O  -0.800
O16     25.503246022   33.908434668    2.204599763 XXXX 1      oap1    O  -0.800
Ca8     27.179848163   30.884815009    7.996493882 XXXX 1      ca+h    Ca  1.500
P4      25.033742644   29.368274131    6.290438221 XXXX 1      pap     P   1.000
O19     25.423774901   27.879710086    6.131033657 XXXX 1      oap1    O  -0.800
O20     23.873480019   29.729656206    5.322451756 XXXX 1      oap1    O  -0.800
Ca9     23.765027708   26.962450132    4.723683985 XXXX 1      ca+h    Ca  1.500
P5      25.459790676   24.751303145    6.485810346 XXXX 1      pap     P   1.000
O21     26.536348808   25.453761118    7.388607879 XXXX 1      oap1    O  -0.800
O22     25.475381851   23.205064963    6.468500250 XXXX 1      oap1    O  -0.800
Ca10    28.201138038   24.390325399    8.641691435 XXXX 1      ca+h    Ca  1.500
P6      28.493953725   27.702903367    8.846520451 XXXX 1      pap     P   1.000
O23     27.253251313   28.488358424    8.307429885 XXXX 1      oap1    O  -0.800
O24     29.541170924   28.572370996    9.563283436 XXXX 1      oap1    O  -0.800
O25     21.131217944   24.556099236    6.247211071 XXXX 1      oap2    O  -1.100
O26     23.288816593   24.846071626    3.568806194 XXXX 1      oap2    O  -1.100
H1      21.905503947   24.944739739    5.924071153 XXXX 1      hop     H   0.200
H2      23.573526790   25.193706226    2.759730446 XXXX 1      hop     H   0.200
end
O1      21.993913588   27.540904160    6.647565055 XXXX 1      oap1    O  -0.800
O2      22.795184191   32.035340005    7.263399998 XXXX 1      oap1    O  -0.800
O3      18.615591828   30.803948040    4.781563233 XXXX 1      oap1    O  -0.800
O4      22.179356262   30.086239395   11.424180972 XXXX 1      oap1    O  -0.800
O5      21.524304413   25.355923743   10.650675849 XXXX 1      oap1    O  -0.800
O6      24.950198858   27.053021191   13.196238105 XXXX 1      oap1    O  -0.800
O7      20.639176059   29.642163246   13.390825393 XXXX 1      oap1    O  -0.800
O8      19.892046520   25.370571464   12.470464029 XXXX 1      oap1    O  -0.800
O9      24.123150105   26.557438537   15.401994374 XXXX 1      oap1    O  -0.800
O10     20.468499599   26.795031106    8.426909391 XXXX 1      oap1    O  -0.800
O11     21.303224046   31.949014252    9.265029809 XXXX 1      oap1    O  -0.800
O12     17.632647198   30.205715404    7.046681415 XXXX 1      oap1    O  -0.800
Ca1     25.273016457   27.238261917    8.492117557 XXXX 1      ca+h    Ca  1.500
Ca2     19.422355474   30.114378049    8.666430980 XXXX 1      ca+h    Ca  1.500
Ca3     17.341685184   29.981558311   11.455142112 XXXX 1      ca+h    Ca  1.500
Ca4     23.281562115   27.247326912   11.345823902 XXXX 1      ca+h    Ca  1.500
Ca5     19.439738414   26.570588806    6.310283114 XXXX 1      ca+h    Ca  1.500
P1      21.742686218   27.652888191    8.127226681 XXXX 1      pap     P   1.000
O13     21.608250095   29.184498138    8.401697924 XXXX 1      oap1    O  -0.800
O14     22.887877599   27.050005033    8.968897861 XXXX 1      oap1    O  -0.800
Ca6     23.343373861   30.661622330    9.421520890 XXXX 1      ca+h    Ca  1.500
P2      21.397589064   32.465272414    7.794023287 XXXX 1      pap     P   1.000
O15     20.374378035   31.640781847    7.001497019 XXXX 1      oap1    O  -0.800
O16     21.134638538   33.975668785    7.704370575 XXXX 1      oap1    O  -0.800
Ca7     18.703878528   32.844800414    5.805410881 XXXX 1      ca+h    Ca  1.500
P3      18.200495826   29.719893496    5.739899665 XXXX 1      pap     P   1.000
O17     19.484778255   28.947217646    6.035478974 XXXX 1      oap1    O  -0.800
O18     17.205100362   28.820696680    5.027570481 XXXX 1      oap1    O  -0.800
Ca8     23.042802402   30.711243012   13.548249480 XXXX 1      ca+h    Ca  1.500
P4      20.839661854   29.457478168   11.883186151 XXXX 1      pap     P   1.000
O19     20.956286741   27.956000962   11.638243846 XXXX 1      oap1    O  -0.800
O20     19.668934135   30.060170707   11.063099163 XXXX 1      oap1    O  -0.800
Ca9     19.261564611   26.722677106   10.506588620 XXXX 1      ca+h    Ca  1.500
P5      21.311335270   24.879095641   12.059994086 XXXX 1      pap     P   1.000
O21     22.392787050   25.543371124   12.928438534 XXXX 1      oap1    O  -0.800
O22     21.403012318   23.282925106   12.211740967 XXXX 1      oap1    O  -0.800
Ca10    24.056338442   24.470898155   14.109000195 XXXX 1      ca+h    Ca  1.500
P6      24.297241004   27.693356275   14.375148481 XXXX 1      pap     P   1.000
O23     23.019025261   28.299800683   13.909790712 XXXX 1      oap1    O  -0.800
O24     25.212522387   28.744750146   15.062896618 XXXX 1      oap1    O  -0.800
O25     16.670548457   24.599302139   12.143681567 XXXX 1      oap2    O  -1.100
O26     19.023904475   24.653160526    9.299191017 XXXX 1      oap2    O  -1.100
H1      17.427214035   24.568200530   11.639624115 XXXX 1      hop     H   0.200
H2      19.712447341   25.036454080    8.815412913 XXXX 1      hop     H   0.200
end
O1      17.706726027   27.599358783   12.191376134 XXXX 1      oap1    O  -0.800
O2      18.745442867   32.222873143   13.046146306 XXXX 1      oap1    O  -0.800
O3      14.906290556   30.811283954   10.185959118 XXXX 1      oap1    O  -0.800
O4      18.099934102   30.132298380   16.928734134 XXXX 1      oap1    O  -0.800
O5      17.806898463   25.373104310   16.363083755 XXXX 1      oap1    O  -0.800
O6      20.935231053   26.768080233   18.824647452 XXXX 1      oap1    O  -0.800
O7      16.692755130   29.926533618   18.855229290 XXXX 1      oap1    O  -0.800
O8      15.818021496   25.479406091   17.966297007 XXXX 1      oap1    O  -0.800
O9      19.687688480   26.718502531   20.995040342 XXXX 1      oap1    O  -0.800
O10     16.244405831   27.496659918   14.168107715 XXXX 1      oap1    O  -0.800
O11     17.157558591   32.066536414   14.820495553 XXXX 1      oap1    O  -0.800
O12     13.629843838   30.718292716   12.298573708 XXXX 1      oap1    O  -0.800
Ca1     20.909636136   27.351891122   14.063341631 XXXX 1      ca+h    Ca  1.500
Ca2     15.354849715   30.146861211   14.182867956 XXXX 1      ca+h    Ca  1.500
Ca3     13.205746896   30.066679396   16.969098424 XXXX 1      ca+h    Ca  1.500
Ca4     19.065576193   27.269388040   16.903691332 XXXX 1      ca+h    Ca  1.500
Ca5     15.309458829   26.547396404   11.945204187 XXXX 1      ca+h    Ca  1.500
P1      17.616349553   27.957938617   13.682427905 XXXX 1      pap     P   1.000
O13     17.668486306   29.479957633   13.847539988 XXXX 1      oap1    O  -0.800
O14     18.703115348   27.201392731   14.467674922 XXXX 1      oap1    O  -0.800
Ca6     19.234340087   30.784289646   15.039557652 XXXX 1      ca+h    Ca  1.500
P2      17.284340914   32.647977516   13.396127968 XXXX 1      pap     P   1.000
O15     16.232545171   31.800271666   12.591063865 XXXX 1      oap1    O  -0.800
O16     17.034977525   34.152312127   13.385779885 XXXX 1      oap1    O  -0.800
Ca7     14.494834831   32.924980491   11.384061102 XXXX 1      ca+h    Ca  1.500
P3      14.229437440   29.877261757   11.186345811 XXXX 1      pap     P   1.000
O17     15.272883016   29.024002346   11.858203958 XXXX 1      oap1    O  -0.800
O18     13.173416934   28.912991613   10.613875292 XXXX 1      oap1    O  -0.800
Ca8     19.061540259   30.935693469   19.108547388 XXXX 1      ca+h    Ca  1.500
P4      16.732042162   29.561514046   17.360994960 XXXX 1      pap     P   1.000
O19     16.802900416   28.044555785   17.126199936 XXXX 1      oap1    O  -0.800
O20     15.581723721   30.332963811   16.582461010 XXXX 1      oap1    O  -0.800
Ca9     15.031927304   26.752634302   16.102858574 XXXX 1      ca+h    Ca  1.500
P5      17.229305110   24.952553743   17.714896331 XXXX 1      pap     P   1.000
O21     18.158076300   25.515950139   18.822888735 XXXX 1      oap1    O  -0.800
O22     17.188927738   23.433630881   17.709043857 XXXX 1      oap1    O  -0.800
Ca10    19.965091064   24.528589117   19.854092927 XXXX 1      ca+h    Ca  1.500
P6      20.285204218   27.615927923   19.888579782 XXXX 1      pap     P   1.000
O23     19.123019666   28.301081928   19.127994024 XXXX 1      oap1    O  -0.800
O24     21.250377949   28.585163737   20.469523092 XXXX 1      oap1    O  -0.800
O25     12.630962135   24.740619992   17.622776795 XXXX 1      oap2    O  -1.100
O26     14.742403061   24.630247570   15.042847399 XXXX 1      oap2    O  -1.100
H1      13.370253291   24.707694477   16.968036644 XXXX 1      hop     H   0.200
H2      15.251640390   24.805194894   14.252787896 XXXX 1      hop     H   0.200
end
O1      13.720766037   27.772634730   17.821871024 XXXX 1      oap1    O  -0.800
O2      14.532904617   32.105198404   18.683454193 XXXX 1      oap1    O  -0.800
O3      10.758568674   30.694569806   15.742455709 XXXX 1      oap1    O  -0.800
O4      13.900751412   30.179484279   22.539427236 XXXX 1      oap1    O  -0.800
O5      13.270754641   25.237209912   21.807935339 XXXX 1      oap1    O  -0.800
O6      16.670674171   26.690767102   24.339778744 XXXX 1      oap1    O  -0.800
O7      12.410021971   29.822698093   24.454729257 XXXX 1      oap1    O  -0.800
O8      11.450140483   25.175209474   23.486366157 XXXX 1      oap1    O  -0.800
O9      15.162340776   26.677070959   26.317014838 XXXX 1      oap1    O  -0.800
O10     12.068106325   27.244684576   19.670791650 XXXX 1      oap1    O  -0.800
O11     12.775311732   31.882716570   20.394481808 XXXX 1      oap1    O  -0.800
O12      9.131976385   30.679081057   17.644891315 XXXX 1      oap1    O  -0.800
Ca1     17.020294692   27.371242771   19.640336639 XXXX 1      ca+h    Ca  1.500
Ca2     11.114840484   30.058633892   19.758569487 XXXX 1      ca+h    Ca  1.500
Ca3      8.982575726   29.841423246   22.377405146 XXXX 1      ca+h    Ca  1.500
Ca4     14.999526857   27.192224755   22.505485525 XXXX 1      ca+h    Ca  1.500
Ca5     11.121469111   26.598383954   17.452874322 XXXX 1      ca+h    Ca  1.500
P1      13.439391521   27.892290788   19.353465724 XXXX 1      pap     P   1.000
O13     13.359440787   29.397181100   19.511456541 XXXX 1      oap1    O  -0.800
O14     14.525878346   27.174585410   20.192051396 XXXX 1      oap1    O  -0.800
Ca6     15.061291278   30.710257190   20.516856785 XXXX 1      ca+h    Ca  1.500
P2      13.059555663   32.529431241   19.036659376 XXXX 1      pap     P   1.000
O15     12.084714201   31.921791837   18.014684015 XXXX 1      oap1    O  -0.800
O16     12.927467774   34.088986166   19.137638179 XXXX 1      oap1    O  -0.800
Ca7     10.252382547   32.887365796   16.992024908 XXXX 1      ca+h    Ca  1.500
P3       9.986380126   29.757377515   16.685923467 XXXX 1      pap     P   1.000
O17     11.029827331   29.006200114   17.569472363 XXXX 1      oap1    O  -0.800
O18      9.022139764   28.792810734   16.007973117 XXXX 1      oap1    O  -0.800
Ca8     14.896534191   30.978460331   24.566117841 XXXX 1      ca+h    Ca  1.500
P4      12.560876827   29.448236545   22.987136764 XXXX 1      pap     P   1.000
O19     12.771329391   27.885517832   22.888805223 XXXX 1      oap1    O  -0.800
O20     11.298443801   30.028726573   22.192541818 XXXX 1      oap1    O  -0.800
Ca9     10.947728356   26.590372689   21.666344048 XXXX 1      ca+h    Ca  1.500
P5      12.901893847   24.752637154   23.164075395 XXXX 1      pap     P   1.000
O21     13.845074126   25.490143988   24.115549161 XXXX 1      oap1    O  -0.800
O22     13.107485475   23.232271814   23.275788102 XXXX 1      oap1    O  -0.800
Ca10    15.638014479   24.541907984   25.320924269 XXXX 1      ca+h    Ca  1.500
P6      16.031407292   27.586512296   25.438151662 XXXX 1      pap     P   1.000
O23     15.100168677   28.640993252   24.792466327 XXXX 1      oap1    O  -0.800
O24     17.143674616   28.393434062   26.268719977 XXXX 1      oap1    O  -0.800
O25      8.456698718   24.602342686   23.203178380 XXXX 1      oap2    O  -1.100
O26     10.518321210   24.604541998   20.434644565 XXXX 1      oap2    O  -1.100
H1       8.835463561   24.779337301   22.321566910 XXXX 1      hop     H   0.200
H2      11.083089387   24.724356473   19.661779573 XXXX 1      hop     H   0.200
end
O1       9.681347760   27.737868529   23.323432363 XXXX 1      oap1    O  -0.800
O2      10.362588533   32.074652577   24.117520540 XXXX 1      oap1    O  -0.800
O3       6.458587825   30.596804855   21.220855097 XXXX 1      oap1    O  -0.800
O4       9.586335615   30.397244990   28.267200057 XXXX 1      oap1    O  -0.800
O5       9.029039640   25.306272177   27.401185255 XXXX 1      oap1    O  -0.800
O6      12.537943207   26.758727529   29.791571525 XXXX 1      oap1    O  -0.800
O7       8.194481407   29.702421621   30.043093125 XXXX 1      oap1    O  -0.800
O8       7.539654221   25.299177514   29.418550621 XXXX 1      oap1    O  -0.800
O9      11.310393640   26.514085757   32.007368559 XXXX 1      oap1    O  -0.800
O10      8.048288337   27.039368800   25.016382999 XXXX 1      oap1    O  -0.800
O11      8.676576406   32.121754769   25.984306923 XXXX 1      oap1    O  -0.800
O12      5.176993500   30.542880204   23.425389175 XXXX 1      oap1    O  -0.800
Ca1     12.969649060   27.400246735   25.280765247 XXXX 1      ca+h    Ca  1.500
Ca2      7.027843402   30.042173729   25.155464352 XXXX 1      ca+h    Ca  1.500
Ca3      4.747342823   29.847714154   27.747094240 XXXX 1      ca+h    Ca  1.500
Ca4     10.831379759   27.146277366   27.978146663 XXXX 1      ca+h    Ca  1.500
Ca5      6.990029007   26.511376129   23.030178764 XXXX 1      ca+h    Ca  1.500
P1       9.407922642   27.742384639   24.841239119 XXXX 1      pap     P   1.000
O13      9.208575228   29.214049998   25.232533227 XXXX 1      oap1    O  -0.800
O14     10.518267022   27.090117752   25.652209129 XXXX 1      oap1    O  -0.800
Ca6     10.824921488   30.798899264   26.140913649 XXXX 1      ca+h    Ca  1.500
P2       8.942505457   32.483861857   24.489261492 XXXX 1      pap     P   1.000
O15      7.968045059   31.585021815   23.685495617 XXXX 1      oap1    O  -0.800
O16      8.708883471   34.046316211   24.334981029 XXXX 1      oap1    O  -0.800
Ca7      6.123018542   32.692397962   22.462708329 XXXX 1      ca+h    Ca  1.500
P3       5.787339335   29.679012507   22.272034845 XXXX 1      pap     P   1.000
O17      6.868397942   28.874359919   22.952268438 XXXX 1      oap1    O  -0.800
O18      4.674972015   28.807469667   21.675616236 XXXX 1      oap1    O  -0.800
Ca8     10.674355865   30.629153532   30.330807100 XXXX 1      ca+h    Ca  1.500
P4       8.351959207   29.543144817   28.530872159 XXXX 1      pap     P   1.000
O19      8.645413332   28.075905676   28.320818871 XXXX 1      oap1    O  -0.800
O20      7.107919615   30.007779925   27.701560870 XXXX 1      oap1    O  -0.800
Ca9      7.028870651   26.741618496   27.184425171 XXXX 1      ca+h    Ca  1.500
P5       8.877359170   24.824179683   28.828245341 XXXX 1      pap     P   1.000
O21      9.961015466   25.550879576   29.623358967 XXXX 1      oap1    O  -0.800
O22      9.062392572   23.308179124   28.887118217 XXXX 1      oap1    O  -0.800
Ca10    11.660078825   24.352754931   30.920064069 XXXX 1      ca+h    Ca  1.500
P6      11.883125495   27.504744449   30.962781675 XXXX 1      pap     P   1.000
O23     10.672408791   28.255061478   30.359776916 XXXX 1      oap1    O  -0.800
O24     12.880680590   28.482427783   31.711032034 XXXX 1      oap1    O  -0.800
O25      4.394699131   24.577023251   28.698356860 XXXX 1      oap2    O  -1.100
O26      6.278452279   24.708610985   26.147526452 XXXX 1      oap2    O  -1.100
H1       4.850492783   24.800060516   27.902683586 XXXX 1      hop     H   0.200
H2       6.612367144   25.355855714   25.560197477 XXXX 1      hop     H   0.200
end
O1       5.531215261   27.148313886   28.872111258 XXXX 1      oap1    O  -0.800
O2       6.142166511   32.076050242   29.948833763 XXXX 1      oap1    O  -0.800
O3       2.409508689   30.648450305   26.849380251 XXXX 1      oap1    O  -0.800
O4       4.380328818   29.876984438   32.504184400 XXXX 1      oap1    O  -0.800
O5       4.860740441   25.215160601   32.858840532 XXXX 1      oap1    O  -0.800
O7       2.987384228   30.800915505   34.317495697 XXXX 1      oap1    O  -0.800
O8       2.866018696   25.015565617   34.286559169 XXXX 1      oap1    O  -0.800
O10      3.916317478   27.288028445   30.734225346 XXXX 1      oap1    O  -0.800
O11      4.103767472   32.098133366   31.328974717 XXXX 1      oap1    O  -0.800
O12      1.193854111   30.697712316   29.031590174 XXXX 1      oap1    O  -0.800
Ca1      8.571176423   27.249750033   30.639506121 XXXX 1      ca+h    Ca  1.500
Ca2      2.946129736   30.235574867   30.549045846 XXXX 1      ca+h    Ca  1.500
Ca3      0.825931444   29.826791473   33.680328126 XXXX 1      ca+h    Ca  1.500
Ca4      6.400306603   27.282743833   33.818844391 XXXX 1      ca+h    Ca  1.500
Ca5      2.833229896   26.443385807   28.661673564 XXXX 1      ca+h    Ca  1.500
P1       5.250689804   27.831552082   30.204278228 XXXX 1      pap     P   1.000
O13      5.073057402   29.313789637   29.979081415 XXXX 1      oap1    O  -0.800
O14      6.347245373   27.507708142   31.218961847 XXXX 1      oap1    O  -0.800
Ca6      6.570507310   30.295263064   31.588602038 XXXX 1      ca+h    Ca  1.500
P2       4.687807372   32.514010140   29.988634182 XXXX 1      pap     P   1.000
O15      3.829441145   31.880631711   28.917926539 XXXX 1      oap1    O  -0.800
O16      4.610188204   34.028194029   29.930350797 XXXX 1      oap1    O  -0.800
Ca7      1.883519962   33.018220238   28.087964685 XXXX 1      ca+h    Ca  1.500
P3       1.662370931   29.766903994   27.853565791 XXXX 1      pap     P   1.000
O17      2.676848037   28.792605908   28.493458443 XXXX 1      oap1    O  -0.800
O18      0.399852662   29.031497456   27.264526569 XXXX 1      oap1    O  -0.800
P4       3.806200274   29.552152164   33.873458975 XXXX 1      pap     P   1.000
O19      5.036208175   29.087288483   34.703574866 XXXX 1      oap1    O  -0.800
O20      2.823927853   28.432016261   33.759955546 XXXX 1      oap1    O  -0.800
Ca9      2.614180388   26.470371735   32.535124969 XXXX 1      ca+h    Ca  1.500
P5       4.391926928   24.837524444   34.291038122 XXXX 1      pap     P   1.000
O21      5.247635351   25.679682569   35.162653446 XXXX 1      oap1    O  -0.800
O22      4.711924211   23.342001264   34.494978236 XXXX 1      oap1    O  -0.800
O25      0.321125000   24.301711618   33.601133050 XXXX 1      oap2    O  -1.100
O26      2.482791607   24.559892006   31.034610995 XXXX 1      oap2    O  -1.100
H1       1.046869738   24.586572714   34.210976282 XXXX 1      hop     H   0.200
H2       3.199286429   24.322919499   30.378898218 XXXX 1      hop     H   0.200
end
O1      33.019127507    3.527093701   31.964196498 XXXX 1      oap1    O  -0.800
O2      32.893286783    7.753447325   32.206805469 XXXX 1      oap1    O  -0.800
O3      29.715297821    6.346292547   29.898491448 XXXX 1      oap1    O  -0.800
O10     31.806557938    2.254428302   33.608799932 XXXX 1      oap1    O  -0.800
O11     31.991553657    8.226824293   34.534081071 XXXX 1      oap1    O  -0.800
O12     27.894137547    6.457565037   31.414058393 XXXX 1      oap1    O  -0.800
Ca2     29.495433769    5.720523320   34.003855468 XXXX 1      ca+h    Ca  1.500
Ca5     30.045598193    2.084030286   31.876832080 XXXX 1      ca+h    Ca  1.500
P1      32.640664072    3.555762156   33.435511201 XXXX 1      pap     P   1.000
O13     31.768113635    4.835301550   33.601121821 XXXX 1      oap1    O  -0.800
O14     33.936115160    3.637518888   34.310352711 XXXX 1      oap1    O  -0.800
Ca6     33.657764648    6.341252949   34.262626657 XXXX 1      ca+h    Ca  1.500
P2      31.756448467    8.323877417   33.017716300 XXXX 1      pap     P   1.000
O15     30.506724230    7.460112041   32.578126942 XXXX 1      oap1    O  -0.800
O16     31.635409968    9.813964446   32.715225358 XXXX 1      oap1    O  -0.800
Ca7     28.982301961    8.516004196   30.783786020 XXXX 1      ca+h    Ca  1.500
P3      28.857056263    5.436521515   30.784621958 XXXX 1      pap     P   1.000
O17     29.757661680    4.596270536   31.794141099 XXXX 1      oap1    O  -0.800
O18     28.015475108    4.472184867   29.824563282 XXXX 1      oap1    O  -0.800
end
O1      32.778488150   11.083196522   23.418231623 XXXX 1      oap1    O  -0.800
O2      33.545318301   15.761715711   24.074132562 XXXX 1      oap1    O  -0.800
O3      29.989420373   14.216004488   21.421186638 XXXX 1      oap1    O  -0.800
O4      33.060677392   13.715745327   28.119317210 XXXX 1      oap1    O  -0.800
O5      32.436827721    9.108246917   27.531337101 XXXX 1      oap1    O  -0.800
O7      31.532409830   13.581766614   30.074861085 XXXX 1      oap1    O  -0.800
O8      30.851133034    9.282055863   29.404706763 XXXX 1      oap1    O  -0.800
O10     31.411172209   10.706900491   25.393835225 XXXX 1      oap1    O  -0.800
O11     31.943561517   15.781693834   26.003452571 XXXX 1      oap1    O  -0.800
O12     28.464340056   14.384444599   23.303854406 XXXX 1      oap1    O  -0.800
Ca2     30.241246624   13.807668304   25.286200578 XXXX 1      ca+h    Ca  1.500
Ca3     28.084778513   13.547364534   27.996013369 XXXX 1      ca+h    Ca  1.500
Ca4     34.093245671   10.932663826   28.160784254 XXXX 1      ca+h    Ca  1.500
Ca5     30.328823757   10.173835114   23.069305829 XXXX 1      ca+h    Ca  1.500
P1      32.631207186   11.436746681   24.898445020 XXXX 1      pap     P   1.000
O13     32.534811142   12.963561609   24.932314961 XXXX 1      oap1    O  -0.800
O14     33.837712619   10.892926501   25.707902902 XXXX 1      oap1    O  -0.800
Ca6     34.181100973   14.356298833   25.971332031 XXXX 1      ca+h    Ca  1.500
P2      32.137903260   16.241505717   24.536199509 XXXX 1      pap     P   1.000
O15     31.061694873   15.475171553   23.663783628 XXXX 1      oap1    O  -0.800
O16     31.995432864   17.758937632   24.381434481 XXXX 1      oap1    O  -0.800
Ca7     29.313336153   16.566385807   22.403911437 XXXX 1      ca+h    Ca  1.500
P3      29.153146773   13.393004936   22.368537158 XXXX 1      pap     P   1.000
O17     30.156457259   12.521094947   23.175766496 XXXX 1      oap1    O  -0.800
O18     28.086683590   12.538728052   21.689940935 XXXX 1      oap1    O  -0.800
Ca8     33.952610301   14.459294065   30.219136024 XXXX 1      ca+h    Ca  1.500
P4      31.657005341   13.210909695   28.570646579 XXXX 1      pap     P   1.000
O19     31.757165214   11.669877035   28.568353427 XXXX 1      oap1    O  -0.800
O20     30.550935782   13.873838456   27.623923871 XXXX 1      oap1    O  -0.800
Ca9     30.185387521   10.423272949   27.436323474 XXXX 1      ca+h    Ca  1.500
P5      32.142633027    8.620161910   28.924089495 XXXX 1      pap     P   1.000
O21     33.243452593    9.280554778   29.843607545 XXXX 1      oap1    O  -0.800
O22     32.122355143    7.022626472   28.927597130 XXXX 1      oap1    O  -0.800
O25     27.784951616    8.391382873   28.607041089 XXXX 1      oap2    O  -1.100
O26     29.803232803    8.401725760   26.143407932 XXXX 1      oap2    O  -1.100
H1      28.396514867    8.429050232   27.880388054 XXXX 1      hop     H   0.200
H2      30.425556156    8.679152705   25.443845341 XXXX 1      hop     H   0.200
end
O1      28.459213763   11.202869242   28.787403184 XXXX 1      oap1    O  -0.800
O2      29.479148178   15.946506763   29.685734988 XXXX 1      oap1    O  -0.800
O3      25.510876235   14.453427022   26.732556109 XXXX 1      oap1    O  -0.800
O4      28.286735046   12.718877274   33.203808708 XXXX 1      oap1    O  -0.800
O5      28.095323166    9.378848667   32.800465508 XXXX 1      oap1    O  -0.800
O7      27.394744560   14.382840423   34.965117980 XXXX 1      oap1    O  -0.800
O8      26.264181378    9.049667762   34.448103693 XXXX 1      oap1    O  -0.800
O10     27.000799056   11.087146007   30.817277172 XXXX 1      oap1    O  -0.800
O11     27.819061353   15.695988303   31.354915528 XXXX 1      oap1    O  -0.800
O12     24.400567490   14.318859336   29.031138827 XXXX 1      oap1    O  -0.800
Ca1     31.968788763   11.166441748   30.900051637 XXXX 1      ca+h    Ca  1.500
Ca2     26.047428901   13.985796717   30.670889654 XXXX 1      ca+h    Ca  1.500
Ca3     24.082226843   13.718273104   33.578889767 XXXX 1      ca+h    Ca  1.500
Ca4     29.726402114   10.923081571   33.639148897 XXXX 1      ca+h    Ca  1.500
Ca5     26.099254552   10.271201781   28.670438759 XXXX 1      ca+h    Ca  1.500
P1      28.377520191   11.609892636   30.327331991 XXXX 1      pap     P   1.000
O13     28.310768283   13.168967674   30.282402045 XXXX 1      oap1    O  -0.800
O14     29.548823040   11.135781764   31.205805789 XXXX 1      oap1    O  -0.800
Ca6     29.841355210   14.189060508   31.646537244 XXXX 1      ca+h    Ca  1.500
P2      28.077366624   16.294093100   29.951103241 XXXX 1      pap     P   1.000
O15     27.089794200   15.539478722   28.992921249 XXXX 1      oap1    O  -0.800
O16     27.930688266   17.845025279   30.024526838 XXXX 1      oap1    O  -0.800
Ca7     25.189755940   16.703407119   28.145001101 XXXX 1      ca+h    Ca  1.500
P3      24.905897418   13.544011693   27.825234716 XXXX 1      pap     P   1.000
O17     26.013608344   12.679661970   28.359546667 XXXX 1      oap1    O  -0.800
O18     23.898853990   12.508930908   27.117047846 XXXX 1      oap1    O  -0.800
P4      27.024144602   13.307188674   33.882238409 XXXX 1      pap     P   1.000
O19     25.961672930   12.255785592   34.316530721 XXXX 1      oap1    O  -0.800
O20     26.320843428   14.253532708   32.957678623 XXXX 1      oap1    O  -0.800
Ca9     25.974468732   10.486787363   32.701107280 XXXX 1      ca+h    Ca  1.500
P5      27.766077989    8.774930958   34.194821856 XXXX 1      pap     P   1.000
O21     28.787231920    9.451415050   35.124165594 XXXX 1      oap1    O  -0.800
O22     27.926844195    7.211789287   34.216219091 XXXX 1      oap1    O  -0.800
O25     23.587778109    7.939839866   33.607300436 XXXX 1      oap2    O  -1.100
O26     25.715318041    8.285465589   31.323687555 XXXX 1      oap2    O  -1.100
H1      24.380095273    8.298385064   33.990855472 XXXX 1      hop     H   0.200
H2      26.562813151    8.297703497   30.903571778 XXXX 1      hop     H   0.200
end
O1      32.958915222   19.296098535   14.970646504 XXXX 1      oap1    O  -0.800
O2      33.819812656   23.831131899   15.769312095 XXXX 1      oap1    O  -0.800
O3      30.261856183   22.419058491   12.880803191 XXXX 1      oap1    O  -0.800
O4      33.442711293   21.795437254   19.617542057 XXXX 1      oap1    O  -0.800
O5      32.502273941   17.163975395   19.029149861 XXXX 1      oap1    O  -0.800
O7      31.862963693   21.983003068   21.501563606 XXXX 1      oap1    O  -0.800
O8      31.360404873   17.223783855   21.311970386 XXXX 1      oap1    O  -0.800
O10     31.556062224   19.286414681   17.093188177 XXXX 1      oap1    O  -0.800
O11     32.405784682   24.078461621   17.706907602 XXXX 1      oap1    O  -0.800
O12     28.811858917   22.534665242   14.826731839 XXXX 1      oap1    O  -0.800
Ca2     30.548377671   21.753579031   16.795324907 XXXX 1      ca+h    Ca  1.500
Ca3     28.628198357   21.947659899   19.701194379 XXXX 1      ca+h    Ca  1.500
Ca4     34.427482824   19.280152164   19.685090587 XXXX 1      ca+h    Ca  1.500
Ca5     30.649153765   18.426240202   14.690588043 XXXX 1      ca+h    Ca  1.500
P1      32.919474903   19.653142486   16.484821294 XXXX 1      pap     P   1.000
O13     33.042181117   21.131555796   16.607918905 XXXX 1      oap1    O  -0.800
O14     34.015637205   18.928974218   17.332884688 XXXX 1      oap1    O  -0.800
Ca6     34.458305222   22.704076310   17.681016451 XXXX 1      ca+h    Ca  1.500
P2      32.423261608   24.329764784   16.226716231 XXXX 1      pap     P   1.000
O15     31.388158100   23.489616382   15.457372513 XXXX 1      oap1    O  -0.800
O16     32.350468996   25.816514475   15.957470089 XXXX 1      oap1    O  -0.800
Ca7     29.912597518   24.663128616   14.095336358 XXXX 1      ca+h    Ca  1.500
P3      29.497500475   21.560663943   13.853823477 XXXX 1      pap     P   1.000
O17     30.469209309   20.748230864   14.669081866 XXXX 1      oap1    O  -0.800
O18     28.435275294   20.736272523   13.104069247 XXXX 1      oap1    O  -0.800
Ca8     34.271562291   22.865739188   21.803310395 XXXX 1      ca+h    Ca  1.500
P4      32.046504377   21.395038889   20.120744208 XXXX 1      pap     P   1.000
O19     32.069949349   19.846912418   20.245505210 XXXX 1      oap1    O  -0.800
O20     30.944105106   21.765118002   19.176736584 XXXX 1      oap1    O  -0.800
Ca9     30.479837397   18.530561329   18.994304244 XXXX 1      ca+h    Ca  1.500
P5      32.545855546   16.650626458   20.472651305 XXXX 1      pap     P   1.000
O21     33.795647156   17.313164922   21.085440760 XXXX 1      oap1    O  -0.800
O22     32.632009527   15.122869119   20.617463411 XXXX 1      oap1    O  -0.800
O25     29.093455714   16.445292780   18.858888167 XXXX 1      oap2    O  -1.100
O26     31.286939585   16.475213343   16.059247824 XXXX 1      oap2    O  -1.100
H1      28.450637939   16.298202554   19.506128507 XXXX 1      hop     H   0.200
H2      30.721056107   16.401996382   16.850549404 XXXX 1      hop     H   0.200
end
O1      28.800647325   19.093063427   20.661560897 XXXX 1      oap1    O  -0.800
O2      29.682081365   24.086523834   21.130534896 XXXX 1      oap1    O  -0.800
O3      26.356834555   22.515310727   18.611780328 XXXX 1      oap1    O  -0.800
O4      29.241354985   21.701160836   25.077370048 XXXX 1      oap1    O  -0.800
O5      28.287389873   16.976317415   24.633341989 XXXX 1      oap1    O  -0.800
O6      32.188512589   18.430529718   27.483520859 XXXX 1      oap1    O  -0.800
O7      27.957808719   21.966974676   27.240869998 XXXX 1      oap1    O  -0.800
O8      27.106226296   17.170399591   26.750616838 XXXX 1      oap1    O  -0.800
O9      30.571923045   18.583478447   29.301997906 XXXX 1      oap1    O  -0.800
O10     27.531754671   19.389324582   22.813067008 XXXX 1      oap1    O  -0.800
O11     28.279964869   24.013171447   23.200566064 XXXX 1      oap1    O  -0.800
O12     24.627964681   22.539326833   20.388271135 XXXX 1      oap1    O  -0.800
Ca1     32.316274176   19.040885819   22.447632187 XXXX 1      ca+h    Ca  1.500
Ca2     26.575399974   21.941237844   22.543401063 XXXX 1      ca+h    Ca  1.500
Ca3     24.352425089   22.099255429   25.340870527 XXXX 1      ca+h    Ca  1.500
Ca4     30.255850461   19.286018546   25.199411214 XXXX 1      ca+h    Ca  1.500
Ca5     26.494135454   18.306185256   20.484373103 XXXX 1      ca+h    Ca  1.500
P1      28.839670641   19.738158536   22.060935202 XXXX 1      pap     P   1.000
O13     28.926643311   21.312933907   21.987150616 XXXX 1      oap1    O  -0.800
O14     29.988380724   19.099007309   22.848514095 XXXX 1      oap1    O  -0.800
Ca6     30.421832484   22.647663785   23.234726168 XXXX 1      ca+h    Ca  1.500
P2      28.307053547   24.444187051   21.698277044 XXXX 1      pap     P   1.000
O15     27.196576752   23.723195343   21.008974009 XXXX 1      oap1    O  -0.800
O16     28.146295909   26.015200723   21.592721910 XXXX 1      oap1    O  -0.800
Ca7     25.652976378   24.947806769   19.756840338 XXXX 1      ca+h    Ca  1.500
P3      25.473685842   21.620816825   19.510252934 XXXX 1      pap     P   1.000
O17     26.381747567   20.722220307   20.427791228 XXXX 1      oap1    O  -0.800
O18     24.479370499   20.803916735   18.648617700 XXXX 1      oap1    O  -0.800
Ca8     30.217085317   22.620354434   27.408664324 XXXX 1      ca+h    Ca  1.500
P4      27.914691272   21.394048022   25.796405689 XXXX 1      pap     P   1.000
O19     27.827694783   19.887946637   25.869181992 XXXX 1      oap1    O  -0.800
O20     26.761983757   22.018050593   24.943674325 XXXX 1      oap1    O  -0.800
Ca9     26.244854248   18.456057302   24.531887549 XXXX 1      ca+h    Ca  1.500
P5      28.341814540   16.604409203   26.099413781 XXXX 1      pap     P   1.000
O21     29.436477163   17.357957315   26.774977520 XXXX 1      oap1    O  -0.800
O22     28.465316296   15.036633322   26.216516961 XXXX 1      oap1    O  -0.800
Ca10    31.104809965   16.284829185   28.138497419 XXXX 1      ca+h    Ca  1.500
P6      31.340970948   19.427191781   28.273294263 XXXX 1      pap     P   1.000
O23     30.354054842   20.153704467   27.376052281 XXXX 1      oap1    O  -0.800
O24     32.288825249   20.429120375   28.980470431 XXXX 1      oap1    O  -0.800
O25     25.015485748   16.485364628   24.511606787 XXXX 1      oap2    O  -1.100
O26     26.965983812   16.441289134   21.748980353 XXXX 1      oap2    O  -1.100
H1      24.702499937   16.110229558   25.334946770 XXXX 1      hop     H   0.200
H2      26.635104980   16.189641188   22.577890025 XXXX 1      hop     H   0.200
end
O1      24.642675202   18.981081697   26.229205809 XXXX 1      oap1    O  -0.800
O2      25.534662363   23.813723856   26.667173108 XXXX 1      oap1    O  -0.800
O3      22.070259494   22.329912205   24.177649026 XXXX 1      oap1    O  -0.800
O4      25.246902084   21.611061606   30.716443876 XXXX 1      oap1    O  -0.800
O5      24.153136320   17.238499164   30.273039628 XXXX 1      oap1    O  -0.800
O6      28.037746797   18.714886894   32.971364170 XXXX 1      oap1    O  -0.800
O7      23.992932228   21.925443316   32.802496937 XXXX 1      oap1    O  -0.800
O8      23.018292994   17.326497635   32.517516143 XXXX 1      oap1    O  -0.800
O9      26.235453299   18.733317712   34.686582385 XXXX 1      oap1    O  -0.800
O10     23.529629565   19.203417261   28.378484380 XXXX 1      oap1    O  -0.800
O11     24.181906303   23.724732769   28.759984962 XXXX 1      oap1    O  -0.800
O12     20.527068988   22.450319667   25.965946699 XXXX 1      oap1    O  -0.800
Ca1     28.267034233   19.054203087   28.024576790 XXXX 1      ca+h    Ca  1.500
Ca2     22.560445257   21.923495072   28.147948183 XXXX 1      ca+h    Ca  1.500
Ca3     20.174907107   22.073628600   30.940248135 XXXX 1      ca+h    Ca  1.500
Ca4     26.175369996   19.277419611   30.831159520 XXXX 1      ca+h    Ca  1.500
Ca5     22.449874339   18.442784178   25.888576636 XXXX 1      ca+h    Ca  1.500
P1      24.803671539   19.643716003   27.633640350 XXXX 1      pap     P   1.000
O13     24.850935521   21.226647569   27.566290002 XXXX 1      oap1    O  -0.800
O14     26.034232148   19.089084300   28.407304317 XXXX 1      oap1    O  -0.800
Ca6     26.359180753   22.565469468   28.876096506 XXXX 1      ca+h    Ca  1.500
P2      24.279381972   24.365556634   27.340938394 XXXX 1      pap     P   1.000
O15     23.107375899   23.796572106   26.505403620 XXXX 1      oap1    O  -0.800
O16     24.291648833   25.908234183   27.411020457 XXXX 1      oap1    O  -0.800
Ca7     21.491342718   24.727383754   25.202922103 XXXX 1      ca+h    Ca  1.500
P3      21.281553698   21.481908480   25.159064242 XXXX 1      pap     P   1.000
O17     22.299446737   20.766819731   26.081504020 XXXX 1      oap1    O  -0.800
O18     20.289864325   20.474514447   24.467481327 XXXX 1      oap1    O  -0.800
Ca8     26.023174397   22.931328745   33.063247951 XXXX 1      ca+h    Ca  1.500
P4      23.900118663   21.347666887   31.349447700 XXXX 1      pap     P   1.000
O19     23.789487141   19.841072093   31.420472768 XXXX 1      oap1    O  -0.800
O20     22.725161631   21.961304147   30.548708380 XXXX 1      oap1    O  -0.800
Ca9     22.112289194   18.564398685   30.140980425 XXXX 1      ca+h    Ca  1.500
P5      24.226435569   16.705577594   31.742856163 XXXX 1      pap     P   1.000
O21     25.471359914   17.312949021   32.405214443 XXXX 1      oap1    O  -0.800
O22     24.169098947   15.162773925   31.744573660 XXXX 1      oap1    O  -0.800
Ca10    27.399411711   16.411706487   33.656225476 XXXX 1      ca+h    Ca  1.500
P6      27.240057512   19.601796725   33.836192723 XXXX 1      pap     P   1.000
O23     26.313053198   20.367681349   32.946558274 XXXX 1      oap1    O  -0.800
O24     28.139022275   20.476236376   34.653632638 XXXX 1      oap1    O  -0.800
O25     20.809563472   16.476108388   30.411224512 XXXX 1      oap2    O  -1.100
O26     23.035161621   16.531863920   27.193878068 XXXX 1      oap2    O  -1.100
H1      20.159008982   15.762700511   30.573910340 XXXX 1      hop     H   0.200
H2      22.381116863   16.913872213   27.803193536 XXXX 1      hop     H   0.200
end
O1      21.007291503   19.881935971   31.725921178 XXXX 1      oap1    O  -0.800
O2      21.379584226   23.993545225   32.116284877 XXXX 1      oap1    O  -0.800
O3      17.910723805   22.367641293   29.700700732 XXXX 1      oap1    O  -0.800
O10     19.878104371   18.650705332   33.548960806 XXXX 1      oap1    O  -0.800
O11     20.609629492   24.340509174   34.321660356 XXXX 1      oap1    O  -0.800
O12     16.291908581   22.504498590   31.667624582 XXXX 1      oap1    O  -0.800
Ca1     24.341581225   19.124755847   33.609740487 XXXX 1      ca+h    Ca  1.500
Ca2     17.952637022   21.815152580   33.870034494 XXXX 1      ca+h    Ca  1.500
Ca5     18.201177645   18.417280550   31.596880213 XXXX 1      ca+h    Ca  1.500
P1      20.810831035   19.802513565   33.255150313 XXXX 1      pap     P   1.000
O13     20.205968054   21.183756031   33.561630995 XXXX 1      oap1    O  -0.800
O14     22.188801970   19.783007513   33.987122008 XXXX 1      oap1    O  -0.800
Ca6     22.158851187   22.554134256   34.106564855 XXXX 1      ca+h    Ca  1.500
P2      20.149463327   24.459425611   32.870648880 XXXX 1      pap     P   1.000
O15     18.950828112   23.556966256   32.470042456 XXXX 1      oap1    O  -0.800
O16     19.799151339   25.955183489   32.616902669 XXXX 1      oap1    O  -0.800
Ca7     17.222910784   24.641433566   30.950233445 XXXX 1      ca+h    Ca  1.500
P3      17.088342660   21.536718154   30.697109315 XXXX 1      pap     P   1.000
O17     18.144397796   20.821717910   31.554394542 XXXX 1      oap1    O  -0.800
O18     16.189211534   20.577990435   29.921535230 XXXX 1      oap1    O  -0.800
O26     18.341452047   16.433847192   32.996159245 XXXX 1      oap2    O  -1.100
H2      18.314044232   16.884195842   33.881449728 XXXX 1      hop     H   0.200
end
O1      33.536385595   27.471902552    6.585567472 XXXX 1      oap1    O  -0.800
O2      34.392556573   32.021795715    7.404945583 XXXX 1      oap1    O  -0.800
O3      30.318697157   30.654680413    4.481636340 XXXX 1      oap1    O  -0.800
O4      33.787301892   30.156993970   11.366364701 XXXX 1      oap1    O  -0.800
O5      33.366878150   24.997166415   10.567967801 XXXX 1      oap1    O  -0.800
O7      32.311392040   29.792701650   13.302331690 XXXX 1      oap1    O  -0.800
O8      31.536566435   25.349504035   12.347941810 XXXX 1      oap1    O  -0.800
O10     32.060532334   27.096676230    8.621534460 XXXX 1      oap1    O  -0.800
O11     32.619128948   32.063458638    9.124146861 XXXX 1      oap1    O  -0.800
O12     29.207886147   30.621568987    6.697491459 XXXX 1      oap1    O  -0.800
Ca2     31.025973514   30.189086736    8.381785503 XXXX 1      ca+h    Ca  1.500
Ca3     28.968632353   29.957676904   11.469064578 XXXX 1      ca+h    Ca  1.500
Ca4     34.848665357   27.125387509   11.261465001 XXXX 1      ca+h    Ca  1.500
Ca5     31.000828379   26.431436012    6.551713027 XXXX 1      ca+h    Ca  1.500
P1      33.355016987   27.758712495    8.079864897 XXXX 1      pap     P   1.000
O13     33.184099058   29.266908252    8.110491101 XXXX 1      oap1    O  -0.800
O14     34.535159769   27.355397518    8.903840583 XXXX 1      oap1    O  -0.800
Ca6     34.783258762   30.581692679    9.322913568 XXXX 1      ca+h    Ca  1.500
P2      32.968397023   32.540953246    7.735500525 XXXX 1      pap     P   1.000
O15     31.932407005   31.838041199    6.896546004 XXXX 1      oap1    O  -0.800
O16     32.841148702   34.123896977    7.666687722 XXXX 1      oap1    O  -0.800
Ca7     30.148741299   32.900677055    5.696408904 XXXX 1      ca+h    Ca  1.500
P3      29.757248795   29.733911184    5.592954089 XXXX 1      pap     P   1.000
O17     30.952030202   28.946208583    6.089606378 XXXX 1      oap1    O  -0.800
O18     28.690421638   28.794240254    4.921393974 XXXX 1      oap1    O  -0.800
Ca8     34.715819296   30.824689716   13.509512420 XXXX 1      ca+h    Ca  1.500
P4      32.509314803   29.536028506   11.827729722 XXXX 1      pap     P   1.000
O19     32.552995928   27.994768288   11.636947754 XXXX 1      oap1    O  -0.800
O20     31.352977990   30.281076730   11.105657600 XXXX 1      oap1    O  -0.800
Ca9     30.875681288   26.712190995   10.576983492 XXXX 1      ca+h    Ca  1.500
P5      32.968118109   24.759525474   12.007558702 XXXX 1      pap     P   1.000
O21     34.004736872   25.441008307   12.954898615 XXXX 1      oap1    O  -0.800
O22     32.916387716   23.296439997   12.187726929 XXXX 1      oap1    O  -0.800
O25     28.366367546   24.544655625   12.280798529 XXXX 1      oap2    O  -1.100
O26     30.478649205   24.719354761    9.248388690 XXXX 1      oap2    O  -1.100
H1      29.022189170   24.334436523   11.607703124 XXXX 1      hop     H   0.200
H2      31.247005605   24.453783039    8.716786142 XXXX 1      hop     H   0.200
end
O1      29.386813616   27.601694766   12.250655012 XXXX 1      oap1    O  -0.800
O2      30.424731040   32.195643267   13.112891870 XXXX 1      oap1    O  -0.800
O3      26.502714637   30.686901294   10.303116197 XXXX 1      oap1    O  -0.800
O4      29.758655465   29.914603215   17.013171508 XXXX 1      oap1    O  -0.800
O5      29.102408674   25.480034853   16.323194997 XXXX 1      oap1    O  -0.800
O6      32.328935018   26.866387748   18.630727079 XXXX 1      oap1    O  -0.800
O7      28.160048602   29.949184221   18.920457546 XXXX 1      oap1    O  -0.800
O8      27.300788232   25.211124721   18.071183401 XXXX 1      oap1    O  -0.800
O9      31.176522222   26.867530173   20.973756000 XXXX 1      oap1    O  -0.800
O10     27.840832402   27.367236988   14.190476764 XXXX 1      oap1    O  -0.800
O11     28.763278202   31.972005024   14.926928462 XXXX 1      oap1    O  -0.800
O12     25.120932091   30.500541834   12.337552747 XXXX 1      oap1    O  -0.800
Ca1     32.643433082   27.269445432   13.988484902 XXXX 1      ca+h    Ca  1.500
Ca2     26.890669469   30.200914826   14.091207418 XXXX 1      ca+h    Ca  1.500
Ca3     24.871681975   30.144737680   16.972643913 XXXX 1      ca+h    Ca  1.500
Ca4     30.565621222   27.440992341   17.052433204 XXXX 1      ca+h    Ca  1.500
Ca5     26.876875023   26.471965276   12.060471114 XXXX 1      ca+h    Ca  1.500
P1      29.221041072   27.880064423   13.740736440 XXXX 1      pap     P   1.000
O13     29.305698765   29.412014593   13.856548524 XXXX 1      oap1    O  -0.800
O14     30.356804059   27.260251654   14.584836850 XXXX 1      oap1    O  -0.800
Ca6     30.912013002   30.766336151   14.922385317 XXXX 1      ca+h    Ca  1.500
P2      28.988409819   32.553631228   13.520798246 XXXX 1      pap     P   1.000
O15     27.971966857   31.860934003   12.535413758 XXXX 1      oap1    O  -0.800
O16     28.780405392   34.104681974   13.610944643 XXXX 1      oap1    O  -0.800
Ca7     25.947491483   32.811824561   11.340737773 XXXX 1      ca+h    Ca  1.500
P3      25.821633690   29.700033950   11.235729701 XXXX 1      pap     P   1.000
O17     26.867541879   28.877339110   11.898921481 XXXX 1      oap1    O  -0.800
O18     24.808310395   28.784261260   10.446120243 XXXX 1      oap1    O  -0.800
Ca8     30.624472107   30.911532955   19.064301748 XXXX 1      ca+h    Ca  1.500
P4      28.316812627   29.575987586   17.436401119 XXXX 1      pap     P   1.000
O19     28.182576856   28.057989469   17.274047477 XXXX 1      oap1    O  -0.800
O20     27.295674413   30.305919800   16.532455063 XXXX 1      oap1    O  -0.800
Ca9     26.651481684   26.609878009   16.147499132 XXXX 1      ca+h    Ca  1.500
P5      28.762863152   24.879933841   17.698768365 XXXX 1      pap     P   1.000
O21     29.652428001   25.686812963   18.644957803 XXXX 1      oap1    O  -0.800
O22     29.003334516   23.314745557   17.710347005 XXXX 1      oap1    O  -0.800
Ca10    31.493837567   24.785418200   19.714849655 XXXX 1      ca+h    Ca  1.500
P6      31.730855072   27.732700767   19.814888208 XXXX 1      pap     P   1.000
O23     30.572869473   28.508573739   19.280842010 XXXX 1      oap1    O  -0.800
O24     32.820580352   28.716008241   20.395268315 XXXX 1      oap1    O  -0.800
O25     24.348926709   24.835018895   17.728752118 XXXX 1      oap2    O  -1.100
O26     26.337044260   24.464419128   14.961013156 XXXX 1      oap2    O  -1.100
H1      24.641489279   24.446607608   16.918499235 XXXX 1      hop     H   0.200
H2      26.924808291   23.919830497   14.476548081 XXXX 1      hop     H   0.200
end
O1      25.320900914   27.839783888   17.807750725 XXXX 1      oap1    O  -0.800
O2      26.166720072   32.242039479   18.533113609 XXXX 1      oap1    O  -0.800
O3      22.145743736   30.787388562   15.818213209 XXXX 1      oap1    O  -0.800
O4      25.574881996   30.062348933   22.610638920 XXXX 1      oap1    O  -0.800
O5      25.028948211   25.532581706   21.997525893 XXXX 1      oap1    O  -0.800
O6      28.198741876   26.818439541   24.350205294 XXXX 1      oap1    O  -0.800
O7      24.096260795   29.872172500   24.625915183 XXXX 1      oap1    O  -0.800
O8      23.161376699   25.055867797   23.596136109 XXXX 1      oap1    O  -0.800
O9      26.900877913   26.889499864   26.564240184 XXXX 1      oap1    O  -0.800
O10     23.703302546   27.485959636   19.653353036 XXXX 1      oap1    O  -0.800
O11     24.601370672   32.164872593   20.487400190 XXXX 1      oap1    O  -0.800
O12     20.864329460   30.600125818   17.815710377 XXXX 1      oap1    O  -0.800
Ca1     28.444620364   27.428519620   19.744190396 XXXX 1      ca+h    Ca  1.500
Ca2     22.909181674   30.119577186   19.895917414 XXXX 1      ca+h    Ca  1.500
Ca3     20.729375458   29.952117980   22.503951063 XXXX 1      ca+h    Ca  1.500
Ca4     26.385815570   27.411112126   22.606645515 XXXX 1      ca+h    Ca  1.500
Ca5     22.908005374   26.747374068   17.454249841 XXXX 1      ca+h    Ca  1.500
P1      25.128185818   28.007048611   19.298842970 XXXX 1      pap     P   1.000
O13     25.139206270   29.449323965   19.541530805 XXXX 1      oap1    O  -0.800
O14     26.090144656   27.261671090   20.168359768 XXXX 1      oap1    O  -0.800
Ca6     26.845274080   30.865393010   20.560500927 XXXX 1      ca+h    Ca  1.500
P2      24.758732615   32.611395779   19.036328299 XXXX 1      pap     P   1.000
O15     23.705558423   31.911602844   18.131324008 XXXX 1      oap1    O  -0.800
O16     24.583246036   34.148150907   19.015372261 XXXX 1      oap1    O  -0.800
Ca7     21.988799335   32.981782368   16.860096343 XXXX 1      ca+h    Ca  1.500
P3      21.636834154   29.784097797   16.799104631 XXXX 1      pap     P   1.000
O17     22.831893334   29.064939289   17.411179632 XXXX 1      oap1    O  -0.800
O18     20.745380027   28.766035950   16.126338453 XXXX 1      oap1    O  -0.800
Ca8     26.526657523   30.926354540   24.828077875 XXXX 1      ca+h    Ca  1.500
P4      24.229606681   29.542116154   23.182908581 XXXX 1      pap     P   1.000
O19     24.195455310   28.002085721   23.064800715 XXXX 1      oap1    O  -0.800
O20     23.091808523   30.074256988   22.311004488 XXXX 1      oap1    O  -0.800
Ca9     22.709833873   26.744424735   21.683241296 XXXX 1      ca+h    Ca  1.500
P5      24.657392445   24.875148063   23.384216530 XXXX 1      pap     P   1.000
O21     25.375916989   25.696044830   24.415259378 XXXX 1      oap1    O  -0.800
O22     24.967628561   23.360837817   23.460388275 XXXX 1      oap1    O  -0.800
Ca10    27.308275769   24.549884543   25.257960739 XXXX 1      ca+h    Ca  1.500
P6      27.637477410   27.726778782   25.469188405 XXXX 1      pap     P   1.000
O23     26.563728454   28.528766381   24.778324993 XXXX 1      oap1    O  -0.800
O24     28.739239902   28.651648117   26.133305039 XXXX 1      oap1    O  -0.800
O25     20.090032159   24.620489450   23.309769040 XXXX 1      oap2    O  -1.100
O26     22.251564842   24.649027844   20.673806782 XXXX 1      oap2    O  -1.100
H1      20.891327046   24.559188943   22.814880580 XXXX 1      hop     H   0.200
H2      22.881285424   24.867421092   20.031083604 XXXX 1      hop     H   0.200
end
O1      21.315025016   27.525262435   23.362826786 XXXX 1      oap1    O  -0.800
O2      21.956762472   32.200072849   24.218455050 XXXX 1      oap1    O  -0.800
O3      18.454213822   30.461845502   21.374918461 XXXX 1      oap1    O  -0.800
O4      21.301691450   30.294861860   28.226504769 XXXX 1      oap1    O  -0.800
O5      20.825296118   25.309939990   27.551113277 XXXX 1      oap1    O  -0.800
O6      24.259911688   26.744781912   30.118474229 XXXX 1      oap1    O  -0.800
O7      19.843303813   29.855966311   30.171897522 XXXX 1      oap1    O  -0.800
O8      19.154819580   25.280913791   29.304289876 XXXX 1      oap1    O  -0.800
O9      22.554404550   26.748132947   31.988809533 XXXX 1      oap1    O  -0.800
O10     19.636513870   27.250595468   25.199456695 XXXX 1      oap1    O  -0.800
O11     20.364371072   31.962982244   26.043771434 XXXX 1      oap1    O  -0.800
O12     16.829310111   30.744960996   23.279460713 XXXX 1      oap1    O  -0.800
Ca1     24.542095417   27.584437477   25.528122601 XXXX 1      ca+h    Ca  1.500
Ca2     18.621933774   29.913655823   25.381261047 XXXX 1      ca+h    Ca  1.500
Ca3     16.485055958   29.978245457   27.925122031 XXXX 1      ca+h    Ca  1.500
Ca4     22.508754878   27.211096196   28.188226981 XXXX 1      ca+h    Ca  1.500
Ca5     18.797599412   26.595256713   23.097671524 XXXX 1      ca+h    Ca  1.500
P1      20.995450071   27.882656653   24.850760781 XXXX 1      pap     P   1.000
O13     20.996052090   29.409512715   24.915044461 XXXX 1      oap1    O  -0.800
O14     22.063335557   27.218869102   25.787972982 XXXX 1      oap1    O  -0.800
Ca6     22.473147570   30.719080980   26.147684089 XXXX 1      ca+h    Ca  1.500
P2      20.547363332   32.575843591   24.706709685 XXXX 1      pap     P   1.000
O15     19.565886155   31.848705934   23.745279699 XXXX 1      oap1    O  -0.800
O16     20.321824758   34.093170529   24.637543875 XXXX 1      oap1    O  -0.800
Ca7     17.788881294   32.877662588   22.441768101 XXXX 1      ca+h    Ca  1.500
P3      17.527155269   29.746553979   22.392328140 XXXX 1      pap     P   1.000
O17     18.496202546   28.900451312   23.250418118 XXXX 1      oap1    O  -0.800
O18     16.522389585   28.852457866   21.661271227 XXXX 1      oap1    O  -0.800
Ca8     22.418137213   30.892310562   30.296602306 XXXX 1      ca+h    Ca  1.500
P4      20.043078343   29.504478306   28.636244442 XXXX 1      pap     P   1.000
O19     20.219941347   28.010286183   28.395749035 XXXX 1      oap1    O  -0.800
O20     18.899424260   30.153322542   27.867470108 XXXX 1      oap1    O  -0.800
Ca9     18.588509056   26.583005081   27.390449853 XXXX 1      ca+h    Ca  1.500
P5      20.599745296   24.929422599   28.989255997 XXXX 1      pap     P   1.000
O21     21.560557546   25.750057990   29.800892686 XXXX 1      oap1    O  -0.800
O22     20.829507517   23.404112062   29.069758395 XXXX 1      oap1    O  -0.800
Ca10    23.303629155   24.536165795   30.892047987 XXXX 1      ca+h    Ca  1.500
P6      23.516805289   27.616483518   31.146096896 XXXX 1      pap     P   1.000
O23     22.590808902   28.533474623   30.277989978 XXXX 1      oap1    O  -0.800
O24     24.479433970   28.438785421   31.956746446 XXXX 1      oap1    O  -0.800
O25     16.060060910   24.551562474   28.793423784 XXXX 1      oap2    O  -1.100
O26     17.891314232   24.629686642   26.203065605 XXXX 1      oap2    O  -1.100
H1      16.604978141   24.453552810   28.027485542 XXXX 1      hop     H   0.200
H2      18.470219029   24.650673640   25.448881875 XXXX 1      hop     H   0.200
end
O1      17.111503547   27.416471374   28.940283436 XXXX 1      oap1    O  -0.800
O2      17.916107147   32.001956011   29.764815802 XXXX 1      oap1    O  -0.800
O3      14.001771897   30.790880931   26.778128463 XXXX 1      oap1    O  -0.800
O4      16.542153868   29.170290094   33.229278107 XXXX 1      oap1    O  -0.800
O5      16.387911930   25.563318962   33.008894445 XXXX 1      oap1    O  -0.800
O7      15.619353116   30.716855567   35.056764377 XXXX 1      oap1    O  -0.800
O8      14.706382870   25.345686234   34.660152676 XXXX 1      oap1    O  -0.800
O10     15.514394534   27.172387736   30.814212944 XXXX 1      oap1    O  -0.800
O11     16.115750704   31.936232014   31.440749329 XXXX 1      oap1    O  -0.800
O12     12.837442405   30.599244055   29.030456850 XXXX 1      oap1    O  -0.800
Ca1     20.369925678   27.471933996   30.969636305 XXXX 1      ca+h    Ca  1.500
Ca2     14.407641040   30.079433421   30.862726641 XXXX 1      ca+h    Ca  1.500
Ca3     12.241566242   29.846327058   33.715509629 XXXX 1      ca+h    Ca  1.500
Ca4     18.017339670   27.267213775   33.817844231 XXXX 1      ca+h    Ca  1.500
Ca5     14.641632867   26.460217552   28.588020744 XXXX 1      ca+h    Ca  1.500
P1      16.845940261   27.838679173   30.356096994 XXXX 1      pap     P   1.000
O13     16.573144879   29.374031258   30.315453494 XXXX 1      oap1    O  -0.800
O14     18.044517413   27.462422132   31.325105136 XXXX 1      oap1    O  -0.800
Ca6     18.115977156   30.388279850   31.765191904 XXXX 1      ca+h    Ca  1.500
P2      16.465343508   32.486740158   30.100788011 XXXX 1      pap     P   1.000
O15     15.443164886   31.805232525   29.199057791 XXXX 1      oap1    O  -0.800
O16     16.380857123   34.059039192   30.061919094 XXXX 1      oap1    O  -0.800
Ca7     13.623018520   32.870446173   28.122353227 XXXX 1      ca+h    Ca  1.500
P3      13.372079137   29.803789627   27.805228141 XXXX 1      pap     P   1.000
O17     14.436639580   28.822882162   28.310139058 XXXX 1      oap1    O  -0.800
O18     12.188915640   29.016245031   27.113912261 XXXX 1      oap1    O  -0.800
P4      15.290610974   29.727151900   33.954757121 XXXX 1      pap     P   1.000
O19     14.164555914   28.718061879   34.254181350 XXXX 1      oap1    O  -0.800
O20     14.557450958   30.622336370   33.022442637 XXXX 1      oap1    O  -0.800
Ca9     14.222576570   26.608512602   32.712565619 XXXX 1      ca+h    Ca  1.500
P5      16.203177838   24.937151020   34.384519681 XXXX 1      pap     P   1.000
O21     17.259649812   25.657428996   35.305701002 XXXX 1      oap1    O  -0.800
O22     16.348322088   23.391545214   34.202078041 XXXX 1      oap1    O  -0.800
O25     11.990810187   24.208972722   34.270363987 XXXX 1      oap2    O  -1.100
O26     14.009386999   24.663684733   31.362074914 XXXX 1      oap2    O  -1.100
H1      12.557815697   24.452701738   35.030631294 XXXX 1      hop     H   0.200
H2      14.538001730   24.259594129   30.662040400 XXXX 1      hop     H   0.200
end
O1      32.844608361   19.634033061   31.707283239 XXXX 1      oap1    O  -0.800
O2      32.942537182   23.977567512   31.977729617 XXXX 1      oap1    O  -0.800
O3      29.714985741   22.382781216   29.695386301 XXXX 1      oap1    O  -0.800
O10     31.635661519   18.733521601   33.600012012 XXXX 1      oap1    O  -0.800
O11     32.363559397   24.285898892   34.293091890 XXXX 1      oap1    O  -0.800
O12     28.003566096   22.583179182   31.539329763 XXXX 1      oap1    O  -0.800
Ca2     29.594178829   21.981158947   33.701031599 XXXX 1      ca+h    Ca  1.500
Ca5     29.926665258   18.432179563   31.627038943 XXXX 1      ca+h    Ca  1.500
P1      32.515654269   19.890658808   33.146956351 XXXX 1      pap     P   1.000
O13     31.751775776   21.194008367   33.265387905 XXXX 1      oap1    O  -0.800
O14     33.793728413   20.044252512   34.096796901 XXXX 1      oap1    O  -0.800
Ca6     33.734377294   22.375823126   33.970040645 XXXX 1      ca+h    Ca  1.500
P2      31.836321592   24.481080352   32.850747057 XXXX 1      pap     P   1.000
O15     30.636695496   23.680902386   32.383600278 XXXX 1      oap1    O  -0.800
O16     31.688679653   26.042356664   32.726208041 XXXX 1      oap1    O  -0.800
Ca7     29.068785655   24.723786091   30.843950510 XXXX 1      ca+h    Ca  1.500
P3      28.777840532   21.572343713   30.649545521 XXXX 1      pap     P   1.000
O17     29.744607291   20.856446776   31.584436401 XXXX 1      oap1    O  -0.800
O18     27.783248836   20.621873127   29.915594773 XXXX 1      oap1    O  -0.800
O26     30.036055628   16.329092617   32.934175736 XXXX 1      oap2    O  -1.100
H2      29.999411051   16.685235711   33.814300402 XXXX 1      hop     H   0.200
end
O1      32.797526683   27.775267728   23.412374287 XXXX 1      oap1    O  -0.800
O2      33.452406833   31.901170589   24.023812278 XXXX 1      oap1    O  -0.800
O3      29.501402982   30.971277176   21.304981812 XXXX 1      oap1    O  -0.800
O4      32.938860473   30.388385895   28.303930889 XXXX 1      oap1    O  -0.800
O5      32.216819048   25.483811983   27.413308744 XXXX 1      oap1    O  -0.800
O7      31.489776340   29.774663695   30.232304351 XXXX 1      oap1    O  -0.800
O8      30.762475614   25.402494078   29.320740902 XXXX 1      oap1    O  -0.800
O10     31.273166008   27.204777427   25.238484506 XXXX 1      oap1    O  -0.800
O11     31.922569999   31.986848285   25.979361060 XXXX 1      oap1    O  -0.800
O12     28.495774651   30.468135205   23.586550880 XXXX 1      oap1    O  -0.800
Ca2     30.193741450   30.354461507   25.307686045 XXXX 1      ca+h    Ca  1.500
Ca3     28.153336424   29.881673919   28.089521753 XXXX 1      ca+h    Ca  1.500
Ca4     34.043836340   27.253155388   28.224413189 XXXX 1      ca+h    Ca  1.500
Ca5     30.293544038   26.710594084   23.062572376 XXXX 1      ca+h    Ca  1.500
P1      32.583939674   27.966127539   24.928817264 XXXX 1      pap     P   1.000
O13     32.438073646   29.472650714   25.142893183 XXXX 1      oap1    O  -0.800
O14     33.750791541   27.453575433   25.837304930 XXXX 1      oap1    O  -0.800
Ca6     34.083942376   30.652843876   26.121468834 XXXX 1      ca+h    Ca  1.500
P2      32.119544636   32.468899140   24.510175439 XXXX 1      pap     P   1.000
O15     31.044715533   31.840371549   23.630185021 XXXX 1      oap1    O  -0.800
O16     32.054878493   34.042296542   24.485220426 XXXX 1      oap1    O  -0.800
Ca7     29.475278669   33.096417401   22.483463954 XXXX 1      ca+h    Ca  1.500
P3      29.110414632   29.830068816   22.332064211 XXXX 1      pap     P   1.000
O17     30.344227037   29.055117282   22.826902033 XXXX 1      oap1    O  -0.800
O18     28.165166810   28.850082511   21.655607394 XXXX 1      oap1    O  -0.800
Ca8     34.350722520   30.838099490   30.326066506 XXXX 1      ca+h    Ca  1.500
P4      31.641754649   29.610853834   28.713693267 XXXX 1      pap     P   1.000
O19     31.810575846   28.139947545   28.394520043 XXXX 1      oap1    O  -0.800
O20     30.466596151   30.197108287   27.894477300 XXXX 1      oap1    O  -0.800
Ca9     30.234137787   26.729568697   27.268177725 XXXX 1      ca+h    Ca  1.500
P5      32.100123136   24.990086327   28.863635413 XXXX 1      pap     P   1.000
O21     33.139160681   25.667190888   29.715965905 XXXX 1      oap1    O  -0.800
O22     32.294590868   23.437369980   28.823577528 XXXX 1      oap1    O  -0.800
O25     27.643713054   24.545570346   28.880786635 XXXX 1      oap2    O  -1.100
O26     29.620874863   24.661280283   26.143635007 XXXX 1      oap2    O  -1.100
H1      27.469878195   24.893344037   27.989665739 XXXX 1      hop     H   0.200
H2      30.202976496   24.746895808   25.380745013 XXXX 1      hop     H   0.200
end
O1      28.672669080   27.399241300   28.910065944 XXXX 1      oap1    O  -0.800
O2      29.576722940   32.210733180   29.884406265 XXXX 1      oap1    O  -0.800
O3      25.741285144   30.648442886   27.082150624 XXXX 1      oap1    O  -0.800
O4      28.394592341   29.128484027   33.450113029 XXXX 1      oap1    O  -0.800
O5      28.146858670   25.511197687   32.858633456 XXXX 1      oap1    O  -0.800
O7      27.265060028   30.605983304   35.321922822 XXXX 1      oap1    O  -0.800
O8      26.322968327   25.099290970   34.501709703 XXXX 1      oap1    O  -0.800
O10     27.080687505   27.359370890   30.818791392 XXXX 1      oap1    O  -0.800
O11     27.876234562   31.971690102   31.671487370 XXXX 1      oap1    O  -0.800
O12     24.400298389   30.623674823   29.166108706 XXXX 1      oap1    O  -0.800
Ca1     31.808360997   27.487647077   30.890412720 XXXX 1      ca+h    Ca  1.500
Ca2     26.114212995   30.132911521   30.909733062 XXXX 1      ca+h    Ca  1.500
Ca3     24.023856151   29.804079251   33.694964840 XXXX 1      ca+h    Ca  1.500
Ca4     29.736683704   27.228216261   33.787973833 XXXX 1      ca+h    Ca  1.500
Ca5     26.229413562   26.436875868   28.790860597 XXXX 1      ca+h    Ca  1.500
P1      28.477359144   27.809995962   30.396366593 XXXX 1      pap     P   1.000
O13     28.464209013   29.308648882   30.400077721 XXXX 1      oap1    O  -0.800
O14     29.577509503   27.201901613   31.299994799 XXXX 1      oap1    O  -0.800
Ca6     29.790083579   30.539471208   31.786035073 XXXX 1      ca+h    Ca  1.500
P2      28.183165302   32.654047945   30.286919547 XXXX 1      pap     P   1.000
O15     27.191893062   31.974619763   29.248036274 XXXX 1      oap1    O  -0.800
O16     28.092322136   34.199569162   30.367858299 XXXX 1      oap1    O  -0.800
Ca7     25.200423652   32.882111038   28.263515653 XXXX 1      ca+h    Ca  1.500
P3      24.944144317   29.729370408   28.048003454 XXXX 1      pap     P   1.000
O17     26.017942873   28.839485052   28.613111328 XXXX 1      oap1    O  -0.800
O18     23.843621419   28.987815407   27.282299364 XXXX 1      oap1    O  -0.800
P4      27.113726228   29.659982376   34.134652953 XXXX 1      pap     P   1.000
O19     26.031346669   28.500716719   34.256439919 XXXX 1      oap1    O  -0.800
O20     26.404015599   30.505316149   33.112675394 XXXX 1      oap1    O  -0.800
Ca9     26.035073230   26.729561313   32.759097222 XXXX 1      ca+h    Ca  1.500
P5      27.829295244   24.913825441   34.283841934 XXXX 1      pap     P   1.000
O21     28.765106361   25.637395450   35.332131672 XXXX 1      oap1    O  -0.800
O22     28.021001359   23.381520544   34.336445351 XXXX 1      oap1    O  -0.800
O25     23.594794984   24.441643726   34.040873289 XXXX 1      oap2    O  -1.100
O26     25.632168978   24.762444380   31.368261828 XXXX 1      oap2    O  -1.100
H1      24.301023866   24.768588030   34.638443839 XXXX 1      hop     H   0.200
H2      26.404464360   24.605131503   30.823443188 XXXX 1      hop     H   0.200
end
O3      34.388903209    6.159816105    7.381117604 XXXX 1      oap1    O  -0.800
O12     32.940159768    6.224453279    9.309758765 XXXX 1      oap1    O  -0.800
Ca2     34.733204742    5.785080640   11.191199804 XXXX 1      ca+h    Ca  1.500
Ca3     32.814124392    5.498503914   14.093581534 XXXX 1      ca+h    Ca  1.500
Ca5     34.994524896    2.143654727    9.229372386 XXXX 1      ca+h    Ca  1.500
Ca7     33.830588735    8.390592591    8.372602680 XXXX 1      ca+h    Ca  1.500
P3      33.599363378    5.231769112    8.283452711 XXXX 1      pap     P   1.000
O17     34.700783576    4.405923512    9.013243981 XXXX 1      oap1    O  -0.800
O18     32.537070219    4.366732854    7.627938431 XXXX 1      oap1    O  -0.800
Ca9     34.555406139    2.242282997   13.343972182 XXXX 1      ca+h    Ca  1.500
end
O3      10.144650537   13.974808545   32.427183131 XXXX 1      oap1    O  -0.800
O12      9.027829813   14.369171472   34.500625088 XXXX 1      oap1    O  -0.800
Ca5     10.710098019    9.704551599   34.170026064 XXXX 1      ca+h    Ca  1.500
Ca7      9.228275517   16.351761765   33.069041558 XXXX 1      ca+h    Ca  1.500
P3       9.389428321   13.243799422   33.526600943 XXXX 1      pap     P   1.000
O17     10.377445009   12.187024258   34.134920333 XXXX 1      oap1    O  -0.800
O18      8.149348164   12.622216760   32.865942888 XXXX 1      oap1    O  -0.800
end
O3      33.815621297    6.009674636   24.223632619 XXXX 1      oap1    O  -0.800
O12     32.063567368    6.294907051   25.835676147 XXXX 1      oap1    O  -0.800
Ca2     34.080078315    5.580997907   28.381498805 XXXX 1      ca+h    Ca  1.500
Ca3     31.888106492    5.640206048   31.051173384 XXXX 1      ca+h    Ca  1.500
Ca5     33.991783711    2.176396090   26.040818821 XXXX 1      ca+h    Ca  1.500
Ca7     33.201078298    8.541192190   25.157177380 XXXX 1      ca+h    Ca  1.500
P3      32.957120819    5.265604470   25.211920613 XXXX 1      pap     P   1.000
O17     33.914101980    4.605161390   26.223913002 XXXX 1      oap1    O  -0.800
O18     32.097443595    4.240160401   24.465929999 XXXX 1      oap1    O  -0.800
Ca9     33.982981086    2.291297542   30.276335757 XXXX 1      ca+h    Ca  1.500
end
O3      33.704856553   14.455538294   15.740753126 XXXX 1      oap1    O  -0.800
O12     32.735743775   14.154689222   17.915624443 XXXX 1      oap1    O  -0.800
Ca2     34.461339753   13.786312945   19.714012746 XXXX 1      ca+h    Ca  1.500
Ca3     32.306002562   13.623663325   22.435934328 XXXX 1      ca+h    Ca  1.500
Ca5     34.528215563   10.291851285   17.422480378 XXXX 1      ca+h    Ca  1.500
Ca7     33.583370269   16.537197040   16.919516212 XXXX 1      ca+h    Ca  1.500
P3      33.233772780   13.420540314   16.700150701 XXXX 1      pap     P   1.000
O17     34.494337071   12.676034862   17.210652546 XXXX 1      oap1    O  -0.800
O18     32.153063954   12.490122777   16.057692458 XXXX 1      oap1    O  -0.800
Ca9     34.288086667   10.266595631   21.781044847 XXXX 1      ca+h    Ca  1.500
O25     31.827046896    8.169916985   23.076649574 XXXX 1      oap2    O  -1.100
H1      32.497000941    8.255692429   22.378074694 XXXX 1      hop     H   0.200
end
O3      21.910965250   14.095443178   32.411425344 XXXX 1      oap1    O  -0.800
O12     20.636544855   14.442099123   34.412417044 XXXX 1      oap1    O  -0.800
Ca5     22.229414855    9.881089392   34.285034276 XXXX 1      ca+h    Ca  1.500
Ca7     20.821999938   16.460893289   33.286126264 XXXX 1      ca+h    Ca  1.500
P3      21.144462845   13.252878441   33.537586060 XXXX 1      pap     P   1.000
O17     22.134478390   12.293533739   34.237485316 XXXX 1      oap1    O  -0.800
O18     19.918038473   12.577231104   32.932513778 XXXX 1      oap1    O  -0.800
end
O3      34.560965547   22.291822246    7.210909874 XXXX 1      oap1    O  -0.800
O12     32.850553417   22.506969622    9.049509160 XXXX 1      oap1    O  -0.800
Ca2     34.726072225   21.929451460   11.241037062 XXXX 1      ca+h    Ca  1.500
Ca3     32.645228942   21.915828516   14.168301893 XXXX 1      ca+h    Ca  1.500
Ca5     34.864539157   18.330422954    9.063186693 XXXX 1      ca+h    Ca  1.500
Ca7     33.998173728   24.481586627    8.396127925 XXXX 1      ca+h    Ca  1.500
P3      33.676523127   21.509227220    8.227931207 XXXX 1      pap     P   1.000
O17     34.660968830   20.805935353    9.163164547 XXXX 1      oap1    O  -0.800
O18     32.696861692   20.515669165    7.547628184 XXXX 1      oap1    O  -0.800
Ca9     34.546375944   18.373372078   13.337928701 XXXX 1      ca+h    Ca  1.500
O25     33.178215716   16.374854764   13.215675692 XXXX 1      oap2    O  -1.100
H1      32.822847219   16.476238026   14.047050637 XXXX 1      hop     H   0.200
end
O3      10.083029148   30.232269567   32.633425073 XXXX 1      oap1    O  -0.800
O12      8.813383450   30.463167294   34.580894724 XXXX 1      oap1    O  -0.800
Ca5     10.395439178   26.080992049   34.082020346 XXXX 1      ca+h    Ca  1.500
Ca7      9.152673946   32.512074949   33.467730293 XXXX 1      ca+h    Ca  1.500
P3       9.291429646   29.323953554   33.623894927 XXXX 1      pap     P   1.000
O17     10.376015109   28.452537576   34.277893615 XXXX 1      oap1    O  -0.800
O18      8.158672607   28.570942157   32.892298696 XXXX 1      oap1    O  -0.800
end
O3      33.352589883   14.335893240   32.558930686 XXXX 1      oap1    O  -0.800
O12     31.840973529   14.423205860   34.526094775 XXXX 1      oap1    O  -0.800
Ca5     33.654507458   10.146147160   34.434824421 XXXX 1      ca+h    Ca  1.500
Ca7     32.434761496   16.557731364   33.409989653 XXXX 1      ca+h    Ca  1.500
P3      32.493973877   13.446396413   33.568268329 XXXX 1      pap     P   1.000
O17     33.521824041   12.477016848   34.288382301 XXXX 1      oap1    O  -0.800
O18     31.490178295   12.546600896   32.842246649 XXXX 1      oap1    O  -0.800
end
O3      33.699165728   22.525310141   24.034799177 XXXX 1      oap1    O  -0.800
O12     32.153136150   22.563288360   25.997020690 XXXX 1      oap1    O  -0.800
Ca2     33.968514384   21.970216758   28.017182117 XXXX 1      ca+h    Ca  1.500
Ca3     31.844128956   21.966672756   30.828703039 XXXX 1      ca+h    Ca  1.500
Ca5     34.011089591   18.501221398   25.801591387 XXXX 1      ca+h    Ca  1.500
Ca7     33.084955759   24.690218414   25.285500404 XXXX 1      ca+h    Ca  1.500
P3      32.836864291   21.651920102   24.988708404 XXXX 1      pap     P   1.000
O17     33.845277418   20.818476241   25.735140608 XXXX 1      oap1    O  -0.800
O18     31.871114208   20.761569682   24.121610679 XXXX 1      oap1    O  -0.800
Ca9     33.988821268   18.512588445   29.930061937 XXXX 1      ca+h    Ca  1.500
O25     32.586940612   16.442683133   29.981684536 XXXX 1      oap2    O  -1.100
H1      31.818266984   16.736996825   30.489617997 XXXX 1      hop     H   0.200
end
O3      34.025541813   30.790784726   15.793053731 XXXX 1      oap1    O  -0.800
O12     32.745765689   30.630880196   17.905978194 XXXX 1      oap1    O  -0.800
Ca2     34.447913092   30.117169978   19.625240699 XXXX 1      ca+h    Ca  1.500
Ca3     32.397266341   30.101573885   22.545719576 XXXX 1      ca+h    Ca  1.500
Ca5     34.335137532   26.651740040   17.436054629 XXXX 1      ca+h    Ca  1.500
Ca7     33.655129208   32.933674832   16.944272999 XXXX 1      ca+h    Ca  1.500
P3      33.340208095   29.796835171   16.737272571 XXXX 1      pap     P   1.000
O17     34.461227247   28.988554583   17.379027847 XXXX 1      oap1    O  -0.800
O18     32.284817072   28.890348920   16.025001888 XXXX 1      oap1    O  -0.800
Ca9     34.218318382   26.984162252   21.754109173 XXXX 1      ca+h    Ca  1.500
O25     31.733824804   24.732937923   23.344171152 XXXX 1      oap2    O  -1.100
H1      32.520765043   24.350346067   23.084186279 XXXX 1      hop     H   0.200
end
O3      21.679465902   30.414924835   32.478409091 XXXX 1      oap1    O  -0.800
O12     20.660380673   30.737949030   34.619433281 XXXX 1      oap1    O  -0.800
Ca5     21.989302749   26.246702676   34.230635688 XXXX 1      ca+h    Ca  1.500
Ca7     20.787536148   32.656737988   33.115638196 XXXX 1      ca+h    Ca  1.500
P3      20.998815319   29.661491449   33.593487213 XXXX 1      pap     P   1.000
O17     22.009829386   28.602701781   34.118881949 XXXX 1      oap1    O  -0.800
O18     19.721850250   28.969921202   32.977488658 XXXX 1      oap1    O  -0.800
end
O3      33.624941771   30.240645252   32.435797661 XXXX 1      oap1    O  -0.800
O12     32.353914472   30.707001391   34.457959427 XXXX 1      oap1    O  -0.800
Ca5     33.788822879   26.173769809   34.065166766 XXXX 1      ca+h    Ca  1.500
Ca7     32.515483899   32.667161386   33.387676401 XXXX 1      ca+h    Ca  1.500
P3      32.713044263   29.555361319   33.490460635 XXXX 1      pap     P   1.000
O17     33.605736807   28.518735932   34.268190687 XXXX 1      oap1    O  -0.800
O18     31.455147207   28.875058333   32.831420868 XXXX 1      oap1    O  -0.800
end
O4      10.203114991    6.026649984    3.050981047 XXXX 1      oap1    O  -0.800
O6      13.774212685    2.096310755    4.902675438 XXXX 1      oap1    O  -0.800
O7       8.930495099    4.886657119    4.881413531 XXXX 1      oap1    O  -0.800
O9      12.114380661    2.216847181    6.717922579 XXXX 1      oap1    O  -0.800
Ca3      5.738456374    5.406314210    2.850660929 XXXX 1      ca+h    Ca  1.500
Ca4     12.294544246    2.724735256    2.749439225 XXXX 1      ca+h    Ca  1.500
Ca8     11.988165339    6.412112054    4.600419421 XXXX 1      ca+h    Ca  1.500
P4       9.289617203    4.760699555    3.387174966 XXXX 1      pap     P   1.000
O19      9.996102830    3.362406556    3.144159027 XXXX 1      oap1    O  -0.800
O20      7.959359319    4.807333851    2.537384873 XXXX 1      oap1    O  -0.800
Ca9      7.894283538    2.198616703    2.395059244 XXXX 1      ca+h    Ca  1.500
P6      13.006871546    3.157235216    5.850602269 XXXX 1      pap     P   1.000
O23     12.118954424    4.128590715    4.933652474 XXXX 1      oap1    O  -0.800
O24     13.969297494    3.926669745    6.770252351 XXXX 1      oap1    O  -0.800
end
O4      21.813224013    6.108321862    3.066223447 XXXX 1      oap1    O  -0.800
O6      25.523268110    2.175388598    5.006221248 XXXX 1      oap1    O  -0.800
O7      20.686399678    4.860112323    4.832508167 XXXX 1      oap1    O  -0.800
O9      23.768928671    2.289370025    6.653100202 XXXX 1      oap1    O  -0.800
Ca3     17.655792542    5.488173036    3.114304373 XXXX 1      ca+h    Ca  1.500
Ca4     23.980119143    2.847044319    2.835621461 XXXX 1      ca+h    Ca  1.500
Ca8     23.410028451    6.593685964    4.927962125 XXXX 1      ca+h    Ca  1.500
P4      20.996166521    4.778299522    3.328013158 XXXX 1      pap     P   1.000
O19     21.725226296    3.480373652    3.137080407 XXXX 1      oap1    O  -0.800
O20     19.753215012    4.752706717    2.489468135 XXXX 1      oap1    O  -0.800
Ca9     19.842364137    2.136546853    2.480526743 XXXX 1      ca+h    Ca  1.500
P6      24.745219481    3.168984941    5.905701238 XXXX 1      pap     P   1.000
O23     23.823326028    4.087472669    5.065458508 XXXX 1      oap1    O  -0.800
O24     25.630795763    3.933667647    6.964769509 XXXX 1      oap1    O  -0.800
end
O4      10.152746008   22.469197380    3.159007770 XXXX 1      oap1    O  -0.800
O5       9.751004213   16.865852261    2.210406941 XXXX 1      oap1    O  -0.800
O6      13.741784596   18.482765659    4.958658365 XXXX 1      oap1    O  -0.800
O7       9.111192674   21.108837906    4.844742371 XXXX 1      oap1    O  -0.800
O8       8.881077806   17.277728205    4.437709018 XXXX 1      oap1    O  -0.800
O9      12.091642879   18.599116493    6.872315354 XXXX 1      oap1    O  -0.800
Ca3      5.982807142   22.255529047    2.817296385 XXXX 1      ca+h    Ca  1.500
Ca4     12.224312553   18.997191673    2.830231695 XXXX 1      ca+h    Ca  1.500
Ca8     11.976878841   22.703205571    4.998413437 XXXX 1      ca+h    Ca  1.500
P4       9.358724002   21.173591582    3.335236622 XXXX 1      pap     P   1.000
O19     10.106581466   19.898217232    2.982245998 XXXX 1      oap1    O  -0.800
O20      8.035116037   21.140281401    2.535860888 XXXX 1      oap1    O  -0.800
Ca9      8.206848169   18.611625425    2.466128697 XXXX 1      ca+h    Ca  1.500
P5      10.082994436   16.618162090    3.715479378 XXXX 1      pap     P   1.000
O21     11.348358371   17.340859635    4.131611951 XXXX 1      oap1    O  -0.800
O22     10.128906707   15.079290482    3.852048477 XXXX 1      oap1    O  -0.800
Ca10    12.835300297   16.229999865    5.557891775 XXXX 1      ca+h    Ca  1.500
P6      13.002005657   19.469713948    5.903898613 XXXX 1      pap     P   1.000
O23     12.097235696   20.340887290    4.938927103 XXXX 1      oap1    O  -0.800
O24     13.961696865   20.340568749    6.703031072 XXXX 1      oap1    O  -0.800
O25      6.761026073   16.602956033    2.352636298 XXXX 1      oap2    O  -1.100
H1       5.919263174   16.506073381    2.015806529 XXXX 1      hop     H   0.200
end
O4      33.490427335    6.091864658    3.380086139 XXXX 1      oap1    O  -0.800
O7      32.239640902    4.831747726    5.013674895 XXXX 1      oap1    O  -0.800
Ca3     29.283838853    5.621861958    3.206260156 XXXX 1      ca+h    Ca  1.500
Ca4     35.469431995    2.886055085    2.853226753 XXXX 1      ca+h    Ca  1.500
Ca8     35.223633257    6.388747226    5.000546018 XXXX 1      ca+h    Ca  1.500
P4      32.622169990    4.827149709    3.559124147 XXXX 1      pap     P   1.000
O19     33.366447129    3.510654129    3.348938899 XXXX 1      oap1    O  -0.800
O20     31.327565783    4.769108255    2.625860771 XXXX 1      oap1    O  -0.800
Ca9     31.383153325    2.338161489    2.608503511 XXXX 1      ca+h    Ca  1.500
end
O4      21.928763327   22.495897390    2.973586295 XXXX 1      oap1    O  -0.800
O5      21.245601270   16.881468083    2.281291682 XXXX 1      oap1    O  -0.800
O6      25.250523721   18.719037729    4.917679058 XXXX 1      oap1    O  -0.800
O7      20.694458011   21.317691027    4.812833721 XXXX 1      oap1    O  -0.800
O8      20.456839870   17.312603844    4.540776212 XXXX 1      oap1    O  -0.800
O9      23.711717448   18.542083473    6.855973458 XXXX 1      oap1    O  -0.800
Ca3     17.496170223   22.022084182    2.883994030 XXXX 1      ca+h    Ca  1.500
Ca4     23.977963454   19.197097318    2.776774923 XXXX 1      ca+h    Ca  1.500
Ca8     23.408171383   22.786433497    4.868993878 XXXX 1      ca+h    Ca  1.500
P4      20.986741394   21.267510845    3.282747738 XXXX 1      pap     P   1.000
O19     21.717988496   19.920609125    2.945635247 XXXX 1      oap1    O  -0.800
O20     19.646463015   21.178960146    2.514329173 XXXX 1      oap1    O  -0.800
Ca9     19.789236282   18.655965642    2.674701862 XXXX 1      ca+h    Ca  1.500
P5      21.602399144   16.715660163    3.778169695 XXXX 1      pap     P   1.000
O21     22.863916999   17.432090892    4.287373386 XXXX 1      oap1    O  -0.800
O22     21.734863458   15.216699469    3.954659091 XXXX 1      oap1    O  -0.800
Ca10    24.497394402   16.403099955    5.638600852 XXXX 1      ca+h    Ca  1.500
P6      24.527406384   19.524633638    6.011735976 XXXX 1      pap     P   1.000
O23     23.551672236   20.403720987    5.193178441 XXXX 1      oap1    O  -0.800
O24     25.565932091   20.301688272    6.888466385 XXXX 1      oap1    O  -0.800
O25     18.420006910   16.690402889    2.714386358 XXXX 1      oap2    O  -1.100
H1      17.523531880   16.410086076    2.626678037 XXXX 1      hop     H   0.200
end
O4      33.372872390   22.426914241    2.980000922 XXXX 1      oap1    O  -0.800
O5      32.754159705   16.917712206    2.229423374 XXXX 1      oap1    O  -0.800
O7      32.441762010   21.166514768    4.895337469 XXXX 1      oap1    O  -0.800
O8      32.068718537   17.047207877    4.600768063 XXXX 1      oap1    O  -0.800
Ca3     29.191067596   22.030377114    3.256616111 XXXX 1      ca+h    Ca  1.500
Ca4     35.508915343   19.181999488    2.727464023 XXXX 1      ca+h    Ca  1.500
Ca8     35.116706551   22.837253612    4.843963874 XXXX 1      ca+h    Ca  1.500
P4      32.614810403   21.154015331    3.403633878 XXXX 1      pap     P   1.000
O19     33.300476806   19.824690851    2.935689713 XXXX 1      oap1    O  -0.800
O20     31.188152625   21.050192830    2.811717514 XXXX 1      oap1    O  -0.800
Ca9     31.248797544   18.632660128    2.410582088 XXXX 1      ca+h    Ca  1.500
P5      33.250128732   16.650130538    3.688805223 XXXX 1      pap     P   1.000
O21     34.450324222   17.477755696    4.149895959 XXXX 1      oap1    O  -0.800
O22     33.462175325   15.133339207    3.882251131 XXXX 1      oap1    O  -0.800
O25     29.629280689   16.734036726    2.478034853 XXXX 1      oap2    O  -1.100
H1      28.893841432   16.395102046    1.990076504 XXXX 1      hop     H   0.200
end
O5       9.439338754   33.084110404    2.171635636 XXXX 1      oap1    O  -0.800
O8       8.706052325   33.374389734    4.469696528 XXXX 1      oap1    O  -0.800
P5       9.883232625   32.893372057    3.637159232 XXXX 1      pap     P   1.000
O21     11.112857173   33.782504958    4.121931408 XXXX 1      oap1    O  -0.800
O22     10.123686708   31.388879215    3.834068083 XXXX 1      oap1    O  -0.800
Ca10    12.873259596   32.642238682    5.614500002 XXXX 1      ca+h    Ca  1.500
O25      6.368997161   32.931402092    2.570430371 XXXX 1      oap2    O  -1.100
H1       5.572851849   32.691263591    2.058610559 XXXX 1      hop     H   0.200
end
O5       5.940755564   33.482763952    7.740537644 XXXX 1      oap1    O  -0.800
O8       4.631333293   33.518707080    9.892332966 XXXX 1      oap1    O  -0.800
P5       5.910808325   33.075882211    9.200089525 XXXX 1      pap     P   1.000
O21      7.000014212   33.863274448   10.008577448 XXXX 1      oap1    O  -0.800
O22      6.141539741   31.566900988    9.416484608 XXXX 1      oap1    O  -0.800
Ca10     8.537843648   32.681858766   11.283102248 XXXX 1      ca+h    Ca  1.500
O25      2.333207439   32.799217199    7.935806723 XXXX 1      oap2    O  -1.100
O26      4.395411150   32.679607555    5.222134478 XXXX 1      oap2    O  -1.100
H1       1.669086621   32.568318563    8.574620913 XXXX 1      hop     H   0.200
H2       3.646747911   33.290581102    5.387918738 XXXX 1      hop     H   0.200
end
O5       1.755233477   33.627273309   13.278150327 XXXX 1      oap1    O  -0.800
O8       0.376193472   33.512978713   15.401161571 XXXX 1      oap1    O  -0.800
P5       1.727625451   33.123537004   14.766017722 XXXX 1      pap     P   1.000
O21      2.818402814   33.767247546   15.652927329 XXXX 1      oap1    O  -0.800
O22      1.837225818   31.521763187   14.839862311 XXXX 1      oap1    O  -0.800
Ca10     4.535035760   32.684898471   16.889058554 XXXX 1      ca+h    Ca  1.500
O26      0.293457012   32.637843239   10.518113475 XXXX 1      oap2    O  -1.100
H2      -0.088533183   32.295593205   11.333034143 XXXX 1      hop     H   0.200
end
O5      21.304645244   32.960361378    2.251505198 XXXX 1      oap1    O  -0.800
O8      20.544273208   33.525843533    4.540788227 XXXX 1      oap1    O  -0.800
P5      21.700421310   32.861119405    3.754118144 XXXX 1      pap     P   1.000
O21     23.050819773   33.569247750    4.086524815 XXXX 1      oap1    O  -0.800
O22     21.698935360   31.352379682    4.058581576 XXXX 1      oap1    O  -0.800
Ca10    24.483695316   32.708027371    5.640836072 XXXX 1      ca+h    Ca  1.500
O25     18.147707331   32.918460082    2.563489371 XXXX 1      oap2    O  -1.100
H1      17.407893345   32.859358870    1.922892599 XXXX 1      hop     H   0.200
end
O5      17.760283015   33.279700084    7.927592666 XXXX 1      oap1    O  -0.800
O8      16.251077069   33.596443028    9.881817212 XXXX 1      oap1    O  -0.800
P5      17.578829438   33.107304201    9.395661643 XXXX 1      pap     P   1.000
O21     18.643247531   33.925143987   10.056576129 XXXX 1      oap1    O  -0.800
O22     17.764159300   31.640498303    9.796575770 XXXX 1      oap1    O  -0.800
Ca10    20.366597795   32.789761711   11.293809889 XXXX 1      ca+h    Ca  1.500
O25     14.129917451   32.827945228    7.701941199 XXXX 1      oap2    O  -1.100
O26     16.269041362   32.585318943    5.298141826 XXXX 1      oap2    O  -1.100
H1      13.318641324   32.731198152    8.133613839 XXXX 1      hop     H   0.200
H2      15.777219183   33.027737097    6.000779621 XXXX 1      hop     H   0.200
end
O5      13.254917418   33.447860704   13.399491515 XXXX 1      oap1    O  -0.800
O8      12.181315043   33.514236584   15.744625488 XXXX 1      oap1    O  -0.800
P5      13.396611949   33.037755974   14.885659905 XXXX 1      pap     P   1.000
O21     14.651247005   33.674467736   15.407374335 XXXX 1      oap1    O  -0.800
O22     13.498191176   31.570998002   15.050475552 XXXX 1      oap1    O  -0.800
Ca10    16.105111951   32.668699861   16.947040993 XXXX 1      ca+h    Ca  1.500
O25     10.039760199   32.939788529   13.167093721 XXXX 1      oap2    O  -1.100
O26     12.268101429   32.848451421   10.420165678 XXXX 1      oap2    O  -1.100
H1       9.164889993   32.945693657   13.583181936 XXXX 1      hop     H   0.200
H2      11.642065996   33.160937505   11.090304515 XXXX 1      hop     H   0.200
end
O5       9.068039430   33.336367226   18.991581772 XXXX 1      oap1    O  -0.800
O8       7.911341234   33.596413391   21.190839947 XXXX 1      oap1    O  -0.800
P5       9.174789697   33.011499730   20.501308144 XXXX 1      pap     P   1.000
O21     10.424652484   33.727804331   21.048164733 XXXX 1      oap1    O  -0.800
O22      9.300566665   31.497652019   20.675799932 XXXX 1      oap1    O  -0.800
Ca10    12.089670490   32.599832343   22.435375158 XXXX 1      ca+h    Ca  1.500
O25      5.734776875   32.913860115   18.974218848 XXXX 1      oap2    O  -1.100
O26      7.952866247   32.686788402   16.076252802 XXXX 1      oap2    O  -1.100
H1       5.149173213   33.373723026   19.670050584 XXXX 1      hop     H   0.200
H2       7.359321364   32.814415629   16.810270178 XXXX 1      hop     H   0.200
end
O5       5.404302499   33.477684889   24.609278734 XXXX 1      oap1    O  -0.800
O8       3.668308145   33.393849885   26.480258861 XXXX 1      oap1    O  -0.800
P5       5.090410395   32.959355400   26.067167481 XXXX 1      pap     P   1.000
O21      6.104875828   33.648748862   27.034225473 XXXX 1      oap1    O  -0.800
O22      5.222839786   31.427425070   26.041993886 XXXX 1      oap1    O  -0.800
Ca10     7.983927719   32.648339935   28.146777298 XXXX 1      ca+h    Ca  1.500
O25      1.518946384   32.857306940   24.637983293 XXXX 1      oap2    O  -1.100
O26      3.893886946   32.724129197   21.775387366 XXXX 1      oap2    O  -1.100
H1       0.721224608   32.691493818   25.144531413 XXXX 1      hop     H   0.200
H2       3.012664884   32.674111443   22.252935990 XXXX 1      hop     H   0.200
end
O5       0.891314164   33.397327685   30.312600663 XXXX 1      oap1    O  -0.800
O8      -0.443594293   33.518736203   32.526807591 XXXX 1      oap1    O  -0.800
P5       0.885981789   33.010767448   31.828991296 XXXX 1      pap     P   1.000
O21      2.102055367   33.699174770   32.442268546 XXXX 1      oap1    O  -0.800
O22      0.968224903   31.476769813   31.918525604 XXXX 1      oap1    O  -0.800
Ca10     4.304396056   32.708703483   33.719902301 XXXX 1      ca+h    Ca  1.500
O26     -0.400712806   32.767578965   27.297021658 XXXX 1      oap2    O  -1.100
H2      -0.789187583   32.168226480   27.939344797 XXXX 1      hop     H   0.200
end
O5      32.884442989   32.991286159    2.119053200 XXXX 1      oap1    O  -0.800
O8      32.182155813   33.490525517    4.489628465 XXXX 1      oap1    O  -0.800
P5      33.294907872   32.876235716    3.626237798 XXXX 1      pap     P   1.000
O21     34.505955951   33.643423151    4.062571337 XXXX 1      oap1    O  -0.800
O22     33.462252236   31.322906124    3.877370732 XXXX 1      oap1    O  -0.800
O25     29.805321604   33.044961343    2.572588734 XXXX 1      oap2    O  -1.100
H1      28.885110506   32.752937254    2.616557378 XXXX 1      hop     H   0.200
end
O5      29.289759796   33.435355206    7.833281424 XXXX 1      oap1    O  -0.800
O8      27.749411900   33.375911464    9.799259742 XXXX 1      oap1    O  -0.800
P5      29.148618991   32.922624622    9.280073023 XXXX 1      pap     P   1.000
O21     30.209766021   33.689590076   10.071998066 XXXX 1      oap1    O  -0.800
O22     29.256619829   31.416992089    9.467381022 XXXX 1      oap1    O  -0.800
Ca10    31.884348632   32.642390226   11.313984045 XXXX 1      ca+h    Ca  1.500
O25     25.710280166   32.786190597    7.943590782 XXXX 1      oap2    O  -1.100
O26     27.708874601   32.745090741    4.997905038 XXXX 1      oap2    O  -1.100
H1      25.360148793   33.380393181    8.637037440 XXXX 1      hop     H   0.200
H2      27.399218401   33.385032435    5.581479269 XXXX 1      hop     H   0.200
end
O5      24.891623973   33.377892802   13.408160238 XXXX 1      oap1    O  -0.800
O8      23.750409676   33.676243206   15.585391765 XXXX 1      oap1    O  -0.800
P5      24.962820068   33.034998484   14.879215706 XXXX 1      pap     P   1.000
O21     26.149658871   33.724361059   15.535492971 XXXX 1      oap1    O  -0.800
O22     25.028190624   31.452128897   15.095927605 XXXX 1      oap1    O  -0.800
Ca10    27.874491570   32.696466669   16.935056789 XXXX 1      ca+h    Ca  1.500
O25     21.632824696   32.692020398   13.482714697 XXXX 1      oap2    O  -1.100
O26     23.676366094   32.822455329   10.432756602 XXXX 1      oap2    O  -1.100
H1      20.774283937   32.527147641   13.822074929 XXXX 1      hop     H   0.200
H2      23.389913779   33.051864043   11.328496802 XXXX 1      hop     H   0.200
end
O5      21.098453131   33.453151349   19.076636774 XXXX 1      oap1    O  -0.800
O8      19.503098659   33.398786897   20.987230445 XXXX 1      oap1    O  -0.800
P5      20.936580658   33.049019757   20.579690215 XXXX 1      pap     P   1.000
O21     21.987638561   33.900502252   21.357752461 XXXX 1      oap1    O  -0.800
O22     21.170167680   31.538841370   20.768338349 XXXX 1      oap1    O  -0.800
Ca10    23.658301105   32.659940696   22.587315117 XXXX 1      ca+h    Ca  1.500
O25     17.353776823   32.621811731   19.225763310 XXXX 1      oap2    O  -1.100
O26     19.690128265   32.761740889   16.253951427 XXXX 1      oap2    O  -1.100
H1      16.828578167   32.952117818   19.938024568 XXXX 1      hop     H   0.200
H2      19.079614672   32.795982669   16.924690227 XXXX 1      hop     H   0.200
end
O5      16.765441006   33.482976946   24.586734049 XXXX 1      oap1    O  -0.800
O8      15.390521094   33.560171960   26.704186801 XXXX 1      oap1    O  -0.800
P5      16.684091479   33.002525622   26.084846274 XXXX 1      pap     P   1.000
O21     17.791573253   33.687725480   26.830243342 XXXX 1      oap1    O  -0.800
O22     16.813577424   31.469700379   26.142641049 XXXX 1      oap1    O  -0.800
Ca10    19.507193268   32.689381069   28.184025711 XXXX 1      ca+h    Ca  1.500
O25     13.295207763   32.884728689   24.581679232 XXXX 1      oap2    O  -1.100
O26     15.367798795   32.801764860   21.901076093 XXXX 1      oap2    O  -1.100
H1      12.639712736   32.763864214   25.266709313 XXXX 1      hop     H   0.200
H2      14.958444867   32.912994917   22.748752477 XXXX 1      hop     H   0.200
end
O5      12.275304041   33.309452422   30.274719613 XXXX 1      oap1    O  -0.800
O8      11.266113320   33.442162079   32.604674655 XXXX 1      oap1    O  -0.800
P5      12.427308287   32.881643419   31.760868052 XXXX 1      pap     P   1.000
O21     13.665129266   33.583736227   32.314839620 XXXX 1      oap1    O  -0.800
O22     12.500041527   31.363451397   31.816810397 XXXX 1      oap1    O  -0.800
Ca10    15.903944709   32.652816879   33.681019953 XXXX 1      ca+h    Ca  1.500
O25      9.125166466   32.682781228   30.670479317 XXXX 1      oap2    O  -1.100
O26     11.444103241   32.654618393   27.409843984 XXXX 1      oap2    O  -1.100
H1       8.420340462   32.182177979   30.324544109 XXXX 1      hop     H   0.200
H2      10.781598870   32.870227315   28.102751059 XXXX 1      hop     H   0.200
end
O5      32.519552871   33.504046316   18.957423934 XXXX 1      oap1    O  -0.800
O8      31.279085747   33.608528478   21.058423226 XXXX 1      oap1    O  -0.800
P5      32.553432747   33.072394306   20.447019328 XXXX 1      pap     P   1.000
O21     33.774631901   33.723214066   21.192738366 XXXX 1      oap1    O  -0.800
O22     32.574683368   31.561282874   20.593152911 XXXX 1      oap1    O  -0.800
O25     29.201079579   32.899764907   18.879429009 XXXX 1      oap2    O  -1.100
O26     31.309573170   32.768368767   16.092866026 XXXX 1      oap2    O  -1.100
H1      28.856835506   32.386337207   19.652919729 XXXX 1      hop     H   0.200
H2      30.844125530   33.305701830   16.746654867 XXXX 1      hop     H   0.200
end
O5      28.467531880   33.549931119   24.725837684 XXXX 1      oap1    O  -0.800
O8      27.117772235   33.518303445   26.896670255 XXXX 1      oap1    O  -0.800
P5      28.380450743   33.064670226   26.201381640 XXXX 1      pap     P   1.000
O21     29.562753736   33.806497090   26.951125189 XXXX 1      oap1    O  -0.800
O22     28.533713816   31.504845968   26.193612773 XXXX 1      oap1    O  -0.800
Ca10    31.339931712   32.613565260   28.225848680 XXXX 1      ca+h    Ca  1.500
O25     25.055689068   32.876069016   24.527248249 XXXX 1      oap2    O  -1.100
O26     27.260714641   32.874302766   21.776054396 XXXX 1      oap2    O  -1.100
H1      24.282326077   33.095730479   25.094640519 XXXX 1      hop     H   0.200
H2      26.514152716   32.601777821   22.303937033 XXXX 1      hop     H   0.200
end
O5      23.782910427   33.218044884   30.297648851 XXXX 1      oap1    O  -0.800
O8      22.991113843   33.571759041   32.624190660 XXXX 1      oap1    O  -0.800
P5      24.179560872   32.970850086   31.753798211 XXXX 1      pap     P   1.000
O21     25.372479101   33.815028891   32.150196538 XXXX 1      oap1    O  -0.800
O22     24.303481596   31.464664908   32.047553036 XXXX 1      oap1    O  -0.800
Ca10    27.377316003   32.640596407   33.942680995 XXXX 1      ca+h    Ca  1.500
O25     20.743202293   32.848308137   30.515567289 XXXX 1      oap2    O  -1.100
O26     23.057612465   32.842300995   27.227144864 XXXX 1      oap2    O  -1.100
H1      19.976318020   32.292941279   30.543087325 XXXX 1      hop     H   0.200
H2      22.615395527   32.781936868   28.051129647 XXXX 1      hop     H   0.200
end
O6       2.163170246    2.078955868    5.047857520 XXXX 1      oap1    O  -0.800
O9       0.374303005    2.246531488    6.743109541 XXXX 1      oap1    O  -0.800
P6       1.337775656    3.092829697    5.882246453 XXXX 1      pap     P   1.000
O23      0.507994109    4.013492897    4.960647679 XXXX 1      oap1    O  -0.800
O24      2.209859913    4.027546365    6.781311065 XXXX 1      oap1    O  -0.800
end
O6       1.404607700    2.299803219   21.933002790 XXXX 1      oap1    O  -0.800
O9      -0.227707690    2.349364685   23.747180956 XXXX 1      oap1    O  -0.800
Ca1      1.528982839    2.915400932   16.969329882 XXXX 1      ca+h    Ca  1.500
P6       0.579957519    3.207374828   22.808352388 XXXX 1      pap     P   1.000
O23     -0.410105084    3.955383093   21.892963534 XXXX 1      oap1    O  -0.800
O24      1.500211532    4.197405845   23.553797070 XXXX 1      oap1    O  -0.800
end
O6       9.857472064   10.382148378    1.983157570 XXXX 1      oap1    O  -0.800
O9       8.424050481   10.480734841    4.008474304 XXXX 1      oap1    O  -0.800
Ca8      8.294633322   14.703291436    2.218607891 XXXX 1      ca+h    Ca  1.500
Ca10     9.232409437    8.263120762    3.428214779 XXXX 1      ca+h    Ca  1.500
P6       9.286954789   11.341248620    3.077987660 XXXX 1      pap     P   1.000
O23      8.326902291   12.415054621    2.457936424 XXXX 1      oap1    O  -0.800
O24     10.435849606   12.045432029    3.826208860 XXXX 1      oap1    O  -0.800
end
O6       1.596167071   10.385227585   13.084033006 XXXX 1      oap1    O  -0.800
O9       0.494205378   10.327999847   15.296919231 XXXX 1      oap1    O  -0.800
Ca1      2.039984682   11.113798235    8.459063663 XXXX 1      ca+h    Ca  1.500
Ca10     0.653341558    8.318822079   13.932068748 XXXX 1      ca+h    Ca  1.500
P6       1.087904034   11.273439075   14.225887195 XXXX 1      pap     P   1.000
O23     -0.065705521   12.183325159   13.695892752 XXXX 1      oap1    O  -0.800
O24      2.246495820   12.075526961   14.822343395 XXXX 1      oap1    O  -0.800
end
O6       2.266049862   18.457217465    5.098834024 XXXX 1      oap1    O  -0.800
O9       0.377401727   18.543266457    6.698205361 XXXX 1      oap1    O  -0.800
Ca10     1.086118426   16.347538368    5.678119895 XXXX 1      ca+h    Ca  1.500
P6       1.363639862   19.461817074    5.832632131 XXXX 1      pap     P   1.000
O23      0.605126306   20.399494654    4.963312973 XXXX 1      oap1    O  -0.800
O24      2.238927385   20.330692010    6.839968750 XXXX 1      oap1    O  -0.800
end
O6      21.363017579   10.372397498    2.044291530 XXXX 1      oap1    O  -0.800
O9      20.082717423   10.642511981    4.203907466 XXXX 1      oap1    O  -0.800
Ca8     19.884994009   14.824708209    2.355957944 XXXX 1      ca+h    Ca  1.500
Ca10    21.237021564    8.367327754    3.292305599 XXXX 1      ca+h    Ca  1.500
P6      20.910375329   11.424337495    3.149398087 XXXX 1      pap     P   1.000
O23     19.926524835   12.473189251    2.514002912 XXXX 1      oap1    O  -0.800
O24     22.076929990   12.187846944    3.906601601 XXXX 1      oap1    O  -0.800
end
O6       0.959051106   10.463534277   30.229224169 XXXX 1      oap1    O  -0.800
O9      -0.261347060   10.571893730   32.362913714 XXXX 1      oap1    O  -0.800
Ca1      1.285625729   11.010229453   25.263520229 XXXX 1      ca+h    Ca  1.500
Ca10    -0.026906369    8.231682921   31.113469917 XXXX 1      ca+h    Ca  1.500
P6       0.238040842   11.421831043   31.259346570 XXXX 1      pap     P   1.000
O23     -0.933727574   12.203338878   30.643312239 XXXX 1      oap1    O  -0.800
O24      1.281297017   12.392069715   31.897377644 XXXX 1      oap1    O  -0.800
end
O6       1.144252732   18.579915944   21.506308231 XXXX 1      oap1    O  -0.800
O9      -0.376393624   18.859343781   23.482034459 XXXX 1      oap1    O  -0.800
Ca1      1.479755813   19.073725914   16.885162271 XXXX 1      ca+h    Ca  1.500
Ca10     0.443006296   16.383954130   22.374089079 XXXX 1      ca+h    Ca  1.500
P6       0.553145511   19.557084228   22.506576772 XXXX 1      pap     P   1.000
O23     -0.300001149   20.603490783   21.811667219 XXXX 1      oap1    O  -0.800
O24      1.619160161   20.315847641   23.365812687 XXXX 1      oap1    O  -0.800
end
O6       9.555920037   26.579346490    2.079734981 XXXX 1      oap1    O  -0.800
O9       8.435163743   26.878813714    4.212986278 XXXX 1      oap1    O  -0.800
Ca8      7.952797292   31.184427155    2.333434535 XXXX 1      ca+h    Ca  1.500
Ca10     9.390346509   24.683043748    3.564100305 XXXX 1      ca+h    Ca  1.500
P6       9.153721994   27.695267898    3.110977586 XXXX 1      pap     P   1.000
O23      8.159501323   28.761915603    2.554629464 XXXX 1      oap1    O  -0.800
O24     10.381345535   28.483061983    3.742901900 XXXX 1      oap1    O  -0.800
end
O6       1.517882471   26.662761871   13.129788595 XXXX 1      oap1    O  -0.800
O9       0.358823989   26.561599276   15.351103881 XXXX 1      oap1    O  -0.800
Ca1      1.963267577   27.445786731    8.644827697 XXXX 1      ca+h    Ca  1.500
Ca10     0.706560906   24.398898768   14.192480102 XXXX 1      ca+h    Ca  1.500
P6       0.962049579   27.523457481   14.331213090 XXXX 1      pap     P   1.000
O23     -0.142554949   28.397231109   13.699973352 XXXX 1      oap1    O  -0.800
O24      2.013600403   28.398061956   15.024808054 XXXX 1      oap1    O  -0.800
end
O6      32.793892304   10.431460895    2.088072306 XXXX 1      oap1    O  -0.800
O9      31.558452498   10.659189960    4.109243992 XXXX 1      oap1    O  -0.800
Ca8     31.265853232   14.895379822    2.386042703 XXXX 1      ca+h    Ca  1.500
Ca10    32.643656695    8.426596027    3.475710416 XXXX 1      ca+h    Ca  1.500
P6      32.387256541   11.519154642    3.131988319 XXXX 1      pap     P   1.000
O23     31.389438976   12.608525228    2.681587189 XXXX 1      oap1    O  -0.800
O24     33.671073287   12.154690354    3.822908356 XXXX 1      oap1    O  -0.800
end
O6      21.329526239   26.808479511    2.126241773 XXXX 1      oap1    O  -0.800
O9      19.979510704   26.968501964    4.145360756 XXXX 1      oap1    O  -0.800
Ca8     19.618211919   31.020530529    2.710216854 XXXX 1      ca+h    Ca  1.500
Ca10    20.872063024   24.612488139    3.098130229 XXXX 1      ca+h    Ca  1.500
P6      20.743706961   27.834878171    3.167195719 XXXX 1      pap     P   1.000
O23     19.652587247   28.752408445    2.527248186 XXXX 1      oap1    O  -0.800
O24     21.870346654   28.589490003    3.896963049 XXXX 1      oap1    O  -0.800
end
O6       0.924743359   26.840934216   29.947336400 XXXX 1      oap1    O  -0.800
O9       0.103264900   26.764133187   32.221503845 XXXX 1      oap1    O  -0.800
Ca1      1.008138205   27.543877746   25.295255943 XXXX 1      ca+h    Ca  1.500
Ca10    -0.007221561   24.607056694   30.894433939 XXXX 1      ca+h    Ca  1.500
P6       0.299532695   27.706584328   31.034187681 XXXX 1      pap     P   1.000
O23     -1.063954507   28.287748806   30.500191999 XXXX 1      oap1    O  -0.800
O24      1.216554396   28.863491302   31.426848102 XXXX 1      oap1    O  -0.800
end
O6      32.624048871   26.573887412    2.038120272 XXXX 1      oap1    O  -0.800
O9      31.759249952   26.860145655    4.278671248 XXXX 1      oap1    O  -0.800
Ca8     31.274632991   31.104413432    2.362615821 XXXX 1      ca+h    Ca  1.500
Ca10    32.585218069   24.607381053    3.427685488 XXXX 1      ca+h    Ca  1.500
P6      32.396724653   27.641206889    3.093200421 XXXX 1      pap     P   1.000
O23     31.410135365   28.690781399    2.567280654 XXXX 1      oap1    O  -0.800
O24     33.694807658   28.313579326    3.632348280 XXXX 1      oap1    O  -0.800
end
Ca1      0.980954250    2.767296983   33.717423954 XXXX 1      ca+h    Ca  1.500
end
Ca1      0.808765816   19.017676477   33.531898961 XXXX 1      ca+h    Ca  1.500
end
Ca2     35.283675235   13.803734037    2.810742484 XXXX 1      ca+h    Ca  1.500
Ca3     33.124394886   13.673834091    5.677812572 XXXX 1      ca+h    Ca  1.500
Ca9     35.462850604   10.730756037    4.631348816 XXXX 1      ca+h    Ca  1.500
O25     32.648428634    8.236951752    6.003574316 XXXX 1      oap2    O  -1.100
H1      33.565153024    8.479520870    6.196310993 XXXX 1      hop     H   0.200
end
Ca2     35.244777170   30.062464135    2.876349642 XXXX 1      ca+h    Ca  1.500
Ca3     33.115919479   29.874304324    5.637273776 XXXX 1      ca+h    Ca  1.500
Ca9     35.304410206   26.959038115    4.771004658 XXXX 1      ca+h    Ca  1.500
O25     32.636443179   24.437122831    6.089321990 XXXX 1      oap2    O  -1.100
H1      33.022439138   25.301790346    5.963046656 XXXX 1      hop     H   0.200
end
Ca10     1.122159013   32.613782771    5.803267578 XXXX 1      ca+h    Ca  1.500
end
Ca10     0.372764788   32.692730396   22.592538409 XXXX 1      ca+h    Ca  1.500
end
O25     33.427552738   32.779809999   13.159084614 XXXX 1      oap2    O  -1.100
H1      32.734506319   32.535077705   13.780156484 XXXX 1      hop     H   0.200
end
O25     32.608541574   32.913430161   30.526921089 XXXX 1      oap2    O  -1.100
H1      31.767492185   33.317018143   30.779689588 XXXX 1      hop     H   0.200
end
O26      6.757056309   32.251525464   32.870364479 XXXX 1      oap2    O  -1.100
H2       6.796380138   32.419020195   33.801141389 XXXX 1      hop     H   0.200
end
O26     18.375633638   32.462754435   32.939967611 XXXX 1      oap2    O  -1.100
H2      18.698784710   32.489631768   33.853481682 XXXX 1      hop     H   0.200
end
O26     30.106098045   32.565579904   33.079085135 XXXX 1      oap2    O  -1.100
H2      29.888638836   32.711968199   34.011158381 XXXX 1      hop     H   0.200
end
end
