!BIOSYM archive 3
PBC=ON
Materials Studio Generated CAR File
!DATE Fri Jun 24 09:06:36 2005
PBC    5.1918    9.0153   20.0457   90.0000   95.7350   90.0000 (P1)
AL1      1.298828125    0.752777576    0.001595629 XXX  1      ay1     Al  1.449
SI1      2.140627623    8.376114845    2.703195333 XXX  1      sy1     Si  1.100
SI2      2.073014021    2.326848984    2.704392195 XXX  1      sy2     Si  1.100
K1      -0.500779569    0.883499384    4.986341476 XXX  1      k+      K   1.000
H1       1.814997077    5.859043598    1.194727421 XXX  1      hoy     H   0.200
O1       1.826298237    0.835718334    3.356805086 XXX  1      oy1     O  -0.550
O2       0.984393775    7.308703899    3.147977114 XXX  1      oy2     O  -0.550
O3       0.961082339    3.338365555    3.364583731 XXX  1      oy3     O  -0.783
O4       2.286393166    8.503231049    1.065680861 XXX  1      oy7     O  -0.758
O5       1.896388888    2.267348051    1.066678166 XXX  1      oy8     O  -0.758
O6       2.270059347    5.072909355    1.000858426 XXX  1      oy9     O  -0.683
AL2      2.891412735    0.752777576    9.971087456 XXX  1      ay1     Al  1.449
SI3      2.049613237    8.376114845    7.269487381 XXX  1      sy1     Si  1.100
SI4      2.117226839    2.326848984    7.268290520 XXX  1      sy2     Si  1.100
H2       2.375243902    5.859043598    8.777955055 XXX  1      hoy     H   0.200
O7       2.363942623    0.835718334    6.615877628 XXX  1      oy1     O  -0.550
O8       3.205847025    7.308703899    6.824705601 XXX  1      oy2     O  -0.783
O9       3.229158640    3.338365555    6.608098984 XXX  1      oy3     O  -0.550
O10      1.903847694    8.503231049    8.907001495 XXX  1      oy7     O  -0.758
O11      2.293852091    2.267348051    8.906004906 XXX  1      oy8     O  -0.758
O12      1.920181513    5.072909355    8.971824646 XXX  1      oy9     O  -0.683
AL3      3.892971992    8.262522697   -0.001595629 XXX  1      ay2     Al  1.448
SI5      1.048054099    0.639184773   17.242170334 XXX  1      ayt1    Al  0.800
SI6      1.115667701    6.688451290   17.240972519 XXX  1      sy2     Si  1.100
K2      -1.502338648    8.131800652   14.959024429 XXX  1      k+      K   1.000
H3       1.373684764    3.156256437   18.750638962 XXX  1      hoy     H   0.200
O13      1.362383485    8.179581642   16.588560104 XXX  1      oy1     O  -0.783
O14      2.204288006    1.706596255   16.797388077 XXX  1      oy2     O  -0.783
O15      2.227599382    5.676934242   16.580781937 XXX  1      oy3     O  -0.550
O16      0.902288616    0.512069046   18.879684448 XXX  1      oy4     O  -0.758
O17      1.292292953    6.747951984   18.878686905 XXX  1      oy5     O  -0.758
O18      0.918622375    3.942390680   18.944507599 XXX  1      oy6     O  -0.683
AL4      0.297269017    8.262522697    9.974278450 XXX  1      ay2     Al  1.448
SI7      1.139068604    0.639184773   12.675878525 XXX  1      sy1     Si  1.100
SI8      1.071455002    6.688451290   12.677074432 XXX  1      sy2     Si  1.100
H4       0.813437998    3.156256437   11.167409897 XXX  1      hoy     H   0.200
O19      0.824739158    8.179581642   13.329487801 XXX  1      oy1     O  -0.550
O20     -0.017165354    1.706596255   13.120659828 XXX  1      oy2     O  -0.783
O21     -0.040476758    5.676934242   13.337266922 XXX  1      oy3     O  -0.550
O22      1.284834146    0.512069046   11.038363457 XXX  1      oy4     O  -0.758
O23      0.894829750    6.747951984   11.039361000 XXX  1      oy5     O  -0.758
O24      1.268500328    3.942390680   10.973541260 XXX  1      oy6     O  -0.683
AL5      3.894728184    5.260427475    0.001595629 XXX  1      ay1     Al  1.449
SI9      4.736527443    3.868465185    2.703195333 XXX  1      ayt1    Al  0.800
SI10     4.668914318    6.834498882    2.704392195 XXX  1      sy2     Si  1.100
K3       2.095120430    5.391149521    4.986341476 XXX  1      k+      K   1.000
H5       4.410897255    1.351393461    1.194727421 XXX  1      hoy     H   0.200
O25      4.422198296    5.343368530    3.356805086 XXX  1      oy1     O  -0.783
O26      3.580293655    2.801053762    3.147977114 XXX  1      oy2     O  -0.783
O27      3.556982279    7.846015453    3.364583731 XXX  1      oy3     O  -0.550
O28      4.882293224    3.995580912    1.065680861 XXX  1      oy7     O  -0.758
O29      4.492289066    6.774998188    1.066678166 XXX  1      oy8     O  -0.758
O30      4.865959644    0.565259337    1.000858426 XXX  1      oy9     O  -0.683
AL6      0.295512795    5.260427475    9.971087456 XXX  1      ay1     Al  1.449
SI11    -0.546286762    3.868465185    7.269487381 XXX  1      sy1     Si  1.100
SI12    -0.478673190    6.834498882    7.268290520 XXX  1      ayt2    Al  0.800
H6      -0.220656186    1.351393461    8.777955055 XXX  1      hoy     H   0.200
O31     -0.231957376    5.343368530    6.615877628 XXX  1      oy1     O  -0.783
O32      0.609947145    2.801053762    6.824705601 XXX  1      oy2     O  -0.550
O33      0.633258522    7.846015453    6.608098984 XXX  1      oy3     O  -0.783
O34     -0.692052305    3.995580912    8.907001495 XXX  1      oy7     O  -0.758
O35     -0.302047968    6.774998188    8.906004906 XXX  1      oy8     O  -0.758
O36     -0.675718486    0.565259337    8.971824646 XXX  1      oy9     O  -0.683
AL7      1.297071934    3.754872561   -0.001595629 XXX  1      ay2     Al  1.448
SI13    -1.547845840    5.146834850   17.242170334 XXX  1      sy1     Si  1.100
SI14    -1.480232239    2.180801153   17.240972519 XXX  1      sy2     Si  1.100
K4       1.093561292    3.624150515   14.959024429 XXX  1      k+      K   1.000
H7      -1.222215295    7.663906574   18.750638962 XXX  1      hoy     H   0.200
O37     -1.233516455    3.671931744   16.588560104 XXX  1      oy1     O  -0.550
O38     -0.391611964    6.214246273   16.797388077 XXX  1      oy2     O  -0.550
O39     -0.368300557    1.169284463   16.580781937 XXX  1      oy3     O  -0.783
O40     -1.693611383    5.019719124   18.879684448 XXX  1      oy4     O  -0.758
O41     -1.303607106    2.240302086   18.878686905 XXX  1      oy5     O  -0.758
O42     -1.677277565    8.450040817   18.944507599 XXX  1      oy6     O  -0.683
AL8      2.893168926    3.754872561    9.974278450 XXX  1      ay2     Al  1.448
SI15     3.734968662    5.146834850   12.675878525 XXX  1      sy1     Si  1.100
SI16     3.667355061    2.180801153   12.677074432 XXX  1      ayt2    Al  0.800
H8       3.409337997    7.663906574   11.167409897 XXX  1      hoy     H   0.200
O43      3.420639277    3.671931744   13.329487801 XXX  1      oy1     O  -0.783
O44      2.578734636    6.214246273   13.120659828 XXX  1      oy2     O  -0.550
O45      2.555423260    1.169284463   13.337266922 XXX  1      oy3     O  -0.783
O46      3.880734205    5.019719124   11.038363457 XXX  1      oy4     O  -0.758
O47      3.490729809    2.240302086   11.039361000 XXX  1      oy5     O  -0.758
O48      3.864400387    8.450040817   10.973541260 XXX  1      oy6     O  -0.683
end
end
