!BIOSYM archive 3
PBC=ON
Materials Studio Generated CAR File
!DATE Mon Jun 22 20:32:28 2009
PBC    5.6780   15.2130    6.2860   90.0000  114.0800   90.0000 (P1)
O1       4.670640550    1.796655337    1.144924735 XXXX 1      oc11    O  -0.500
O2       3.388259474    9.403155337    4.014410364 XXXX 1      oc11    O  -0.500
O3       3.846359450    1.796655337   -1.144924735 XXXX 1      oc11    O  -0.500
O4       2.563978374    9.403155337    1.724560894 XXXX 1      oc11    O  -0.500
O5       1.007359450   13.416344663   -1.144924735 XXXX 1      oc11    O  -0.500
O6      -0.275021626    5.809844663    1.724560894 XXXX 1      oc11    O  -0.500
O7       1.831640550   13.416344663    1.144924735 XXXX 1      oc11    O  -0.500
O8       0.549259474    5.809844663    4.014410364 XXXX 1      oc11    O  -0.500
O9       3.143646883    3.464000025    0.475760732 XXXX 1      oc11    O  -0.500
O10      1.861265807   11.070500025    3.345246361 XXXX 1      oc11    O  -0.500
O11      5.373353117    3.464000025   -0.475760732 XXXX 1      oc11    O  -0.500
O12      4.090972041   11.070500025    2.393724897 XXXX 1      oc11    O  -0.500
O13      2.534353117   11.748999975   -0.475760732 XXXX 1      oc11    O  -0.500
O14      1.251972041    4.142499975    2.393724897 XXXX 1      oc11    O  -0.500
O15      0.304646883   11.748999975    0.475760732 XXXX 1      oc11    O  -0.500
O16     -0.977734193    4.142499975    3.345246361 XXXX 1      oc11    O  -0.500
O17     -1.368205861    1.032962730    4.067782930 XXXX 1      o*      O  -0.820
O18     -0.085824785    8.639462730    1.198297301 XXXX 1      o*      O  -0.820
O19      1.642443710    1.032962730    1.671188329 XXXX 1      o*      O  -0.820
O20      0.360062634    8.639462730    4.540673958 XXXX 1      o*      O  -0.820
O21      4.481443710   14.180037270    1.671188329 XXXX 1      o*      O  -0.820
O22      3.199062634    6.573537270    4.540673958 XXXX 1      o*      O  -0.820
O23      1.470794139   14.180037270    4.067782930 XXXX 1      o*      O  -0.820
O24      2.753175215    6.573537270    1.198297301 XXXX 1      o*      O  -0.820
H1      -0.498798399    1.344829182    4.325462740 XXXX 1      h*      H   0.410
H2       0.783582677    8.951329182    1.455977111 XXXX 1      h*      H   0.410
H3       0.773036248    1.344829182    1.413508519 XXXX 1      h*      H   0.410
H4      -0.509344828    8.951329182    4.282994148 XXXX 1      h*      H   0.410
H5       3.612036248   13.868170818    1.413508519 XXXX 1      h*      H   0.410
H6       2.329655172    6.261670818    4.282994148 XXXX 1      h*      H   0.410
H7       2.340201601   13.868170818    4.325462740 XXXX 1      h*      H   0.410
H8       3.622582677    6.261670818    1.455977111 XXXX 1      h*      H   0.410
H9      -1.406173711    0.111054903    4.259464566 XXXX 1      h*      H   0.410
H10     -0.123792635    7.717554903    1.389978937 XXXX 1      h*      H   0.410
H11      1.680411560    0.111054903    1.479506693 XXXX 1      h*      H   0.410
H12      0.398030484    7.717554903    4.348992322 XXXX 1      h*      H   0.410
H13      4.519411560   15.101945097    1.479506693 XXXX 1      h*      H   0.410
H14      3.237030484    7.495445097    4.348992322 XXXX 1      h*      H   0.410
H15      1.432826289   15.101945097    4.259464566 XXXX 1      h*      H   0.410
H16      2.715207365    7.495445097    1.389978937 XXXX 1      h*      H   0.410
Ca1      2.976118924    2.590774004    2.869485629 XXXX 1      ca+g    Ca  1.500
Ca2      4.258500000   10.197274004    0.000000000 XXXX 1      ca+g    Ca  1.500
Ca3      0.137118924   12.622225996    2.869485629 XXXX 1      ca+g    Ca  1.500
Ca4      1.419500000    5.015725996    0.000000000 XXXX 1      ca+g    Ca  1.500
S1       4.258500000    2.630327794    0.000000000 XXXX 1      s'      S   0.500
S2       2.976118924   10.236827794    2.869485629 XXXX 1      s'      S   0.500
S3       1.419500000   12.582672206    0.000000000 XXXX 1      s'      S   0.500
S4       0.137118924    4.976172206    2.869485629 XXXX 1      s'      S   0.500
end
end
