!BIOSYM archive 3
PBC=ON
Materials Studio Generated CAR File
!DATE Tue Apr 15 10:18:23 2014
PBC   50.0000   50.0000   60.0000   90.0000   90.0000   90.0000 (P1)
O1      18.635331505   23.775835406   18.780027861 XXXX 1      oap1    O  -0.600
O2      18.635331505   23.775835406   25.655027861 XXXX 1      oap1    O  -0.800
O3      18.635331505   23.775835406   32.530027861 XXXX 1      oap1    O  -0.800
O4      18.635331505   23.775835406   39.405027861 XXXX 1      oap1    O  -0.800
O5      26.790692733   19.067335406   18.780027861 XXXX 1      oap1    O  -0.683
O6      26.790692733   19.067335406   25.655027861 XXXX 1      oap1    O  -0.683
O7      26.790692733   19.067335406   32.530027861 XXXX 1      oap1    O  -0.600
O8      26.790692733   19.067335406   39.405027861 XXXX 1      oap1    O  -0.683
O9      26.790692733   28.484335406   18.780027861 XXXX 1      oap1    O  -0.600
O10     26.790692733   28.484335406   25.655027861 XXXX 1      oap1    O  -0.800
O11     26.790692733   28.484335406   32.530027861 XXXX 1      oap1    O  -0.800
O12     26.790692733   28.484335406   39.405027861 XXXX 1      oap1    O  -0.800
O13     21.885243160   27.276605129   18.780027861 XXXX 1      oap1    O  -0.600
O14     21.885243160   27.276605129   25.655027861 XXXX 1      oap1    O  -0.800
O15     21.885243160   27.276605129   32.530027861 XXXX 1      oap1    O  -0.800
O16     21.885243160   27.276605129   39.405027861 XXXX 1      oap1    O  -0.800
O17     30.040604388   22.568105129   18.780027861 XXXX 1      oap1    O  -0.600
O18     30.040604388   22.568105129   25.655027861 XXXX 1      oap1    O  -0.800
O19     30.040604388   22.568105129   32.530027861 XXXX 1      oap1    O  -0.800
O20     30.040604388   22.568105129   39.405027861 XXXX 1      oap1    O  -0.800
O21     30.040604388   31.985105129   18.780027861 XXXX 1      oap1    O  -0.600
O22     30.040604388   31.985105129   25.655027861 XXXX 1      oap1    O  -0.683
O23     30.040604388   31.985105129   32.530027861 XXXX 1      oap1    O  -0.683
O24     30.040604388   31.985105129   39.405027861 XXXX 1      oap1    O  -0.683
O25     17.228531820   28.340726321   18.780027861 XXXX 1      oap1    O  -0.683
O26     17.228531820   28.340726321   25.655027861 XXXX 1      oap1    O  -0.683
O27     17.228531820   28.340726321   32.530027861 XXXX 1      oap1    O  -0.683
O28     17.228531820   28.340726321   39.405027861 XXXX 1      oap1    O  -0.600
O29     25.383893047   23.632226321   18.780027861 XXXX 1      oap1    O  -0.600
O30     25.383893047   23.632226321   25.655027861 XXXX 1      oap1    O  -0.800
O31     25.383893047   23.632226321   32.530027861 XXXX 1      oap1    O  -0.800
O32     25.383893047   23.632226321   39.405027861 XXXX 1      oap1    O  -0.800
O33     25.383893047   33.049226321   18.780027861 XXXX 1      oap1    O  -0.600
O34     25.383893047   33.049226321   25.655027861 XXXX 1      oap1    O  -0.800
O35     25.383893047   33.049226321   32.530027861 XXXX 1      oap1    O  -0.800
O36     25.383893047   33.049226321   39.405027861 XXXX 1      oap1    O  -0.800
O37     22.582526561   24.444442498   22.217527861 XXXX 1      oap1    O  -0.800
O38     22.582526561   24.444442498   29.092527861 XXXX 1      oap1    O  -0.800
O39     22.582526561   24.444442498   35.967527861 XXXX 1      oap1    O  -0.800
O40     22.582526561   24.444442498   42.842527861 XXXX 1      oap1    O  -0.600
O41     22.582526561   33.861442498   22.217527861 XXXX 1      oap1    O  -0.683
O42     22.582526561   33.861442498   29.092527861 XXXX 1      oap1    O  -0.683
O43     22.582526561   33.861442498   35.967527861 XXXX 1      oap1    O  -0.600
O44     22.582526561   33.861442498   42.842527861 XXXX 1      oap1    O  -0.683
O45     30.737887788   29.152942498   22.217527861 XXXX 1      oap1    O  -0.800
O46     30.737887788   29.152942498   29.092527861 XXXX 1      oap1    O  -0.800
O47     30.737887788   29.152942498   35.967527861 XXXX 1      oap1    O  -0.800
O48     30.737887788   29.152942498   42.842527861 XXXX 1      oap1    O  -0.683
O49     19.332614906   20.943672775   22.217527861 XXXX 1      oap1    O  -0.600
O50     19.332614906   20.943672775   29.092527861 XXXX 1      oap1    O  -0.683
O51     19.332614906   20.943672775   35.967527861 XXXX 1      oap1    O  -0.683
O52     19.332614906   20.943672775   42.842527861 XXXX 1      oap1    O  -0.683
O53     19.332614906   30.360672775   22.217527861 XXXX 1      oap1    O  -0.800
O54     19.332614906   30.360672775   29.092527861 XXXX 1      oap1    O  -0.800
O55     19.332614906   30.360672775   35.967527861 XXXX 1      oap1    O  -0.800
O56     19.332614906   30.360672775   42.842527861 XXXX 1      oap1    O  -0.683
O57     27.487976133   25.652172775   22.217527861 XXXX 1      oap1    O  -0.800
O58     27.487976133   25.652172775   29.092527861 XXXX 1      oap1    O  -0.800
O59     27.487976133   25.652172775   35.967527861 XXXX 1      oap1    O  -0.800
O60     27.487976133   25.652172775   42.842527861 XXXX 1      oap1    O  -0.683
O61     23.989326246   19.879551583   22.217527861 XXXX 1      oap1    O  -0.800
O62     23.989326246   19.879551583   29.092527861 XXXX 1      oap1    O  -0.800
O63     23.989326246   19.879551583   35.967527861 XXXX 1      oap1    O  -0.800
O64     23.989326246   19.879551583   42.842527861 XXXX 1      oap1    O  -0.683
O65     23.989326246   29.296551583   22.217527861 XXXX 1      oap1    O  -0.800
O66     23.989326246   29.296551583   29.092527861 XXXX 1      oap1    O  -0.800
O67     23.989326246   29.296551583   35.967527861 XXXX 1      oap1    O  -0.800
O68     23.989326246   29.296551583   42.842527861 XXXX 1      oap1    O  -0.683
O69     32.144687474   24.588051583   22.217527861 XXXX 1      oap1    O  -0.600
O70     32.144687474   24.588051583   29.092527861 XXXX 1      oap1    O  -0.683
O71     32.144687474   24.588051583   35.967527861 XXXX 1      oap1    O  -0.683
O72     32.144687474   24.588051583   42.842527861 XXXX 1      oap1    O  -0.683
O73     22.582526561   24.444442498   24.688402890 XXXX 1      oap1    O  -0.800
O74     22.582526561   24.444442498   31.563402890 XXXX 1      oap1    O  -0.800
O75     22.582526561   24.444442498   38.438402890 XXXX 1      oap1    O  -0.800
O76     22.582526561   24.444442498   45.313402890 XXXX 1      oap1    O  -0.600
O77     22.582526561   33.861442498   24.688402890 XXXX 1      oap1    O  -0.683
O78     22.582526561   33.861442498   31.563402890 XXXX 1      oap1    O  -0.683
O79     22.582526561   33.861442498   38.438402890 XXXX 1      oap1    O  -0.683
O80     22.582526561   33.861442498   45.313402890 XXXX 1      oap1    O  -0.600
O81     30.737887788   29.152942498   24.688402890 XXXX 1      oap1    O  -0.800
O82     30.737887788   29.152942498   31.563402890 XXXX 1      oap1    O  -0.800
O83     30.737887788   29.152942498   38.438402890 XXXX 1      oap1    O  -0.800
O84     30.737887788   29.152942498   45.313402890 XXXX 1      oap1    O  -0.600
O85     19.332614906   20.943672775   24.688402890 XXXX 1      oap1    O  -0.683
O86     19.332614906   20.943672775   31.563402890 XXXX 1      oap1    O  -0.600
O87     19.332614906   20.943672775   38.438402890 XXXX 1      oap1    O  -0.683
O88     19.332614906   20.943672775   45.313402890 XXXX 1      oap1    O  -0.683
O89     19.332614906   30.360672775   24.688402890 XXXX 1      oap1    O  -0.800
O90     19.332614906   30.360672775   31.563402890 XXXX 1      oap1    O  -0.800
O91     19.332614906   30.360672775   38.438402890 XXXX 1      oap1    O  -0.800
O92     19.332614906   30.360672775   45.313402890 XXXX 1      oap1    O  -0.600
O93     27.487976133   25.652172775   24.688402890 XXXX 1      oap1    O  -0.800
O94     27.487976133   25.652172775   31.563402890 XXXX 1      oap1    O  -0.800
O95     27.487976133   25.652172775   38.438402890 XXXX 1      oap1    O  -0.800
O96     27.487976133   25.652172775   45.313402890 XXXX 1      oap1    O  -0.600
O97     23.989326246   19.879551583   24.688402890 XXXX 1      oap1    O  -0.800
O98     23.989326246   19.879551583   31.563402890 XXXX 1      oap1    O  -0.800
O99     23.989326246   19.879551583   38.438402890 XXXX 1      oap1    O  -0.800
O100    23.989326246   19.879551583   45.313402890 XXXX 1      oap1    O  -0.600
O101    23.989326246   29.296551583   24.688402890 XXXX 1      oap1    O  -0.800
O102    23.989326246   29.296551583   31.563402890 XXXX 1      oap1    O  -0.800
O103    23.989326246   29.296551583   38.438402890 XXXX 1      oap1    O  -0.800
O104    23.989326246   29.296551583   45.313402890 XXXX 1      oap1    O  -0.600
O105    32.144687474   24.588051583   24.688402890 XXXX 1      oap1    O  -0.683
O106    32.144687474   24.588051583   31.563402890 XXXX 1      oap1    O  -0.600
O107    32.144687474   24.588051583   38.438402890 XXXX 1      oap1    O  -0.683
O108    32.144687474   24.588051583   45.313402890 XXXX 1      oap1    O  -0.683
O109    18.635331505   23.775835406   21.250902890 XXXX 1      oap1    O  -0.600
O110    18.635331505   23.775835406   28.125902890 XXXX 1      oap1    O  -0.800
O111    18.635331505   23.775835406   35.000902890 XXXX 1      oap1    O  -0.800
O112    18.635331505   23.775835406   41.875902890 XXXX 1      oap1    O  -0.800
O113    26.790692733   19.067335406   21.250902890 XXXX 1      oap1    O  -0.683
O114    26.790692733   19.067335406   28.125902890 XXXX 1      oap1    O  -0.683
O115    26.790692733   19.067335406   35.000902890 XXXX 1      oap1    O  -0.683
O116    26.790692733   19.067335406   41.875902890 XXXX 1      oap1    O  -0.600
O117    26.790692733   28.484335406   21.250902890 XXXX 1      oap1    O  -0.683
O118    26.790692733   28.484335406   28.125902890 XXXX 1      oap1    O  -0.800
O119    26.790692733   28.484335406   35.000902890 XXXX 1      oap1    O  -0.800
O120    26.790692733   28.484335406   41.875902890 XXXX 1      oap1    O  -0.800
O121    21.885243160   27.276605129   21.250902890 XXXX 1      oap1    O  -0.683
O122    21.885243160   27.276605129   28.125902890 XXXX 1      oap1    O  -0.800
O123    21.885243160   27.276605129   35.000902890 XXXX 1      oap1    O  -0.800
O124    21.885243160   27.276605129   41.875902890 XXXX 1      oap1    O  -0.800
O125    30.040604388   22.568105129   21.250902890 XXXX 1      oap1    O  -0.683
O126    30.040604388   22.568105129   28.125902890 XXXX 1      oap1    O  -0.800
O127    30.040604388   22.568105129   35.000902890 XXXX 1      oap1    O  -0.800
O128    30.040604388   22.568105129   41.875902890 XXXX 1      oap1    O  -0.800
O129    30.040604388   31.985105129   21.250902890 XXXX 1      oap1    O  -0.683
O130    30.040604388   31.985105129   28.125902890 XXXX 1      oap1    O  -0.600
O131    30.040604388   31.985105129   35.000902890 XXXX 1      oap1    O  -0.683
O132    30.040604388   31.985105129   41.875902890 XXXX 1      oap1    O  -0.683
O133    17.228531820   28.340726321   21.250902890 XXXX 1      oap1    O  -0.683
O134    17.228531820   28.340726321   28.125902890 XXXX 1      oap1    O  -0.683
O135    17.228531820   28.340726321   35.000902890 XXXX 1      oap1    O  -0.600
O136    17.228531820   28.340726321   41.875902890 XXXX 1      oap1    O  -0.683
O137    25.383893047   23.632226321   21.250902890 XXXX 1      oap1    O  -0.683
O138    25.383893047   23.632226321   28.125902890 XXXX 1      oap1    O  -0.800
O139    25.383893047   23.632226321   35.000902890 XXXX 1      oap1    O  -0.800
O140    25.383893047   23.632226321   41.875902890 XXXX 1      oap1    O  -0.800
O141    25.383893047   33.049226321   21.250902890 XXXX 1      oap1    O  -0.683
O142    25.383893047   33.049226321   28.125902890 XXXX 1      oap1    O  -0.800
O143    25.383893047   33.049226321   35.000902890 XXXX 1      oap1    O  -0.800
O144    25.383893047   33.049226321   41.875902890 XXXX 1      oap1    O  -0.800
Ca1     21.968155904   21.755888952   25.181615375 XXXX 1      ca+h    Ca  1.500
Ca2     21.968155904   21.755888952   32.056615375 XXXX 1      ca+h    Ca  1.500
Ca3     21.968155904   21.755888952   38.931615375 XXXX 1      ca+h    Ca  1.500
Ca4     21.968155904   31.172888952   25.181615375 XXXX 1      ca+h    Ca  1.500
Ca5     21.968155904   31.172888952   32.056615375 XXXX 1      ca+h    Ca  1.500
Ca6     21.968155904   31.172888952   38.931615375 XXXX 1      ca+h    Ca  1.500
Ca7     30.123517132   26.464388952   25.181615375 XXXX 1      ca+h    Ca  1.500
Ca8     30.123517132   26.464388952   32.056615375 XXXX 1      ca+h    Ca  1.500
Ca9     30.123517132   26.464388952   38.931615375 XXXX 1      ca+h    Ca  1.500
Ca10    19.249702162   26.464388952   21.744115375 XXXX 1      ca+h    Ca  1.500
Ca11    19.249702162   26.464388952   28.619115375 XXXX 1      ca+h    Ca  1.500
Ca12    19.249702162   26.464388952   35.494115375 XXXX 1      ca+h    Ca  1.500
Ca13    19.249702162   26.464388952   42.369115375 XXXX 1      ca+h    Ca  1.500
Ca14    27.405063389   21.755888952   21.744115375 XXXX 1      ca+h    Ca  1.500
Ca15    27.405063389   21.755888952   28.619115375 XXXX 1      ca+h    Ca  1.500
Ca16    27.405063389   21.755888952   35.494115375 XXXX 1      ca+h    Ca  1.500
Ca17    27.405063389   21.755888952   42.369115375 XXXX 1      ca+h    Ca  1.500
Ca18    27.405063389   31.172888952   21.744115375 XXXX 1      ca+h    Ca  1.500
Ca19    27.405063389   31.172888952   28.619115375 XXXX 1      ca+h    Ca  1.500
Ca20    27.405063389   31.172888952   35.494115375 XXXX 1      ca+h    Ca  1.500
Ca21    27.405063389   31.172888952   42.369115375 XXXX 1      ca+h    Ca  1.500
Ca22    19.249702162   26.464388952   25.161815375 XXXX 1      ca+h    Ca  1.500
Ca23    19.249702162   26.464388952   32.036815375 XXXX 1      ca+h    Ca  1.500
Ca24    19.249702162   26.464388952   38.911815375 XXXX 1      ca+h    Ca  1.500
Ca25    27.405063389   21.755888952   25.161815375 XXXX 1      ca+h    Ca  1.500
Ca26    27.405063389   21.755888952   32.036815375 XXXX 1      ca+h    Ca  1.500
Ca27    27.405063389   21.755888952   38.911815375 XXXX 1      ca+h    Ca  1.500
Ca28    27.405063389   31.172888952   25.161815375 XXXX 1      ca+h    Ca  1.500
Ca29    27.405063389   31.172888952   32.036815375 XXXX 1      ca+h    Ca  1.500
Ca30    27.405063389   31.172888952   38.911815375 XXXX 1      ca+h    Ca  1.500
Ca31    21.968155904   21.755888952   21.724315375 XXXX 1      ca+h    Ca  1.500
Ca32    21.968155904   21.755888952   28.599315375 XXXX 1      ca+h    Ca  1.500
Ca33    21.968155904   21.755888952   35.474315375 XXXX 1      ca+h    Ca  1.500
Ca34    21.968155904   21.755888952   42.349315375 XXXX 1      ca+h    Ca  1.500
Ca35    21.968155904   31.172888952   21.724315375 XXXX 1      ca+h    Ca  1.500
Ca36    21.968155904   31.172888952   28.599315375 XXXX 1      ca+h    Ca  1.500
Ca37    21.968155904   31.172888952   35.474315375 XXXX 1      ca+h    Ca  1.500
Ca38    21.968155904   31.172888952   42.349315375 XXXX 1      ca+h    Ca  1.500
Ca39    30.123517132   26.464388952   21.724315375 XXXX 1      ca+h    Ca  1.500
Ca40    30.123517132   26.464388952   28.599315375 XXXX 1      ca+h    Ca  1.500
Ca41    30.123517132   26.464388952   35.474315375 XXXX 1      ca+h    Ca  1.500
Ca42    30.123517132   26.464388952   42.349315375 XXXX 1      ca+h    Ca  1.500
Ca43    24.740190370   19.343018127   26.890465375 XXXX 1      ca+h    Ca  1.500
Ca44    24.740190370   19.343018127   40.640465375 XXXX 1      ca+h    Ca  1.500
Ca45    24.740190370   28.760018127   20.015465375 XXXX 1      ca+h    Ca  1.500
Ca46    24.740190370   28.760018127   26.890465375 XXXX 1      ca+h    Ca  1.500
Ca47    24.740190370   28.760018127   33.765465375 XXXX 1      ca+h    Ca  1.500
Ca48    24.740190370   28.760018127   40.640465375 XXXX 1      ca+h    Ca  1.500
P1      19.537314656   23.774517060   20.015465375 XXXX 1      pap     P   1.000
P2      19.537314656   23.774517060   26.890465375 XXXX 1      pap     P   1.000
P3      19.537314656   23.774517060   33.765465375 XXXX 1      pap     P   1.000
P4      19.537314656   23.774517060   40.640465375 XXXX 1      pap     P   1.000
P5      27.692675884   19.066017060   20.015465375 XXXX 1      pap     P   1.000
P6      27.692675884   19.066017060   26.890465375 XXXX 1      pap     P   1.000
P7      27.692675884   19.066017060   33.765465375 XXXX 1      pap     P   1.000
P8      27.692675884   19.066017060   40.640465375 XXXX 1      pap     P   1.000
P9      27.692675884   28.483017060   20.015465375 XXXX 1      pap     P   1.000
P10     27.692675884   28.483017060   26.890465375 XXXX 1      pap     P   1.000
P11     27.692675884   28.483017060   33.765465375 XXXX 1      pap     P   1.000
P12     27.692675884   28.483017060   40.640465375 XXXX 1      pap     P   1.000
O145    20.322675748   25.095628336   20.015465375 XXXX 1      oap1    O  -0.683
O146    20.322675748   25.095628336   26.890465375 XXXX 1      oap1    O  -0.800
O147    20.322675748   25.095628336   33.765465375 XXXX 1      oap1    O  -0.800
O148    20.322675748   25.095628336   40.640465375 XXXX 1      oap1    O  -0.800
O149    28.478036975   20.387128336   20.015465375 XXXX 1      oap1    O  -0.600
O150    28.478036975   20.387128336   26.890465375 XXXX 1      oap1    O  -0.600
O151    28.478036975   20.387128336   33.765465375 XXXX 1      oap1    O  -0.683
O152    28.478036975   20.387128336   40.640465375 XXXX 1      oap1    O  -0.683
O153    28.478036975   29.804128336   20.015465375 XXXX 1      oap1    O  -0.600
O154    28.478036975   29.804128336   26.890465375 XXXX 1      oap1    O  -0.800
O155    28.478036975   29.804128336   33.765465375 XXXX 1      oap1    O  -0.800
O156    28.478036975   29.804128336   40.640465375 XXXX 1      oap1    O  -0.800
O157    20.486598731   22.569517773   20.015465375 XXXX 1      oap1    O  -0.683
O158    20.486598731   22.569517773   26.890465375 XXXX 1      oap1    O  -0.800
O159    20.486598731   22.569517773   33.765465375 XXXX 1      oap1    O  -0.800
O160    20.486598731   22.569517773   40.640465375 XXXX 1      oap1    O  -0.800
O161    28.641959959   17.861017773   20.015465375 XXXX 1      oap1    O  -0.600
O162    28.641959959   17.861017773   26.890465375 XXXX 1      oap1    O  -0.600
O163    28.641959959   17.861017773   33.765465375 XXXX 1      oap1    O  -0.600
O164    28.641959959   17.861017773   40.640465375 XXXX 1      oap1    O  -0.600
O165    28.641959959   27.278017773   20.015465375 XXXX 1      oap1    O  -0.683
O166    28.641959959   27.278017773   26.890465375 XXXX 1      oap1    O  -0.800
O167    28.641959959   27.278017773   33.765465375 XXXX 1      oap1    O  -0.800
O168    28.641959959   27.278017773   40.640465375 XXXX 1      oap1    O  -0.800
Ca49    22.671746102   25.362976632   26.890465375 XXXX 1      ca+h    Ca  1.500
Ca50    22.671746102   25.362976632   33.765465375 XXXX 1      ca+h    Ca  1.500
Ca51    22.671746102   25.362976632   40.640465375 XXXX 1      ca+h    Ca  1.500
Ca52    30.827107329   30.071476632   26.890465375 XXXX 1      ca+h    Ca  1.500
Ca53    30.827107329   30.071476632   33.765465375 XXXX 1      ca+h    Ca  1.500
Ca54    30.827107329   30.071476632   40.640465375 XXXX 1      ca+h    Ca  1.500
P13     21.435393306   28.058404625   20.015465375 XXXX 1      pap     P   1.000
P14     21.435393306   28.058404625   26.890465375 XXXX 1      pap     P   1.000
P15     21.435393306   28.058404625   33.765465375 XXXX 1      pap     P   1.000
P16     21.435393306   28.058404625   40.640465375 XXXX 1      pap     P   1.000
P17     29.590754533   23.349904625   20.015465375 XXXX 1      pap     P   1.000
P18     29.590754533   23.349904625   26.890465375 XXXX 1      pap     P   1.000
P19     29.590754533   23.349904625   33.765465375 XXXX 1      pap     P   1.000
P20     29.590754533   23.349904625   40.640465375 XXXX 1      pap     P   1.000
P21     29.590754533   32.766904625   20.015465375 XXXX 1      pap     P   1.000
P22     29.590754533   32.766904625   26.890465375 XXXX 1      pap     P   1.000
P23     29.590754533   32.766904625   33.765465375 XXXX 1      pap     P   1.000
P24     29.590754533   32.766904625   40.640465375 XXXX 1      pap     P   1.000
O169    19.898596834   28.077991643   20.015465375 XXXX 1      oap1    O  -0.600
O170    19.898596834   28.077991643   26.890465375 XXXX 1      oap1    O  -0.800
O171    19.898596834   28.077991643   33.765465375 XXXX 1      oap1    O  -0.800
O172    19.898596834   28.077991643   40.640465375 XXXX 1      oap1    O  -0.800
O173    28.053958061   23.369491643   20.015465375 XXXX 1      oap1    O  -0.683
O174    28.053958061   23.369491643   26.890465375 XXXX 1      oap1    O  -0.800
O175    28.053958061   23.369491643   33.765465375 XXXX 1      oap1    O  -0.800
O176    28.053958061   23.369491643   40.640465375 XXXX 1      oap1    O  -0.800
O177    28.053958061   32.786491643   20.015465375 XXXX 1      oap1    O  -0.683
O178    28.053958061   32.786491643   26.890465375 XXXX 1      oap1    O  -0.683
O179    28.053958061   32.786491643   33.765465375 XXXX 1      oap1    O  -0.600
O180    28.053958061   32.786491643   40.640465375 XXXX 1      oap1    O  -0.600
O181    22.004311262   29.483008392   20.015465375 XXXX 1      oap1    O  -0.683
O182    22.004311262   29.483008392   26.890465375 XXXX 1      oap1    O  -0.800
O183    22.004311262   29.483008392   33.765465375 XXXX 1      oap1    O  -0.800
O184    22.004311262   29.483008392   40.640465375 XXXX 1      oap1    O  -0.800
O185    30.159672490   24.774508392   20.015465375 XXXX 1      oap1    O  -0.600
O186    30.159672490   24.774508392   26.890465375 XXXX 1      oap1    O  -0.800
O187    30.159672490   24.774508392   33.765465375 XXXX 1      oap1    O  -0.800
O188    30.159672490   24.774508392   40.640465375 XXXX 1      oap1    O  -0.800
O189    30.159672490   34.191508392   20.015465375 XXXX 1      oap1    O  -0.600
O190    30.159672490   34.191508392   26.890465375 XXXX 1      oap1    O  -0.600
O191    30.159672490   34.191508392   33.765465375 XXXX 1      oap1    O  -0.600
O192    30.159672490   34.191508392   40.640465375 XXXX 1      oap1    O  -0.600
Ca55    18.492531241   29.978672097   26.890465375 XXXX 1      ca+h    Ca  1.500
Ca56    18.492531241   29.978672097   33.765465375 XXXX 1      ca+h    Ca  1.500
Ca57    26.647892468   25.270172097   26.890465375 XXXX 1      ca+h    Ca  1.500
Ca58    26.647892468   25.270172097   33.765465375 XXXX 1      ca+h    Ca  1.500
Ca59    26.647892468   25.270172097   40.640465375 XXXX 1      ca+h    Ca  1.500
P25     16.776398523   27.560245171   20.015465375 XXXX 1      pap     P   1.000
P26     16.776398523   27.560245171   26.890465375 XXXX 1      pap     P   1.000
P27     16.776398523   27.560245171   33.765465375 XXXX 1      pap     P   1.000
P28     16.776398523   27.560245171   40.640465375 XXXX 1      pap     P   1.000
P29     24.931759750   22.851745171   20.015465375 XXXX 1      pap     P   1.000
P30     24.931759750   22.851745171   26.890465375 XXXX 1      pap     P   1.000
P31     24.931759750   22.851745171   33.765465375 XXXX 1      pap     P   1.000
P32     24.931759750   22.851745171   40.640465375 XXXX 1      pap     P   1.000
P33     24.931759750   32.268745171   20.015465375 XXXX 1      pap     P   1.000
P34     24.931759750   32.268745171   26.890465375 XXXX 1      pap     P   1.000
P35     24.931759750   32.268745171   33.765465375 XXXX 1      pap     P   1.000
P36     24.931759750   32.268745171   40.640465375 XXXX 1      pap     P   1.000
O193    17.527833904   26.219546877   20.015465375 XXXX 1      oap1    O  -0.600
O194    17.527833904   26.219546877   26.890465375 XXXX 1      oap1    O  -0.600
O195    17.527833904   26.219546877   33.765465375 XXXX 1      oap1    O  -0.683
O196    17.527833904   26.219546877   40.640465375 XXXX 1      oap1    O  -0.683
O197    25.683195131   21.511046877   20.015465375 XXXX 1      oap1    O  -0.683
O198    25.683195131   21.511046877   26.890465375 XXXX 1      oap1    O  -0.800
O199    25.683195131   21.511046877   33.765465375 XXXX 1      oap1    O  -0.800
O200    25.683195131   21.511046877   40.640465375 XXXX 1      oap1    O  -0.800
O201    25.683195131   30.928046877   20.015465375 XXXX 1      oap1    O  -0.683
O202    25.683195131   30.928046877   26.890465375 XXXX 1      oap1    O  -0.800
O203    25.683195131   30.928046877   33.765465375 XXXX 1      oap1    O  -0.800
O204    25.683195131   30.928046877   40.640465375 XXXX 1      oap1    O  -0.800
O205    15.258196492   27.340640690   20.015465375 XXXX 1      oap1    O  -0.600
O206    15.258196492   27.340640690   26.890465375 XXXX 1      oap1    O  -0.600
O207    15.258196492   27.340640690   33.765465375 XXXX 1      oap1    O  -0.600
O208    15.258196492   27.340640690   40.640465375 XXXX 1      oap1    O  -0.600
O209    23.413557719   22.632140690   20.015465375 XXXX 1      oap1    O  -0.600
O210    23.413557719   22.632140690   26.890465375 XXXX 1      oap1    O  -0.800
O211    23.413557719   22.632140690   33.765465375 XXXX 1      oap1    O  -0.800
O212    23.413557719   22.632140690   40.640465375 XXXX 1      oap1    O  -0.800
O213    23.413557719   32.049140690   20.015465375 XXXX 1      oap1    O  -0.600
O214    23.413557719   32.049140690   26.890465375 XXXX 1      oap1    O  -0.800
O215    23.413557719   32.049140690   33.765465375 XXXX 1      oap1    O  -0.800
O216    23.413557719   32.049140690   40.640465375 XXXX 1      oap1    O  -0.800
Ca60    24.633028923   24.168759777   23.452965375 XXXX 1      ca+h    Ca  1.500
Ca61    24.633028923   24.168759777   30.327965375 XXXX 1      ca+h    Ca  1.500
Ca62    24.633028923   24.168759777   37.202965375 XXXX 1      ca+h    Ca  1.500
Ca63    24.633028923   33.585759777   23.452965375 XXXX 1      ca+h    Ca  1.500
Ca64    24.633028923   33.585759777   37.202965375 XXXX 1      ca+h    Ca  1.500
Ca65    24.633028923   33.585759777   44.077965375 XXXX 1      ca+h    Ca  1.500
P37     21.680543410   24.445760844   23.452965375 XXXX 1      pap     P   1.000
P38     21.680543410   24.445760844   30.327965375 XXXX 1      pap     P   1.000
P39     21.680543410   24.445760844   37.202965375 XXXX 1      pap     P   1.000
P40     21.680543410   24.445760844   44.077965375 XXXX 1      pap     P   1.000
P41     21.680543410   33.862760844   23.452965375 XXXX 1      pap     P   1.000
P42     21.680543410   33.862760844   30.327965375 XXXX 1      pap     P   1.000
P43     21.680543410   33.862760844   37.202965375 XXXX 1      pap     P   1.000
P44     21.680543410   33.862760844   44.077965375 XXXX 1      pap     P   1.000
P45     29.835904637   29.154260844   23.452965375 XXXX 1      pap     P   1.000
P46     29.835904637   29.154260844   30.327965375 XXXX 1      pap     P   1.000
P47     29.835904637   29.154260844   37.202965375 XXXX 1      pap     P   1.000
P48     29.835904637   29.154260844   44.077965375 XXXX 1      pap     P   1.000
O217    20.895182318   23.124649567   23.452965375 XXXX 1      oap1    O  -0.800
O218    20.895182318   23.124649567   30.327965375 XXXX 1      oap1    O  -0.800
O219    20.895182318   23.124649567   37.202965375 XXXX 1      oap1    O  -0.800
O220    20.895182318   23.124649567   44.077965375 XXXX 1      oap1    O  -0.683
O221    20.895182318   32.541649567   23.452965375 XXXX 1      oap1    O  -0.600
O222    20.895182318   32.541649567   30.327965375 XXXX 1      oap1    O  -0.600
O223    20.895182318   32.541649567   37.202965375 XXXX 1      oap1    O  -0.683
O224    20.895182318   32.541649567   44.077965375 XXXX 1      oap1    O  -0.683
O225    29.050543546   27.833149567   23.452965375 XXXX 1      oap1    O  -0.800
O226    29.050543546   27.833149567   30.327965375 XXXX 1      oap1    O  -0.800
O227    29.050543546   27.833149567   37.202965375 XXXX 1      oap1    O  -0.800
O228    29.050543546   27.833149567   44.077965375 XXXX 1      oap1    O  -0.683
O229    20.731259335   25.650760131   23.452965375 XXXX 1      oap1    O  -0.800
O230    20.731259335   25.650760131   30.327965375 XXXX 1      oap1    O  -0.800
O231    20.731259335   25.650760131   37.202965375 XXXX 1      oap1    O  -0.800
O232    20.731259335   25.650760131   44.077965375 XXXX 1      oap1    O  -0.683
O233    20.731259335   35.067760131   23.452965375 XXXX 1      oap1    O  -0.600
O234    20.731259335   35.067760131   30.327965375 XXXX 1      oap1    O  -0.600
O235    20.731259335   35.067760131   37.202965375 XXXX 1      oap1    O  -0.600
O236    20.731259335   35.067760131   44.077965375 XXXX 1      oap1    O  -0.600
O237    28.886620562   30.359260131   23.452965375 XXXX 1      oap1    O  -0.800
O238    28.886620562   30.359260131   30.327965375 XXXX 1      oap1    O  -0.800
O239    28.886620562   30.359260131   37.202965375 XXXX 1      oap1    O  -0.800
O240    28.886620562   30.359260131   44.077965375 XXXX 1      oap1    O  -0.600
Ca66    18.546111964   22.857301272   23.452965375 XXXX 1      ca+h    Ca  1.500
Ca67    18.546111964   22.857301272   30.327965375 XXXX 1      ca+h    Ca  1.500
Ca68    18.546111964   22.857301272   37.202965375 XXXX 1      ca+h    Ca  1.500
Ca69    26.701473192   27.565801272   23.452965375 XXXX 1      ca+h    Ca  1.500
Ca70    26.701473192   27.565801272   30.327965375 XXXX 1      ca+h    Ca  1.500
Ca71    26.701473192   27.565801272   37.202965375 XXXX 1      ca+h    Ca  1.500
P49     19.782464760   20.161873279   23.452965375 XXXX 1      pap     P   1.000
P50     19.782464760   20.161873279   30.327965375 XXXX 1      pap     P   1.000
P51     19.782464760   20.161873279   37.202965375 XXXX 1      pap     P   1.000
P52     19.782464760   20.161873279   44.077965375 XXXX 1      pap     P   1.000
P53     19.782464760   29.578873279   23.452965375 XXXX 1      pap     P   1.000
P54     19.782464760   29.578873279   30.327965375 XXXX 1      pap     P   1.000
P55     19.782464760   29.578873279   37.202965375 XXXX 1      pap     P   1.000
P56     19.782464760   29.578873279   44.077965375 XXXX 1      pap     P   1.000
P57     27.937825987   24.870373279   23.452965375 XXXX 1      pap     P   1.000
P58     27.937825987   24.870373279   30.327965375 XXXX 1      pap     P   1.000
P59     27.937825987   24.870373279   37.202965375 XXXX 1      pap     P   1.000
P60     27.937825987   24.870373279   44.077965375 XXXX 1      pap     P   1.000
O241    21.319261232   20.142286261   23.452965375 XXXX 1      oap1    O  -0.683
O242    21.319261232   20.142286261   30.327965375 XXXX 1      oap1    O  -0.683
O243    21.319261232   20.142286261   37.202965375 XXXX 1      oap1    O  -0.600
O244    21.319261232   20.142286261   44.077965375 XXXX 1      oap1    O  -0.600
O245    21.319261232   29.559286261   23.452965375 XXXX 1      oap1    O  -0.800
O246    21.319261232   29.559286261   30.327965375 XXXX 1      oap1    O  -0.800
O247    21.319261232   29.559286261   37.202965375 XXXX 1      oap1    O  -0.800
O248    21.319261232   29.559286261   44.077965375 XXXX 1      oap1    O  -0.600
O249    29.474622460   24.850786261   23.452965375 XXXX 1      oap1    O  -0.800
O250    29.474622460   24.850786261   30.327965375 XXXX 1      oap1    O  -0.800
O251    29.474622460   24.850786261   37.202965375 XXXX 1      oap1    O  -0.800
O252    29.474622460   24.850786261   44.077965375 XXXX 1      oap1    O  -0.600
O253    19.213546804   18.737269511   23.452965375 XXXX 1      oap1    O  -0.600
O254    19.213546804   18.737269511   30.327965375 XXXX 1      oap1    O  -0.600
O255    19.213546804   18.737269511   37.202965375 XXXX 1      oap1    O  -0.600
O256    19.213546804   18.737269511   44.077965375 XXXX 1      oap1    O  -0.600
O257    19.213546804   28.154269511   23.452965375 XXXX 1      oap1    O  -0.800
O258    19.213546804   28.154269511   30.327965375 XXXX 1      oap1    O  -0.800
O259    19.213546804   28.154269511   37.202965375 XXXX 1      oap1    O  -0.800
O260    19.213546804   28.154269511   44.077965375 XXXX 1      oap1    O  -0.683
O261    27.368908031   23.445769511   23.452965375 XXXX 1      oap1    O  -0.800
O262    27.368908031   23.445769511   30.327965375 XXXX 1      oap1    O  -0.800
O263    27.368908031   23.445769511   37.202965375 XXXX 1      oap1    O  -0.800
O264    27.368908031   23.445769511   44.077965375 XXXX 1      oap1    O  -0.683
Ca72    22.725326825   27.658605807   23.452965375 XXXX 1      ca+h    Ca  1.500
Ca73    22.725326825   27.658605807   30.327965375 XXXX 1      ca+h    Ca  1.500
Ca74    22.725326825   27.658605807   37.202965375 XXXX 1      ca+h    Ca  1.500
Ca75    30.880688053   22.950105807   23.452965375 XXXX 1      ca+h    Ca  1.500
Ca76    30.880688053   22.950105807   37.202965375 XXXX 1      ca+h    Ca  1.500
P61     24.441459543   20.660032732   23.452965375 XXXX 1      pap     P   1.000
P62     24.441459543   20.660032732   30.327965375 XXXX 1      pap     P   1.000
P63     24.441459543   20.660032732   37.202965375 XXXX 1      pap     P   1.000
P64     24.441459543   20.660032732   44.077965375 XXXX 1      pap     P   1.000
P65     24.441459543   30.077032732   23.452965375 XXXX 1      pap     P   1.000
P66     24.441459543   30.077032732   30.327965375 XXXX 1      pap     P   1.000
P67     24.441459543   30.077032732   37.202965375 XXXX 1      pap     P   1.000
P68     24.441459543   30.077032732   44.077965375 XXXX 1      pap     P   1.000
P69     32.596820771   25.368532732   23.452965375 XXXX 1      pap     P   1.000
P70     32.596820771   25.368532732   30.327965375 XXXX 1      pap     P   1.000
P71     32.596820771   25.368532732   37.202965375 XXXX 1      pap     P   1.000
P72     32.596820771   25.368532732   44.077965375 XXXX 1      pap     P   1.000
O265    23.690024162   22.000731027   23.452965375 XXXX 1      oap1    O  -0.800
O266    23.690024162   22.000731027   30.327965375 XXXX 1      oap1    O  -0.800
O267    23.690024162   22.000731027   37.202965375 XXXX 1      oap1    O  -0.800
O268    23.690024162   22.000731027   44.077965375 XXXX 1      oap1    O  -0.683
O269    23.690024162   31.417731027   23.452965375 XXXX 1      oap1    O  -0.800
O270    23.690024162   31.417731027   30.327965375 XXXX 1      oap1    O  -0.800
O271    23.690024162   31.417731027   37.202965375 XXXX 1      oap1    O  -0.800
O272    23.690024162   31.417731027   44.077965375 XXXX 1      oap1    O  -0.683
O273    31.845385390   26.709231027   23.452965375 XXXX 1      oap1    O  -0.683
O274    31.845385390   26.709231027   30.327965375 XXXX 1      oap1    O  -0.683
O275    31.845385390   26.709231027   37.202965375 XXXX 1      oap1    O  -0.600
O276    31.845385390   26.709231027   44.077965375 XXXX 1      oap1    O  -0.600
O277    25.959661574   20.879637213   23.452965375 XXXX 1      oap1    O  -0.800
O278    25.959661574   20.879637213   30.327965375 XXXX 1      oap1    O  -0.800
O279    25.959661574   20.879637213   37.202965375 XXXX 1      oap1    O  -0.800
O280    25.959661574   20.879637213   44.077965375 XXXX 1      oap1    O  -0.600
O281    25.959661574   30.296637213   23.452965375 XXXX 1      oap1    O  -0.800
O282    25.959661574   30.296637213   30.327965375 XXXX 1      oap1    O  -0.800
O283    25.959661574   30.296637213   37.202965375 XXXX 1      oap1    O  -0.800
O284    25.959661574   30.296637213   44.077965375 XXXX 1      oap1    O  -0.600
O285    34.115022802   25.588137213   23.452965375 XXXX 1      oap1    O  -0.600
O286    34.115022802   25.588137213   30.327965375 XXXX 1      oap1    O  -0.600
O287    34.115022802   25.588137213   37.202965375 XXXX 1      oap1    O  -0.600
O288    34.115022802   25.588137213   44.077965375 XXXX 1      oap1    O  -0.600
O289    24.686609647   26.464388952   23.811152894 XXXX 1      oap2    O  -1.100
O290    24.686609647   26.464388952   30.686152894 XXXX 1      oap2    O  -1.100
O291    24.686609647   26.464388952   37.561152894 XXXX 1      oap2    O  -1.100
O292    24.686609647   26.464388952   44.436152894 XXXX 1      oap2    O  -1.100
O293    24.686609647   26.464388952   20.373652894 XXXX 1      oap2    O  -1.100
O294    24.686609647   26.464388952   27.248652894 XXXX 1      oap2    O  -1.100
O295    24.686609647   26.464388952   34.123652894 XXXX 1      oap2    O  -1.100
O296    24.686609647   26.464388952   40.998652894 XXXX 1      oap2    O  -1.100
H1      24.686607268   26.464620477   24.921152869 XXXX 1      hop     H   0.200
H2      24.686607268   26.464620477   31.796152869 XXXX 1      hop     H   0.200
H3      24.686607268   26.464620477   38.671152869 XXXX 1      hop     H   0.200
H4      24.686607268   26.464620477   45.546152869 XXXX 1      hop     H   0.200
H5      24.686731081   26.456216440   21.483622796 XXXX 1      hop     H   0.200
H6      24.686731081   26.456216440   28.358622796 XXXX 1      hop     H   0.200
H7      24.686731081   26.456216440   35.233622796 XXXX 1      hop     H   0.200
H8      24.686731081   26.456216440   42.108622796 XXXX 1      hop     H   0.200
H9      31.269366212   34.167404811   40.630520893 XXXX 1      hop     H   0.400
H10     31.267467209   34.261318354   33.761286482 XXXX 1      hop     H   0.400
H11     31.268663569   34.238493698   26.884879611 XXXX 1      hop     H   0.400
H12     31.268282721   34.246804358   20.010391447 XXXX 1      hop     H   0.400
H13     27.922034072   33.886501546   40.708834758 XXXX 1      hop     H   0.400
H14     27.434989830   33.705868830   33.826489923 XXXX 1      hop     H   0.400
H15     31.111413503   32.273067932   28.176353894 XXXX 1      hop     H   0.376
H16     31.113834952   32.263994081   18.829999353 XXXX 1      hop     H   0.400
H17     21.335787812   35.996814136   44.137160312 XXXX 1      hop     H   0.400
H18     21.405071403   35.947959098   37.260646715 XXXX 1      hop     H   0.400
H19     21.553145624   35.811950633   30.380724054 XXXX 1      hop     H   0.400
H20     21.517208344   35.849710125   23.507172546 XXXX 1      hop     H   0.400
H21     22.882003248   34.928495420   45.375143064 XXXX 1      hop     H   0.400
H22     23.417066456   34.848218472   36.033445615 XXXX 1      hop     H   0.400
H23     19.972135227   33.157887095   30.346279880 XXXX 1      hop     H   0.400
H24     19.963017845   33.144032857   23.470395531 XXXX 1      hop     H   0.400
H25     14.605985715   26.442477208   20.010615781 XXXX 1      hop     H   0.400
H26     14.435119621   26.595898776   26.892463841 XXXX 1      hop     H   0.400
H27     14.409663682   26.625041504   33.768615356 XXXX 1      hop     H   0.400
H28     14.418683520   26.614479189   40.643202407 XXXX 1      hop     H   0.400
H29     16.491462114   29.094683098   39.058073291 XXXX 1      hop     H   0.400
H30     16.764579801   29.348640513   35.031847451 XXXX 1      hop     H   0.400
H31     16.652343055   25.537973873   20.048237938 XXXX 1      hop     H   0.400
H32     16.590838750   25.625727328   26.929432707 XXXX 1      hop     H   0.400
H33     34.756042260   24.682087280   44.061606899 XXXX 1      hop     H   0.400
H34     34.735958707   24.668220538   37.185879134 XXXX 1      hop     H   0.400
H35     34.689685556   24.638656662   30.309272364 XXXX 1      hop     H   0.400
H36     34.694682291   24.641695581   23.434441363 XXXX 1      hop     H   0.400
H37     32.707955685   27.407012480   44.112222616 XXXX 1      hop     H   0.400
H38     32.851552210   27.177034755   37.232765250 XXXX 1      hop     H   0.400
H39     32.953145777   23.829219652   22.165862020 XXXX 1      hop     H   0.400
H40     32.673831757   23.613812351   31.508956863 XXXX 1      hop     H   0.400
H41     19.804044967   17.797762725   44.050779083 XXXX 1      hop     H   0.400
H42     19.813987593   17.804099116   37.175323993 XXXX 1      hop     H   0.400
H43     19.819934870   17.807960887   30.300051785 XXXX 1      hop     H   0.400
H44     19.776050926   17.780703657   23.427060508 XXXX 1      hop     H   0.400
H45     21.480862385   19.044163588   44.088535577 XXXX 1      hop     H   0.400
H46     21.459828215   19.041281883   37.214382449 XXXX 1      hop     H   0.400
H47     18.307600678   20.520154229   31.608986979 XXXX 1      hop     H   0.400
H48     18.245376043   20.724581993   22.262371111 XXXX 1      hop     H   0.400
H49     28.038624775   16.930049936   40.677687775 XXXX 1      hop     H   0.400
H50     28.122667461   16.880596210   33.800233423 XXXX 1      hop     H   0.400
H51     28.266173946   16.817001876   26.920724688 XXXX 1      hop     H   0.400
H52     28.337499015   16.793953698   20.043353301 XXXX 1      hop     H   0.400
H53     29.460129270   19.870681266   19.985847982 XXXX 1      hop     H   0.400
H54     29.402702295   19.773596811   26.864520055 XXXX 1      hop     H   0.400
H55     26.641390804   17.970595761   41.959396637 XXXX 1      hop     H   0.400
H56     26.591132739   17.978784773   32.615663409 XXXX 1      hop     H   0.400
H57     20.121214936   30.538926493   46.073952471 XXXX 1      hop     H   0.400
H58     21.354613598   29.731131724   45.174012563 XXXX 1      hop     H   0.400
H59     22.547383525   24.712910477   46.389873961 XXXX 1      hop     H   0.400
H60     23.165974796   24.685390318   43.755562556 XXXX 1      hop     H   0.400
H61     24.794497346   29.610227331   46.010114464 XXXX 1      hop     H   0.400
H62     26.052276089   30.547599369   45.155249244 XXXX 1      hop     H   0.400
H63     24.639996218   20.207425133   46.150796290 XXXX 1      hop     H   0.400
H64     26.067099997   21.074087283   45.165506825 XXXX 1      hop     H   0.400
H65     28.394579519   25.815467726   45.932680818 XXXX 1      hop     H   0.400
H66     29.426911322   25.092328850   45.160315155 XXXX 1      hop     H   0.400
H67     28.623570453   30.588592020   45.131678684 XXXX 1      hop     H   0.400
H68     30.284045996   29.014678932   46.316902264 XXXX 1      hop     H   0.400
H69     31.149618787   22.543815554   18.740063974 XXXX 1      hop     H   0.400
H70     31.209103970   24.667201224   19.670097788 XXXX 1      hop     H   0.400
H71     26.772087155   28.191082673   17.709627630 XXXX 1      hop     H   0.400
H72     29.245348137   29.583478587   19.244331612 XXXX 1      hop     H   0.400
H73     24.435544280   23.674993744   18.204783947 XXXX 1      hop     H   0.400
H74     23.171673266   22.498711199   18.940389382 XXXX 1      hop     H   0.400
H75     26.021110587   32.823512992   17.899626108 XXXX 1      hop     H   0.400
H76     23.268400302   31.899860661   18.925169681 XXXX 1      hop     H   0.400
H77     19.518389032   23.554019484   18.145120712 XXXX 1      hop     H   0.400
H78     18.009608098   23.720776421   20.335731503 XXXX 1      hop     H   0.400
H79     22.957090972   27.092629458   18.557777446 XXXX 1      hop     H   0.400
H80     19.200749853   28.041189838   19.153052962 XXXX 1      hop     H   0.400
end
end
