!BIOSYM archive 3
PBC=ON
Materials Studio Generated CAR File
!DATE Mon Sep 24 13:23:10 2012
PBC   24.3692  121.1044   25.2748   90.0000   90.0000   90.0000 (P1)
CA1     11.131932259    1.835847735    2.717637300 XXX  1      ca++    Ca  1.500
CA2      9.226429939    5.136186123    5.712174416 XXX  1      ca++    Ca  1.500
CA5      8.219378471    3.517407179    2.717522383 XXX  1      ca++    Ca  1.500
SI1      0.007230922    0.000000891    0.028616548 XXX  1      sc1     Si  1.000
SI2      0.007297071    0.000001672    5.525158882 XXX  1      sc1     Si  1.000
SI3      8.130296707    0.000000056    2.954212904 XXX  1      sc1     Si  1.000
O1       2.038053274    3.517407656    4.595787525 XXX  1      oc1     O  -1.000
O2      10.161074638    3.517406464    4.156828403 XXX  1      oc2     O  -1.500
O3      -0.743542314    1.300402403    6.048423767 XXX  1      oc1     O  -1.000
O4       1.508809447    0.000004876    6.048668861 XXX  1      oc1     O  -1.000
O5       0.007074024   -0.000001378    1.600960851 XXX  1      oc1     O  -1.000
O6       0.007470640    0.000004626    3.943363667 XXX  1      oc1     O  -1.000
O7      10.161149025    3.517404556    7.182777882 XXX  1      oc2     O  -1.500
O8       4.068757057   -0.000003375    1.031637669 XXX  1      oc2     O  -1.500
O9       8.880521774   -1.299177170    7.946104527 XXX  1      oc1     O  -1.000
O10      0.527017832    3.517409563    2.398023129 XXX  1      oc1     O  -1.000
O11      0.537949443    3.517399073    7.945885658 XXX  1      oc1     O  -1.000
O12      2.793513298    4.825956345    2.397971869 XXX  1      oc1     O  -1.000
CA7      7.070489883    1.835847735   11.142574310 XXX  1      ca++    Ca  1.500
CA8      5.164988041    5.136186123   14.137110710 XXX  1      ca++    Ca  1.500
CA9     11.151305199    1.802490234    8.370634079 XXX  1      ca++    Ca  1.500
CA10     7.968856812    3.517402649   14.137010574 XXX  1      ca++    Ca  1.500
CA11     4.157936573    3.517407179   11.142458916 XXX  1      ca++    Ca  1.500
CA12     8.181002617    3.517402887    8.370750427 XXX  1      ca++    Ca  1.500
SI4      8.130389214    0.000000891    8.453553200 XXX  1      sc1     Si  1.000
SI5      8.130455971    0.000001672   13.950095177 XXX  1      sc1     Si  1.000
SI6      4.068854809    0.000000056   11.379149437 XXX  1      sc1     Si  1.000
O13     10.161211967    3.517407656   13.020724297 XXX  1      oc1     O  -1.000
O14      6.099632740    3.517406464   12.581765175 XXX  1      oc2     O  -1.500
O15      7.379615784    1.300402403   14.473360062 XXX  1      oc1     O  -1.000
O16      9.631967545    0.000004876   14.473605156 XXX  1      oc1     O  -1.000
O17      8.130232811   -0.000001378   10.025897980 XXX  1      oc1     O  -1.000
O18      8.130629539    0.000004626   12.368300438 XXX  1      oc1     O  -1.000
O19      6.099707127    3.517404556   15.607714653 XXX  1      oc2     O  -1.500
O20      0.007315393   -0.000003375    9.456574440 XXX  1      oc2     O  -1.500
O21      4.819079876   -1.299177170   16.371040344 XXX  1      oc1     O  -1.000
O22      8.650176048    3.517409563   10.822959900 XXX  1      oc1     O  -1.000
O23      8.661108017    3.517399073   16.370822906 XXX  1      oc1     O  -1.000
O24     10.916671753    4.825956345   10.822908401 XXX  1      oc1     O  -1.000
CA13     3.009048700    1.835847735   19.567510605 XXX  1      ca++    Ca  1.500
CA14     1.103546619    5.136186123   22.562047958 XXX  1      ca++    Ca  1.500
CA15     7.089862823    1.802490234   16.795570374 XXX  1      ca++    Ca  1.500
CA16     3.907415628    3.517402649   22.561946869 XXX  1      ca++    Ca  1.500
CA17     0.096495144    3.517407179   19.567396164 XXX  1      ca++    Ca  1.500
CA18     4.119561195    3.517402887   16.795686722 XXX  1      ca++    Ca  1.500
SI7      4.068947792    0.000000891   16.878490448 XXX  1      sc1     Si  1.000
SI8      4.069013596    0.000001672   22.375032425 XXX  1      sc1     Si  1.000
SI9      0.007413379    0.000000056   19.804086685 XXX  1      sc1     Si  1.000
O25      6.099769592    3.517407656   21.445661545 XXX  1      oc1     O  -1.000
O26      2.038191080    3.517406464   21.006702423 XXX  1      oc2     O  -1.500
O27      3.318174601    1.300402403   22.898296356 XXX  1      oc1     O  -1.000
O28      5.570526123    0.000004876   22.898542404 XXX  1      oc1     O  -1.000
O29      4.068790436   -0.000001378   18.450834274 XXX  1      oc1     O  -1.000
O30      4.069187164    0.000004626   20.793237686 XXX  1      oc1     O  -1.000
O31      2.038265467    3.517404556   24.032651901 XXX  1      oc2     O  -1.500
O32      8.130474091   -0.000003375   17.881511688 XXX  1      oc2     O  -1.500
O33      0.757638097   -1.299177170   -0.478821456 XXX  1      oc1     O  -1.000
O34      4.588734150    3.517409563   19.247896194 XXX  1      oc1     O  -1.000
O35      4.599666119    3.517399073   -0.479040802 XXX  1      oc1     O  -1.000
O36      6.855229855    4.825956345   19.247844696 XXX  1      oc1     O  -1.000
CA19    11.131932259    8.870647430    2.717637300 XXX  1      ca++    Ca  1.500
CA20     9.226429939   12.170986176    5.712174416 XXX  1      ca++    Ca  1.500
CA23     8.219378471   10.552206993    2.717522383 XXX  1      ca++    Ca  1.500
SI10     0.007230922    7.034801006    0.028616548 XXX  1      sc1     Si  1.000
SI11     0.007297071    7.034801483    5.525158882 XXX  1      sc1     Si  1.000
SI12     8.130296707    7.034800053    2.954212904 XXX  1      sc1     Si  1.000
O37      2.038053274   10.552207947    4.595787525 XXX  1      oc1     O  -1.000
O38     10.161074638   10.552206039    4.156828403 XXX  1      oc2     O  -1.500
O39     -0.743542314    8.335202217    6.048423767 XXX  1      oc1     O  -1.000
O40      1.508809447    7.034804821    6.048668861 XXX  1      oc1     O  -1.000
O41      0.007074024    7.034798622    1.600960851 XXX  1      oc1     O  -1.000
O42      0.007470640    7.034804821    3.943363667 XXX  1      oc1     O  -1.000
O43     10.161149025   10.552204132    7.182777882 XXX  1      oc2     O  -1.500
O44      4.068757057    7.034796715    1.031637669 XXX  1      oc2     O  -1.500
O45      8.880521774    5.735622883    7.946104527 XXX  1      oc1     O  -1.000
O46      0.527017832   10.552209854    2.398023129 XXX  1      oc1     O  -1.000
O47      0.537949443   10.552199364    7.945885658 XXX  1      oc1     O  -1.000
O48      2.793513298   11.860755920    2.397971869 XXX  1      oc1     O  -1.000
CA25     7.070489883    8.870647430   11.142574310 XXX  1      ca++    Ca  1.500
CA26     5.164988041   12.170986176   14.137110710 XXX  1      ca++    Ca  1.500
CA27    11.151305199    8.837289810    8.370634079 XXX  1      ca++    Ca  1.500
CA28     7.968856812   10.552202225   14.137010574 XXX  1      ca++    Ca  1.500
CA29     4.157936573   10.552206993   11.142458916 XXX  1      ca++    Ca  1.500
CA30     8.181002617   10.552203178    8.370750427 XXX  1      ca++    Ca  1.500
SI13     8.130389214    7.034801006    8.453553200 XXX  1      sc1     Si  1.000
SI14     8.130455971    7.034801483   13.950095177 XXX  1      sc1     Si  1.000
SI15     4.068854809    7.034800053   11.379149437 XXX  1      sc1     Si  1.000
O49     10.161211967   10.552207947   13.020724297 XXX  1      oc1     O  -1.000
O50      6.099632740   10.552206039   12.581765175 XXX  1      oc2     O  -1.500
O51      7.379615784    8.335202217   14.473360062 XXX  1      oc1     O  -1.000
O52      9.631967545    7.034804821   14.473605156 XXX  1      oc1     O  -1.000
O53      8.130232811    7.034798622   10.025897980 XXX  1      oc1     O  -1.000
O54      8.130629539    7.034804821   12.368300438 XXX  1      oc1     O  -1.000
O55      6.099707127   10.552204132   15.607714653 XXX  1      oc2     O  -1.500
O56      0.007315393    7.034796715    9.456574440 XXX  1      oc2     O  -1.500
O57      4.819079876    5.735622883   16.371040344 XXX  1      oc1     O  -1.000
O58      8.650176048   10.552209854   10.822959900 XXX  1      oc1     O  -1.000
O59      8.661108017   10.552199364   16.370822906 XXX  1      oc1     O  -1.000
O60     10.916671753   11.860755920   10.822908401 XXX  1      oc1     O  -1.000
CA31     3.009048700    8.870647430   19.567510605 XXX  1      ca++    Ca  1.500
CA32     1.103546619   12.170986176   22.562047958 XXX  1      ca++    Ca  1.500
CA33     7.089862823    8.837289810   16.795570374 XXX  1      ca++    Ca  1.500
CA34     3.907415628   10.552202225   22.561946869 XXX  1      ca++    Ca  1.500
CA35     0.096495144   10.552206993   19.567396164 XXX  1      ca++    Ca  1.500
CA36     4.119561195   10.552203178   16.795686722 XXX  1      ca++    Ca  1.500
SI16     4.068947792    7.034801006   16.878490448 XXX  1      sc1     Si  1.000
SI17     4.069013596    7.034801483   22.375032425 XXX  1      sc1     Si  1.000
SI18     0.007413379    7.034800053   19.804086685 XXX  1      sc1     Si  1.000
O61      6.099769592   10.552207947   21.445661545 XXX  1      oc1     O  -1.000
O62      2.038191080   10.552206039   21.006702423 XXX  1      oc2     O  -1.500
O63      3.318174601    8.335202217   22.898296356 XXX  1      oc1     O  -1.000
O64      5.570526123    7.034804821   22.898542404 XXX  1      oc1     O  -1.000
O65      4.068790436    7.034798622   18.450834274 XXX  1      oc1     O  -1.000
O66      4.069187164    7.034804821   20.793237686 XXX  1      oc1     O  -1.000
O67      2.038265467   10.552204132   24.032651901 XXX  1      oc2     O  -1.500
O68      8.130474091    7.034796715   17.881511688 XXX  1      oc2     O  -1.500
O69      0.757638097    5.735622883   -0.478821456 XXX  1      oc1     O  -1.000
O70      4.588734150   10.552209854   19.247896194 XXX  1      oc1     O  -1.000
O71      4.599666119   10.552199364   -0.479040802 XXX  1      oc1     O  -1.000
O72      6.855229855   11.860755920   19.247844696 XXX  1      oc1     O  -1.000
CA37    11.131932259   15.905447960    2.717637300 XXX  1      ca++    Ca  1.500
CA38     9.374132156   19.040004730    5.715772152 XXX  1      ca++    Ca  1.500
CA41     8.219378471   17.587007523    2.717522383 XXX  1      ca++    Ca  1.500
SI19     0.007230922   14.069601059    0.028616548 XXX  1      sc1     Si  1.000
SI20     0.007297071   14.069602013    5.525158882 XXX  1      sc1     Si  1.000
SI21     8.130296707   14.069600105    2.954212904 XXX  1      sc1     Si  1.000
O73      2.038053274   17.587007523    4.595787525 XXX  1      oc1     O  -1.000
O74     10.161074638   17.587005615    4.156828403 XXX  1      oc2     O  -1.500
O75     -0.743542314   15.370002747    6.048423767 XXX  1      oc1     O  -1.000
O76      1.508809447   14.069604874    6.048668861 XXX  1      oc1     O  -1.000
O77      0.007074024   14.069598198    1.600960851 XXX  1      oc1     O  -1.000
O78      0.007470640   14.069604874    3.943363667 XXX  1      oc1     O  -1.000
O79     10.161149025   17.587003708    7.182777882 XXX  1      oc2     O  -1.500
O80      4.068757057   14.069596291    1.031637669 XXX  1      oc2     O  -1.500
O81      8.880521774   12.770422935    7.946104527 XXX  1      oc1     O  -1.000
O82      0.527017832   17.587009430    2.398023129 XXX  1      oc1     O  -1.000
O83      0.537949443   17.586999893    7.945885658 XXX  1      oc1     O  -1.000
O84      2.793513298   18.895555496    2.397971869 XXX  1      oc1     O  -1.000
CA43     7.070489883   15.905447960   11.142574310 XXX  1      ca++    Ca  1.500
CA44     5.212193966   19.012876511   14.078972816 XXX  1      ca++    Ca  1.500
CA45    11.151305199   15.872090340    8.370634079 XXX  1      ca++    Ca  1.500
CA46     7.968856812   17.587001801   14.137010574 XXX  1      ca++    Ca  1.500
CA47     4.157936573   17.587007523   11.142458916 XXX  1      ca++    Ca  1.500
CA48     8.181002617   17.587003708    8.370750427 XXX  1      ca++    Ca  1.500
SI22     8.130389214   14.069601059    8.453553200 XXX  1      sc1     Si  1.000
SI23     8.130455971   14.069602013   13.950095177 XXX  1      sc1     Si  1.000
SI24     4.068854809   14.069600105   11.379149437 XXX  1      sc1     Si  1.000
O85     10.161211967   17.587007523   13.020724297 XXX  1      oc1     O  -1.000
O86      6.099632740   17.587005615   12.581765175 XXX  1      oc2     O  -1.500
O87      7.379615784   15.370002747   14.473360062 XXX  1      oc1     O  -1.000
O88      9.631967545   14.069604874   14.473605156 XXX  1      oc1     O  -1.000
O89      8.130232811   14.069598198   10.025897980 XXX  1      oc1     O  -1.000
O90      8.130629539   14.069604874   12.368300438 XXX  1      oc1     O  -1.000
O91      6.099707127   17.587003708   15.607714653 XXX  1      oc2     O  -1.500
O92      0.007315393   14.069596291    9.456574440 XXX  1      oc2     O  -1.500
O93      4.819079876   12.770422935   16.371040344 XXX  1      oc1     O  -1.000
O94      8.650176048   17.587009430   10.822959900 XXX  1      oc1     O  -1.000
O95      8.661108017   17.586999893   16.370822906 XXX  1      oc1     O  -1.000
O96     10.916671753   18.895555496   10.822908401 XXX  1      oc1     O  -1.000
CA49     3.009048700   15.905447960   19.567510605 XXX  1      ca++    Ca  1.500
CA51     7.089862823   15.872090340   16.795570374 XXX  1      ca++    Ca  1.500
CA52     3.907415628   17.587001801   22.561946869 XXX  1      ca++    Ca  1.500
CA53     0.096495144   17.587007523   19.567396164 XXX  1      ca++    Ca  1.500
CA54     4.119561195   17.587003708   16.795686722 XXX  1      ca++    Ca  1.500
SI25     4.068947792   14.069601059   16.878490448 XXX  1      sc1     Si  1.000
SI26     4.069013596   14.069602013   22.375032425 XXX  1      sc1     Si  1.000
SI27     0.007413379   14.069600105   19.804086685 XXX  1      sc1     Si  1.000
O97      6.099769592   17.587007523   21.445661545 XXX  1      oc1     O  -1.000
O98      2.038191080   17.587005615   21.006702423 XXX  1      oc2     O  -1.500
O99      3.318174601   15.370002747   22.898296356 XXX  1      oc1     O  -1.000
O100     5.570526123   14.069604874   22.898542404 XXX  1      oc1     O  -1.000
O101     4.068790436   14.069598198   18.450834274 XXX  1      oc1     O  -1.000
O102     4.069187164   14.069604874   20.793237686 XXX  1      oc1     O  -1.000
O103     2.038265467   17.587003708   24.032651901 XXX  1      oc2     O  -1.500
O104     8.130474091   14.069596291   17.881511688 XXX  1      oc2     O  -1.500
O105     0.757638097   12.770422935   -0.478821456 XXX  1      oc1     O  -1.000
O106     4.588734150   17.587009430   19.247896194 XXX  1      oc1     O  -1.000
O107     4.599666119   17.586999893   -0.479040802 XXX  1      oc1     O  -1.000
O108     6.855229855   18.895555496   19.247844696 XXX  1      oc1     O  -1.000
CA1     11.131933212    5.198971272    2.717641354 XXX  2      ca++    Ca  1.500
CA2      9.226428032    1.898623943    5.712171555 XXX  2      ca++    Ca  1.500
O1      -0.743535101   -1.300394535    6.048421860 XXX  2      oc1     O  -1.000
O2       8.880527496    1.299185634    7.946108818 XXX  2      oc1     O  -1.000
O3       2.793507099    2.208848000    2.397974491 XXX  2      oc1     O  -1.000
CA4      5.039609909    5.353242874    2.717640877 XXX  2      ca++    Ca  1.500
CA5      3.134153605    1.618782163    5.712173939 XXX  2      ca++    Ca  1.500
CA7      5.937973022    0.000000840    5.712074280 XXX  2      ca++    Ca  1.500
CA8      2.127101898   -0.000001915    2.717522860 XXX  2      ca++    Ca  1.500
SI1      6.099507332    3.517403364    0.028616356 XXX  2      sc1     Si  1.000
SI2      6.099573612    3.517404079    5.525158882 XXX  2      sc1     Si  1.000
SI3      2.038022041    3.517405033    2.954212666 XXX  2      sc1     Si  1.000
O4       8.130327225   -0.000001574    4.595788002 XXX  2      oc1     O  -1.000
O5       4.068749428   -0.000001990    4.156828403 XXX  2      oc2     O  -1.500
O6       5.348737717    4.817808628    6.048421860 XXX  2      oc1     O  -1.000
O7       7.601085663    3.517402172    6.048669338 XXX  2      oc1     O  -1.000
O8       6.099350452    3.517402172    1.600960732 XXX  2      oc1     O  -1.000
O9       6.099747181    3.517402649    3.943363667 XXX  2      oc1     O  -1.000
O10      4.068823338    0.000001124    7.182777882 XXX  2      oc2     O  -1.500
O11     10.161033630    3.517408133    1.031637788 XXX  2      oc2     O  -1.500
O12      2.788203001    2.218219757    7.946106911 XXX  2      oc1     O  -1.000
O13      6.619292259   -0.000002229    2.398023367 XXX  2      oc1     O  -1.000
O14      6.630223751    0.000008116    7.945886135 XXX  2      oc1     O  -1.000
O15      8.885784149    1.308555365    2.397974253 XXX  2      oc1     O  -1.000
CA10     5.039606094    1.681557536    2.717638016 XXX  2      ca++    Ca  1.500
CA11     3.134153128    5.416029453    5.712172031 XXX  2      ca++    Ca  1.500
O16      5.348735332    2.217002392    6.048423290 XXX  2      oc1     O  -1.000
O17      2.788197756    4.816592216    7.946106434 XXX  2      oc1     O  -1.000
O18      8.885787010   -1.308543682    2.397972584 XXX  2      oc1     O  -1.000
CA13     7.070491314    5.198971272   11.142578125 XXX  2      ca++    Ca  1.500
CA14     5.164986134    1.898623943   14.137107849 XXX  2      ca++    Ca  1.500
CA15    11.151306152    5.232314587    8.370634079 XXX  2      ca++    Ca  1.500
O19      7.379622936   -1.300394535   14.473358154 XXX  2      oc1     O  -1.000
O20      4.819086075    1.299185634   16.371046066 XXX  2      oc1     O  -1.000
O21     10.916665077    2.208848000   10.822911263 XXX  2      oc1     O  -1.000
CA16     0.978168249    5.353242874   11.142577171 XXX  2      ca++    Ca  1.500
CA17    11.257311821    1.618782163   14.137110710 XXX  2      ca++    Ca  1.500
CA18     5.058982372    5.319900990    8.370634079 XXX  2      ca++    Ca  1.500
CA19     1.876531363    0.000000840   14.137010574 XXX  2      ca++    Ca  1.500
CA20    10.250260353   -0.000001915   11.142459869 XXX  2      ca++    Ca  1.500
CA21     2.088677168   -0.000002081    8.370750427 XXX  2      ca++    Ca  1.500
SI4      2.038065672    3.517403364    8.453553200 XXX  2      sc1     Si  1.000
SI5      2.038131952    3.517404079   13.950095177 XXX  2      sc1     Si  1.000
SI6     10.161180496    3.517405033   11.379149437 XXX  2      sc1     Si  1.000
O22      4.068885326   -0.000001574   13.020724297 XXX  2      oc1     O  -1.000
O23      0.007307764   -0.000001990   12.581765175 XXX  2      oc2     O  -1.500
O24      1.287296057    4.817808628   14.473358154 XXX  2      oc1     O  -1.000
O25      3.539644003    3.517402172   14.473606110 XXX  2      oc1     O  -1.000
O26      2.037908792    3.517402172   10.025897026 XXX  2      oc1     O  -1.000
O27      2.038305521    3.517402649   12.368300438 XXX  2      oc1     O  -1.000
O28      0.007381674    0.000001124   15.607714653 XXX  2      oc2     O  -1.500
O29      6.099591732    3.517408133    9.456574440 XXX  2      oc2     O  -1.500
O30     10.911361694    2.218219757   16.371044159 XXX  2      oc1     O  -1.000
O31      2.557850599   -0.000002229   10.822959900 XXX  2      oc1     O  -1.000
O32      2.568782091    0.000008116   16.370822906 XXX  2      oc1     O  -1.000
O33      4.824342251    1.308555365   10.822911263 XXX  2      oc1     O  -1.000
CA22     0.978164434    1.681557536   11.142574310 XXX  2      ca++    Ca  1.500
CA23    11.257311821    5.416029453   14.137108803 XXX  2      ca++    Ca  1.500
CA24     5.058979511    1.714915872    8.370634079 XXX  2      ca++    Ca  1.500
O34      1.287293673    2.217002392   14.473360062 XXX  2      oc1     O  -1.000
O35     10.911355972    4.816592216   16.371042252 XXX  2      oc1     O  -1.000
O36      4.824345112   -1.308543682   10.822909355 XXX  2      oc1     O  -1.000
CA25     3.009049654    5.198971272   19.567514420 XXX  2      ca++    Ca  1.500
CA26     1.103544712    1.898623943   22.562044144 XXX  2      ca++    Ca  1.500
CA27     7.089863777    5.232314587   16.795570374 XXX  2      ca++    Ca  1.500
O37      3.318181276   -1.300394535   22.898294449 XXX  2      oc1     O  -1.000
O38      0.757644773    1.299185634   -0.478817642 XXX  2      oc1     O  -1.000
O39      6.855223656    2.208848000   19.247848511 XXX  2      oc1     O  -1.000
CA28     9.101326942    5.353242874   19.567514420 XXX  2      ca++    Ca  1.500
CA29     7.195869923    1.618782163   22.562047958 XXX  2      ca++    Ca  1.500
CA30     0.997540951    5.319900990   16.795570374 XXX  2      ca++    Ca  1.500
CA31     9.999690056    0.000000840   22.561946869 XXX  2      ca++    Ca  1.500
CA32     6.188818455   -0.000001915   19.567396164 XXX  2      ca++    Ca  1.500
CA33    10.211835861   -0.000002081   16.795686722 XXX  2      ca++    Ca  1.500
SI7     10.161224365    3.517403364   16.878490448 XXX  2      sc1     Si  1.000
SI8     10.161290169    3.517404079   22.375032425 XXX  2      sc1     Si  1.000
SI9      6.099738598    3.517405033   19.804086685 XXX  2      sc1     Si  1.000
O40      0.007443897   -0.000001574   21.445661545 XXX  2      oc1     O  -1.000
O41      8.130466461   -0.000001990   21.006702423 XXX  2      oc2     O  -1.500
O42      9.410454750    4.817808628   22.898294449 XXX  2      oc1     O  -1.000
O43     11.662802696    3.517402172   22.898542404 XXX  2      oc1     O  -1.000
O44     10.161067009    3.517402172   18.450834274 XXX  2      oc1     O  -1.000
O45     10.161463737    3.517402649   20.793237686 XXX  2      oc1     O  -1.000
O46      8.130539894    0.000001124   24.032651901 XXX  2      oc2     O  -1.500
O47      2.038150311    3.517408133   17.881511688 XXX  2      oc2     O  -1.500
O48      6.849919319    2.218219757   -0.478819549 XXX  2      oc1     O  -1.000
O49     -1.503591061   -0.000002229   19.247896194 XXX  2      oc1     O  -1.000
O50     -1.492659569    0.000008116   -0.479040802 XXX  2      oc1     O  -1.000
O51      0.762900829    1.308555365   19.247848511 XXX  2      oc1     O  -1.000
CA34     9.101323128    1.681557536   19.567510605 XXX  2      ca++    Ca  1.500
CA35     7.195869446    5.416029453   22.562046051 XXX  2      ca++    Ca  1.500
CA36     0.997538090    1.714915872   16.795570374 XXX  2      ca++    Ca  1.500
O52      9.410451889    2.217002392   22.898296356 XXX  2      oc1     O  -1.000
O53      6.849914074    4.816592216   -0.478819549 XXX  2      oc1     O  -1.000
O54      0.762903690   -1.308543682   19.247846603 XXX  2      oc1     O  -1.000
CA37    11.131933212   12.233771324    2.717641354 XXX  2      ca++    Ca  1.500
CA38     9.226428032    8.933423996    5.712171555 XXX  2      ca++    Ca  1.500
O55     -0.743535101    5.734405518    6.048421860 XXX  2      oc1     O  -1.000
O56      8.880527496    8.333985329    7.946108818 XXX  2      oc1     O  -1.000
O57      2.793507099    9.243647575    2.397974491 XXX  2      oc1     O  -1.000
CA40     5.039609909   12.388042450    2.717640877 XXX  2      ca++    Ca  1.500
CA41     3.134153605    8.653582573    5.712173939 XXX  2      ca++    Ca  1.500
CA43     5.937973022    7.034801006    5.712074280 XXX  2      ca++    Ca  1.500
CA44     2.127101898    7.034798145    2.717522860 XXX  2      ca++    Ca  1.500
SI10     6.099507332   10.552203178    0.028616356 XXX  2      sc1     Si  1.000
SI11     6.099573612   10.552204132    5.525158882 XXX  2      sc1     Si  1.000
SI12     2.038022041   10.552205086    2.954212666 XXX  2      sc1     Si  1.000
O58      8.130327225    7.034798622    4.595788002 XXX  2      oc1     O  -1.000
O59      4.068749428    7.034798145    4.156828403 XXX  2      oc2     O  -1.500
O60      5.348737717   11.852608681    6.048421860 XXX  2      oc1     O  -1.000
O61      7.601085663   10.552202225    6.048669338 XXX  2      oc1     O  -1.000
O62      6.099350452   10.552202225    1.600960732 XXX  2      oc1     O  -1.000
O63      6.099747181   10.552202225    3.943363667 XXX  2      oc1     O  -1.000
O64      4.068823338    7.034801006    7.182777882 XXX  2      oc2     O  -1.500
O65     10.161033630   10.552207947    1.031637788 XXX  2      oc2     O  -1.500
O66      2.788203001    9.253019333    7.946106911 XXX  2      oc1     O  -1.000
O67      6.619292259    7.034797668    2.398023367 XXX  2      oc1     O  -1.000
O68      6.630223751    7.034808159    7.945886135 XXX  2      oc1     O  -1.000
O69      8.885784149    8.343355179    2.397974253 XXX  2      oc1     O  -1.000
CA46     5.039606094    8.716357231    2.717638016 XXX  2      ca++    Ca  1.500
CA47     3.134153128   12.450829506    5.712172031 XXX  2      ca++    Ca  1.500
O70      5.348735332    9.251802444    6.048423290 XXX  2      oc1     O  -1.000
O71      2.788197756   11.851391792    7.946106434 XXX  2      oc1     O  -1.000
O72      8.885787010    5.726256371    2.397972584 XXX  2      oc1     O  -1.000
CA49     7.070491314   12.233771324   11.142578125 XXX  2      ca++    Ca  1.500
CA50     5.164986134    8.933423996   14.137107849 XXX  2      ca++    Ca  1.500
CA51    11.151306152   12.267114639    8.370634079 XXX  2      ca++    Ca  1.500
O73      7.379622936    5.734405518   14.473358154 XXX  2      oc1     O  -1.000
O74      4.819086075    8.333985329   16.371046066 XXX  2      oc1     O  -1.000
O75     10.916665077    9.243647575   10.822911263 XXX  2      oc1     O  -1.000
CA52     0.978168249   12.388042450   11.142577171 XXX  2      ca++    Ca  1.500
CA53    11.257311821    8.653582573   14.137110710 XXX  2      ca++    Ca  1.500
CA54     5.058982372   12.354701042    8.370634079 XXX  2      ca++    Ca  1.500
CA55     1.876531363    7.034801006   14.137010574 XXX  2      ca++    Ca  1.500
CA56    10.250260353    7.034798145   11.142459869 XXX  2      ca++    Ca  1.500
CA57     2.088677168    7.034798145    8.370750427 XXX  2      ca++    Ca  1.500
SI13     2.038065672   10.552203178    8.453553200 XXX  2      sc1     Si  1.000
SI14     2.038131952   10.552204132   13.950095177 XXX  2      sc1     Si  1.000
SI15    10.161180496   10.552205086   11.379149437 XXX  2      sc1     Si  1.000
O76      4.068885326    7.034798622   13.020724297 XXX  2      oc1     O  -1.000
O77      0.007307764    7.034798145   12.581765175 XXX  2      oc2     O  -1.500
O78      1.287296057   11.852608681   14.473358154 XXX  2      oc1     O  -1.000
O79      3.539644003   10.552202225   14.473606110 XXX  2      oc1     O  -1.000
O80      2.037908792   10.552202225   10.025897026 XXX  2      oc1     O  -1.000
O81      2.038305521   10.552202225   12.368300438 XXX  2      oc1     O  -1.000
O82      0.007381674    7.034801006   15.607714653 XXX  2      oc2     O  -1.500
O83      6.099591732   10.552207947    9.456574440 XXX  2      oc2     O  -1.500
O84     10.911361694    9.253019333   16.371044159 XXX  2      oc1     O  -1.000
O85      2.557850599    7.034797668   10.822959900 XXX  2      oc1     O  -1.000
O86      2.568782091    7.034808159   16.370822906 XXX  2      oc1     O  -1.000
O87      4.824342251    8.343355179   10.822911263 XXX  2      oc1     O  -1.000
CA58     0.978164434    8.716357231   11.142574310 XXX  2      ca++    Ca  1.500
CA59    11.257311821   12.450829506   14.137108803 XXX  2      ca++    Ca  1.500
CA60     5.058979511    8.749715805    8.370634079 XXX  2      ca++    Ca  1.500
O88      1.287293673    9.251802444   14.473360062 XXX  2      oc1     O  -1.000
O89     10.911355972   11.851391792   16.371042252 XXX  2      oc1     O  -1.000
O90      4.824345112    5.726256371   10.822909355 XXX  2      oc1     O  -1.000
CA61     3.009049654   12.233771324   19.567514420 XXX  2      ca++    Ca  1.500
CA62     1.103544712    8.933423996   22.562044144 XXX  2      ca++    Ca  1.500
CA63     7.089863777   12.267114639   16.795570374 XXX  2      ca++    Ca  1.500
O91      3.318181276    5.734405518   22.898294449 XXX  2      oc1     O  -1.000
O92      0.757644773    8.333985329   -0.478817642 XXX  2      oc1     O  -1.000
O93      6.855223656    9.243647575   19.247848511 XXX  2      oc1     O  -1.000
CA64     9.101326942   12.388042450   19.567514420 XXX  2      ca++    Ca  1.500
CA65     7.195869923    8.653582573   22.562047958 XXX  2      ca++    Ca  1.500
CA66     0.997540951   12.354701042   16.795570374 XXX  2      ca++    Ca  1.500
CA67     9.999690056    7.034801006   22.561946869 XXX  2      ca++    Ca  1.500
CA68     6.188818455    7.034798145   19.567396164 XXX  2      ca++    Ca  1.500
CA69    10.211835861    7.034798145   16.795686722 XXX  2      ca++    Ca  1.500
SI16    10.161224365   10.552203178   16.878490448 XXX  2      sc1     Si  1.000
SI17    10.161290169   10.552204132   22.375032425 XXX  2      sc1     Si  1.000
SI18     6.099738598   10.552205086   19.804086685 XXX  2      sc1     Si  1.000
O94      0.007443897    7.034798622   21.445661545 XXX  2      oc1     O  -1.000
O95      8.130466461    7.034798145   21.006702423 XXX  2      oc2     O  -1.500
O96      9.410454750   11.852608681   22.898294449 XXX  2      oc1     O  -1.000
O97     11.662802696   10.552202225   22.898542404 XXX  2      oc1     O  -1.000
O98     10.161067009   10.552202225   18.450834274 XXX  2      oc1     O  -1.000
O99     10.161463737   10.552202225   20.793237686 XXX  2      oc1     O  -1.000
O100     8.130539894    7.034801006   24.032651901 XXX  2      oc2     O  -1.500
O101     2.038150311   10.552207947   17.881511688 XXX  2      oc2     O  -1.500
O102     6.849919319    9.253019333   -0.478819549 XXX  2      oc1     O  -1.000
O103    -1.503591061    7.034797668   19.247896194 XXX  2      oc1     O  -1.000
O104    -1.492659569    7.034808159   -0.479040802 XXX  2      oc1     O  -1.000
O105     0.762900829    8.343355179   19.247848511 XXX  2      oc1     O  -1.000
CA70     9.101323128    8.716357231   19.567510605 XXX  2      ca++    Ca  1.500
CA71     7.195869446   12.450829506   22.562046051 XXX  2      ca++    Ca  1.500
CA72     0.997538090    8.749715805   16.795570374 XXX  2      ca++    Ca  1.500
O106     9.410451889    9.251802444   22.898296356 XXX  2      oc1     O  -1.000
O107     6.849914074   11.851391792   -0.478819549 XXX  2      oc1     O  -1.000
O108     0.762903690    5.726256371   19.247846603 XXX  2      oc1     O  -1.000
CA74     9.226428032   15.968223572    5.712171555 XXX  2      ca++    Ca  1.500
O109    -0.743535101   12.769205093    6.048421860 XXX  2      oc1     O  -1.000
O110     8.880527496   15.368785858    7.946108818 XXX  2      oc1     O  -1.000
O111     2.793507099   16.278448105    2.397974491 XXX  2      oc1     O  -1.000
CA76     4.813508034   19.021963120    2.870678902 XXX  2      ca++    Ca  1.500
CA77     3.134153605   15.688382149    5.712173939 XXX  2      ca++    Ca  1.500
CA79     5.937973022   14.069601059    5.712074280 XXX  2      ca++    Ca  1.500
CA80     2.127101898   14.069598198    2.717522860 XXX  2      ca++    Ca  1.500
SI19     6.099507332   17.587003708    0.028616356 XXX  2      sc1     Si  1.000
SI20     6.099573612   17.587003708    5.525158882 XXX  2      sc1     Si  1.000
SI21     2.038022041   17.587005615    2.954212666 XXX  2      sc1     Si  1.000
O112     8.130327225   14.069598198    4.595788002 XXX  2      oc1     O  -1.000
O113     4.068749428   14.069598198    4.156828403 XXX  2      oc2     O  -1.500
O114     5.348737717   18.887409210    6.048421860 XXX  2      oc1     O  -1.000
O115     7.601085663   17.587001801    6.048669338 XXX  2      oc1     O  -1.000
O116     6.099350452   17.587001801    1.600960732 XXX  2      oc1     O  -1.000
O117     6.099747181   17.587001801    3.943363667 XXX  2      oc1     O  -1.000
O118     4.068823338   14.069601059    7.182777882 XXX  2      oc2     O  -1.500
O119    10.161033630   17.587007523    1.031637788 XXX  2      oc2     O  -1.500
O120     2.788203001   16.287818909    7.946106911 XXX  2      oc1     O  -1.000
O121     6.619292259   14.069598198    2.398023367 XXX  2      oc1     O  -1.000
O122     6.630223751   14.069607735    7.945886135 XXX  2      oc1     O  -1.000
O123     8.885784149   15.378155708    2.397974253 XXX  2      oc1     O  -1.000
CA82     5.039606094   15.751157761    2.717638016 XXX  2      ca++    Ca  1.500
O124     5.348735332   16.286602020    6.048423290 XXX  2      oc1     O  -1.000
O125     2.788197756   18.886192322    7.946106434 XXX  2      oc1     O  -1.000
O126     8.885787010   12.761055946    2.397972584 XXX  2      oc1     O  -1.000
CA86     5.164986134   15.968223572   14.137107849 XXX  2      ca++    Ca  1.500
O127     7.379622936   12.769205093   14.473358154 XXX  2      oc1     O  -1.000
O128     4.819086075   15.368785858   16.371046066 XXX  2      oc1     O  -1.000
O129    10.916665077   16.278448105   10.822911263 XXX  2      oc1     O  -1.000
CA88     0.718928754   19.061040878   11.461928368 XXX  2      ca++    Ca  1.500
CA89    11.257311821   15.688382149   14.137110710 XXX  2      ca++    Ca  1.500
CA90     4.901077271   19.053134918    8.134349823 XXX  2      ca++    Ca  1.500
CA91     1.876531363   14.069601059   14.137010574 XXX  2      ca++    Ca  1.500
CA92    10.250260353   14.069598198   11.142459869 XXX  2      ca++    Ca  1.500
CA93     2.088677168   14.069598198    8.370750427 XXX  2      ca++    Ca  1.500
SI22     2.038065672   17.587003708    8.453553200 XXX  2      sc1     Si  1.000
SI23     2.038131952   17.587003708   13.950095177 XXX  2      sc1     Si  1.000
SI24    10.161180496   17.587005615   11.379149437 XXX  2      sc1     Si  1.000
O130     4.068885326   14.069598198   13.020724297 XXX  2      oc1     O  -1.000
O131     0.007307764   14.069598198   12.581765175 XXX  2      oc2     O  -1.500
O132     1.287296057   18.887409210   14.473358154 XXX  2      oc1     O  -1.000
O133     3.539644003   17.587001801   14.473606110 XXX  2      oc1     O  -1.000
O134     2.037908792   17.587001801   10.025897026 XXX  2      oc1     O  -1.000
O135     2.038305521   17.587001801   12.368300438 XXX  2      oc1     O  -1.000
O136     0.007381674   14.069601059   15.607714653 XXX  2      oc2     O  -1.500
O137     6.099591732   17.587007523    9.456574440 XXX  2      oc2     O  -1.500
O138    10.911361694   16.287818909   16.371044159 XXX  2      oc1     O  -1.000
O139     2.557850599   14.069598198   10.822959900 XXX  2      oc1     O  -1.000
O140     2.568782091   14.069607735   16.370822906 XXX  2      oc1     O  -1.000
O141     4.824342251   15.378155708   10.822911263 XXX  2      oc1     O  -1.000
CA94     0.978164434   15.751157761   11.142574310 XXX  2      ca++    Ca  1.500
CA96     5.058979511   15.784516335    8.370634079 XXX  2      ca++    Ca  1.500
O142     1.287293673   16.286602020   14.473360062 XXX  2      oc1     O  -1.000
O143    10.911355972   18.886192322   16.371042252 XXX  2      oc1     O  -1.000
O144     4.824345112   12.761055946   10.822909355 XXX  2      oc1     O  -1.000
CA97     2.815479755   18.996400833   19.438058853 XXX  2      ca++    Ca  1.500
CA98     1.103544712   15.968223572   22.562044144 XXX  2      ca++    Ca  1.500
CA99     8.816612244   19.382310867   18.550819397 XXX  2      ca++    Ca  1.500
O145     3.318181276   12.769205093   22.898294449 XXX  2      oc1     O  -1.000
O146     0.757644773   15.368785858   -0.478817642 XXX  2      oc1     O  -1.000
O147     6.855223656   16.278448105   19.247848511 XXX  2      oc1     O  -1.000
CA101    7.195869923   15.688382149   22.562047958 XXX  2      ca++    Ca  1.500
CA103    9.999690056   14.069601059   22.561946869 XXX  2      ca++    Ca  1.500
CA104    6.188818455   14.069598198   19.567396164 XXX  2      ca++    Ca  1.500
CA105   10.211835861   14.069598198   16.795686722 XXX  2      ca++    Ca  1.500
SI25    10.161224365   17.587003708   16.878490448 XXX  2      sc1     Si  1.000
SI26    10.161290169   17.587003708   22.375032425 XXX  2      sc1     Si  1.000
SI27     6.099738598   17.587005615   19.804086685 XXX  2      sc1     Si  1.000
O148     0.007443897   14.069598198   21.445661545 XXX  2      oc1     O  -1.000
O149     8.130466461   14.069598198   21.006702423 XXX  2      oc2     O  -1.500
O150     9.410454750   18.887409210   22.898294449 XXX  2      oc1     O  -1.000
O151    11.662802696   17.587001801   22.898542404 XXX  2      oc1     O  -1.000
O152    10.161067009   17.587001801   18.450834274 XXX  2      oc1     O  -1.000
O153    10.161463737   17.587001801   20.793237686 XXX  2      oc1     O  -1.000
O154     8.130539894   14.069601059   24.032651901 XXX  2      oc2     O  -1.500
O155     2.038150311   17.587007523   17.881511688 XXX  2      oc2     O  -1.500
O156     6.849919319   16.287818909   -0.478819549 XXX  2      oc1     O  -1.000
O157    -1.503591061   14.069598198   19.247896194 XXX  2      oc1     O  -1.000
O158    -1.492659569   14.069607735   -0.479040802 XXX  2      oc1     O  -1.000
O159     0.762900829   15.378155708   19.247848511 XXX  2      oc1     O  -1.000
CA106    9.101323128   15.751157761   19.567510605 XXX  2      ca++    Ca  1.500
CA107    7.232516766   19.092185974   22.536867142 XXX  2      ca++    Ca  1.500
CA108    0.997538090   15.784516335   16.795570374 XXX  2      ca++    Ca  1.500
O160     9.410451889   16.286602020   22.898296356 XXX  2      oc1     O  -1.000
O161     6.849914074   18.886192322   -0.478819549 XXX  2      oc1     O  -1.000
O162     0.762903690   12.761055946   19.247846603 XXX  2      oc1     O  -1.000
end
CA1     23.316532259    1.835847735    2.717637300 XXX  1      ca++    Ca  1.500
CA2     21.411029939    5.136186123    5.712174416 XXX  1      ca++    Ca  1.500
CA4     12.030298506    3.517402649    5.712074280 XXX  1      ca++    Ca  1.500
CA5     20.403978471    3.517407179    2.717522383 XXX  1      ca++    Ca  1.500
SI1     12.191830922    0.000000891    0.028616548 XXX  1      sc1     Si  1.000
SI2     12.191897071    0.000001672    5.525158882 XXX  1      sc1     Si  1.000
SI3     20.314896707    0.000000056    2.954212904 XXX  1      sc1     Si  1.000
O1      14.222653274    3.517407656    4.595787525 XXX  1      oc1     O  -1.000
O2      22.345674638    3.517406464    4.156828403 XXX  1      oc2     O  -1.500
O3      11.441057686    1.300402403    6.048423767 XXX  1      oc1     O  -1.000
O4      13.693409447    0.000004876    6.048668861 XXX  1      oc1     O  -1.000
O5      12.191674024   -0.000001378    1.600960851 XXX  1      oc1     O  -1.000
O6      12.192070640    0.000004626    3.943363667 XXX  1      oc1     O  -1.000
O7      22.345749025    3.517404556    7.182777882 XXX  1      oc2     O  -1.500
O8      16.253357057   -0.000003375    1.031637669 XXX  1      oc2     O  -1.500
O9      21.065121774   -1.299177170    7.946104527 XXX  1      oc1     O  -1.000
O10     12.711617832    3.517409563    2.398023129 XXX  1      oc1     O  -1.000
O11     12.722549443    3.517399073    7.945885658 XXX  1      oc1     O  -1.000
O12     14.978113298    4.825956345    2.397971869 XXX  1      oc1     O  -1.000
CA7     19.255089883    1.835847735   11.142574310 XXX  1      ca++    Ca  1.500
CA8     17.349588041    5.136186123   14.137110710 XXX  1      ca++    Ca  1.500
CA9     23.335905199    1.802490234    8.370634079 XXX  1      ca++    Ca  1.500
CA10    20.153456812    3.517402649   14.137010574 XXX  1      ca++    Ca  1.500
CA11    16.342536573    3.517407179   11.142458916 XXX  1      ca++    Ca  1.500
CA12    20.365602617    3.517402887    8.370750427 XXX  1      ca++    Ca  1.500
SI4     20.314989214    0.000000891    8.453553200 XXX  1      sc1     Si  1.000
SI5     20.315055971    0.000001672   13.950095177 XXX  1      sc1     Si  1.000
SI6     16.253454809    0.000000056   11.379149437 XXX  1      sc1     Si  1.000
O13     22.345811967    3.517407656   13.020724297 XXX  1      oc1     O  -1.000
O14     18.284232740    3.517406464   12.581765175 XXX  1      oc2     O  -1.500
O15     19.564215784    1.300402403   14.473360062 XXX  1      oc1     O  -1.000
O16     21.816567545    0.000004876   14.473605156 XXX  1      oc1     O  -1.000
O17     20.314832811   -0.000001378   10.025897980 XXX  1      oc1     O  -1.000
O18     20.315229539    0.000004626   12.368300438 XXX  1      oc1     O  -1.000
O19     18.284307127    3.517404556   15.607714653 XXX  1      oc2     O  -1.500
O20     12.191915393   -0.000003375    9.456574440 XXX  1      oc2     O  -1.500
O21     17.003679876   -1.299177170   16.371040344 XXX  1      oc1     O  -1.000
O22     20.834776048    3.517409563   10.822959900 XXX  1      oc1     O  -1.000
O23     20.845708017    3.517399073   16.370822906 XXX  1      oc1     O  -1.000
O24     23.101271753    4.825956345   10.822908401 XXX  1      oc1     O  -1.000
CA13    15.193648700    1.835847735   19.567510605 XXX  1      ca++    Ca  1.500
CA14    13.288146619    5.136186123   22.562047958 XXX  1      ca++    Ca  1.500
CA15    19.274462823    1.802490234   16.795570374 XXX  1      ca++    Ca  1.500
CA16    16.092015628    3.517402649   22.561946869 XXX  1      ca++    Ca  1.500
CA17    12.281095144    3.517407179   19.567396164 XXX  1      ca++    Ca  1.500
CA18    16.304161195    3.517402887   16.795686722 XXX  1      ca++    Ca  1.500
SI7     16.253547792    0.000000891   16.878490448 XXX  1      sc1     Si  1.000
SI8     16.253613596    0.000001672   22.375032425 XXX  1      sc1     Si  1.000
SI9     12.192013379    0.000000056   19.804086685 XXX  1      sc1     Si  1.000
O25     18.284369592    3.517407656   21.445661545 XXX  1      oc1     O  -1.000
O26     14.222791080    3.517406464   21.006702423 XXX  1      oc2     O  -1.500
O27     15.502774601    1.300402403   22.898296356 XXX  1      oc1     O  -1.000
O28     17.755126123    0.000004876   22.898542404 XXX  1      oc1     O  -1.000
O29     16.253390436   -0.000001378   18.450834274 XXX  1      oc1     O  -1.000
O30     16.253787164    0.000004626   20.793237686 XXX  1      oc1     O  -1.000
O31     14.222865467    3.517404556   24.032651901 XXX  1      oc2     O  -1.500
O32     20.315074091   -0.000003375   17.881511688 XXX  1      oc2     O  -1.500
O33     12.942238097   -1.299177170   -0.478821456 XXX  1      oc1     O  -1.000
O34     16.773334150    3.517409563   19.247896194 XXX  1      oc1     O  -1.000
O35     16.784266119    3.517399073   -0.479040802 XXX  1      oc1     O  -1.000
O36     19.039829855    4.825956345   19.247844696 XXX  1      oc1     O  -1.000
CA19    23.316532259    8.870647430    2.717637300 XXX  1      ca++    Ca  1.500
CA20    21.411029939   12.170986176    5.712174416 XXX  1      ca++    Ca  1.500
CA22    12.030298506   10.552202225    5.712074280 XXX  1      ca++    Ca  1.500
CA23    20.403978471   10.552206993    2.717522383 XXX  1      ca++    Ca  1.500
SI10    12.191830922    7.034801006    0.028616548 XXX  1      sc1     Si  1.000
SI11    12.191897071    7.034801483    5.525158882 XXX  1      sc1     Si  1.000
SI12    20.314896707    7.034800053    2.954212904 XXX  1      sc1     Si  1.000
O37     14.222653274   10.552207947    4.595787525 XXX  1      oc1     O  -1.000
O38     22.345674638   10.552206039    4.156828403 XXX  1      oc2     O  -1.500
O39     11.441057686    8.335202217    6.048423767 XXX  1      oc1     O  -1.000
O40     13.693409447    7.034804821    6.048668861 XXX  1      oc1     O  -1.000
O41     12.191674024    7.034798622    1.600960851 XXX  1      oc1     O  -1.000
O42     12.192070640    7.034804821    3.943363667 XXX  1      oc1     O  -1.000
O43     22.345749025   10.552204132    7.182777882 XXX  1      oc2     O  -1.500
O44     16.253357057    7.034796715    1.031637669 XXX  1      oc2     O  -1.500
O45     21.065121774    5.735622883    7.946104527 XXX  1      oc1     O  -1.000
O46     12.711617832   10.552209854    2.398023129 XXX  1      oc1     O  -1.000
O47     12.722549443   10.552199364    7.945885658 XXX  1      oc1     O  -1.000
O48     14.978113298   11.860755920    2.397971869 XXX  1      oc1     O  -1.000
CA25    19.255089883    8.870647430   11.142574310 XXX  1      ca++    Ca  1.500
CA26    17.349588041   12.170986176   14.137110710 XXX  1      ca++    Ca  1.500
CA27    23.335905199    8.837289810    8.370634079 XXX  1      ca++    Ca  1.500
CA28    20.153456812   10.552202225   14.137010574 XXX  1      ca++    Ca  1.500
CA29    16.342536573   10.552206993   11.142458916 XXX  1      ca++    Ca  1.500
CA30    20.365602617   10.552203178    8.370750427 XXX  1      ca++    Ca  1.500
SI13    20.314989214    7.034801006    8.453553200 XXX  1      sc1     Si  1.000
SI14    20.315055971    7.034801483   13.950095177 XXX  1      sc1     Si  1.000
SI15    16.253454809    7.034800053   11.379149437 XXX  1      sc1     Si  1.000
O49     22.345811967   10.552207947   13.020724297 XXX  1      oc1     O  -1.000
O50     18.284232740   10.552206039   12.581765175 XXX  1      oc2     O  -1.500
O51     19.564215784    8.335202217   14.473360062 XXX  1      oc1     O  -1.000
O52     21.816567545    7.034804821   14.473605156 XXX  1      oc1     O  -1.000
O53     20.314832811    7.034798622   10.025897980 XXX  1      oc1     O  -1.000
O54     20.315229539    7.034804821   12.368300438 XXX  1      oc1     O  -1.000
O55     18.284307127   10.552204132   15.607714653 XXX  1      oc2     O  -1.500
O56     12.191915393    7.034796715    9.456574440 XXX  1      oc2     O  -1.500
O57     17.003679876    5.735622883   16.371040344 XXX  1      oc1     O  -1.000
O58     20.834776048   10.552209854   10.822959900 XXX  1      oc1     O  -1.000
O59     20.845708017   10.552199364   16.370822906 XXX  1      oc1     O  -1.000
O60     23.101271753   11.860755920   10.822908401 XXX  1      oc1     O  -1.000
CA31    15.193648700    8.870647430   19.567510605 XXX  1      ca++    Ca  1.500
CA32    13.288146619   12.170986176   22.562047958 XXX  1      ca++    Ca  1.500
CA33    19.274462823    8.837289810   16.795570374 XXX  1      ca++    Ca  1.500
CA34    16.092015628   10.552202225   22.561946869 XXX  1      ca++    Ca  1.500
CA35    12.281095144   10.552206993   19.567396164 XXX  1      ca++    Ca  1.500
CA36    16.304161195   10.552203178   16.795686722 XXX  1      ca++    Ca  1.500
SI16    16.253547792    7.034801006   16.878490448 XXX  1      sc1     Si  1.000
SI17    16.253613596    7.034801483   22.375032425 XXX  1      sc1     Si  1.000
SI18    12.192013379    7.034800053   19.804086685 XXX  1      sc1     Si  1.000
O61     18.284369592   10.552207947   21.445661545 XXX  1      oc1     O  -1.000
O62     14.222791080   10.552206039   21.006702423 XXX  1      oc2     O  -1.500
O63     15.502774601    8.335202217   22.898296356 XXX  1      oc1     O  -1.000
O64     17.755126123    7.034804821   22.898542404 XXX  1      oc1     O  -1.000
O65     16.253390436    7.034798622   18.450834274 XXX  1      oc1     O  -1.000
O66     16.253787164    7.034804821   20.793237686 XXX  1      oc1     O  -1.000
O67     14.222865467   10.552204132   24.032651901 XXX  1      oc2     O  -1.500
O68     20.315074091    7.034796715   17.881511688 XXX  1      oc2     O  -1.500
O69     12.942238097    5.735622883   -0.478821456 XXX  1      oc1     O  -1.000
O70     16.773334150   10.552209854   19.247896194 XXX  1      oc1     O  -1.000
O71     16.784266119   10.552199364   -0.479040802 XXX  1      oc1     O  -1.000
O72     19.039829855   11.860755920   19.247844696 XXX  1      oc1     O  -1.000
CA37    23.316532259   15.905447960    2.717637300 XXX  1      ca++    Ca  1.500
CA38    21.558732156   19.040004730    5.715772152 XXX  1      ca++    Ca  1.500
CA40    12.030298506   17.587001801    5.712074280 XXX  1      ca++    Ca  1.500
CA41    20.403978471   17.587007523    2.717522383 XXX  1      ca++    Ca  1.500
SI19    12.191830922   14.069601059    0.028616548 XXX  1      sc1     Si  1.000
SI20    12.191897071   14.069602013    5.525158882 XXX  1      sc1     Si  1.000
SI21    20.314896707   14.069600105    2.954212904 XXX  1      sc1     Si  1.000
O73     14.222653274   17.587007523    4.595787525 XXX  1      oc1     O  -1.000
O74     22.345674638   17.587005615    4.156828403 XXX  1      oc2     O  -1.500
O75     11.441057686   15.370002747    6.048423767 XXX  1      oc1     O  -1.000
O76     13.693409447   14.069604874    6.048668861 XXX  1      oc1     O  -1.000
O77     12.191674024   14.069598198    1.600960851 XXX  1      oc1     O  -1.000
O78     12.192070640   14.069604874    3.943363667 XXX  1      oc1     O  -1.000
O79     22.345749025   17.587003708    7.182777882 XXX  1      oc2     O  -1.500
O80     16.253357057   14.069596291    1.031637669 XXX  1      oc2     O  -1.500
O81     21.065121774   12.770422935    7.946104527 XXX  1      oc1     O  -1.000
O82     12.711617832   17.587009430    2.398023129 XXX  1      oc1     O  -1.000
O83     12.722549443   17.586999893    7.945885658 XXX  1      oc1     O  -1.000
O84     14.978113298   18.895555496    2.397971869 XXX  1      oc1     O  -1.000
CA43    19.255089883   15.905447960   11.142574310 XXX  1      ca++    Ca  1.500
CA44    17.396793966   19.012876511   14.078972816 XXX  1      ca++    Ca  1.500
CA45    23.335905199   15.872090340    8.370634079 XXX  1      ca++    Ca  1.500
CA46    20.153456812   17.587001801   14.137010574 XXX  1      ca++    Ca  1.500
CA47    16.342536573   17.587007523   11.142458916 XXX  1      ca++    Ca  1.500
CA48    20.365602617   17.587003708    8.370750427 XXX  1      ca++    Ca  1.500
SI22    20.314989214   14.069601059    8.453553200 XXX  1      sc1     Si  1.000
SI23    20.315055971   14.069602013   13.950095177 XXX  1      sc1     Si  1.000
SI24    16.253454809   14.069600105   11.379149437 XXX  1      sc1     Si  1.000
O85     22.345811967   17.587007523   13.020724297 XXX  1      oc1     O  -1.000
O86     18.284232740   17.587005615   12.581765175 XXX  1      oc2     O  -1.500
O87     19.564215784   15.370002747   14.473360062 XXX  1      oc1     O  -1.000
O88     21.816567545   14.069604874   14.473605156 XXX  1      oc1     O  -1.000
O89     20.314832811   14.069598198   10.025897980 XXX  1      oc1     O  -1.000
O90     20.315229539   14.069604874   12.368300438 XXX  1      oc1     O  -1.000
O91     18.284307127   17.587003708   15.607714653 XXX  1      oc2     O  -1.500
O92     12.191915393   14.069596291    9.456574440 XXX  1      oc2     O  -1.500
O93     17.003679876   12.770422935   16.371040344 XXX  1      oc1     O  -1.000
O94     20.834776048   17.587009430   10.822959900 XXX  1      oc1     O  -1.000
O95     20.845708017   17.586999893   16.370822906 XXX  1      oc1     O  -1.000
O96     23.101271753   18.895555496   10.822908401 XXX  1      oc1     O  -1.000
CA49    15.193648700   15.905447960   19.567510605 XXX  1      ca++    Ca  1.500
CA51    19.274462823   15.872090340   16.795570374 XXX  1      ca++    Ca  1.500
CA52    16.092015628   17.587001801   22.561946869 XXX  1      ca++    Ca  1.500
CA53    12.281095144   17.587007523   19.567396164 XXX  1      ca++    Ca  1.500
CA54    16.304161195   17.587003708   16.795686722 XXX  1      ca++    Ca  1.500
SI25    16.253547792   14.069601059   16.878490448 XXX  1      sc1     Si  1.000
SI26    16.253613596   14.069602013   22.375032425 XXX  1      sc1     Si  1.000
SI27    12.192013379   14.069600105   19.804086685 XXX  1      sc1     Si  1.000
O97     18.284369592   17.587007523   21.445661545 XXX  1      oc1     O  -1.000
O98     14.222791080   17.587005615   21.006702423 XXX  1      oc2     O  -1.500
O99     15.502774601   15.370002747   22.898296356 XXX  1      oc1     O  -1.000
O100    17.755126123   14.069604874   22.898542404 XXX  1      oc1     O  -1.000
O101    16.253390436   14.069598198   18.450834274 XXX  1      oc1     O  -1.000
O102    16.253787164   14.069604874   20.793237686 XXX  1      oc1     O  -1.000
O103    14.222865467   17.587003708   24.032651901 XXX  1      oc2     O  -1.500
O104    20.315074091   14.069596291   17.881511688 XXX  1      oc2     O  -1.500
O105    12.942238097   12.770422935   -0.478821456 XXX  1      oc1     O  -1.000
O106    16.773334150   17.587009430   19.247896194 XXX  1      oc1     O  -1.000
O107    16.784266119   17.586999893   -0.479040802 XXX  1      oc1     O  -1.000
O108    19.039829855   18.895555496   19.247844696 XXX  1      oc1     O  -1.000
CA1     23.316533212    5.198971272    2.717641354 XXX  2      ca++    Ca  1.500
CA2     21.411028032    1.898623943    5.712171555 XXX  2      ca++    Ca  1.500
O1      11.441064899   -1.300394535    6.048421860 XXX  2      oc1     O  -1.000
O2      21.065127496    1.299185634    7.946108818 XXX  2      oc1     O  -1.000
O3      14.978107099    2.208848000    2.397974491 XXX  2      oc1     O  -1.000
CA4     17.224209909    5.353242874    2.717640877 XXX  2      ca++    Ca  1.500
CA5     15.318753605    1.618782163    5.712173939 XXX  2      ca++    Ca  1.500
CA7     18.122573022    0.000000840    5.712074280 XXX  2      ca++    Ca  1.500
CA8     14.311701898   -0.000001915    2.717522860 XXX  2      ca++    Ca  1.500
SI1     18.284107332    3.517403364    0.028616356 XXX  2      sc1     Si  1.000
SI2     18.284173612    3.517404079    5.525158882 XXX  2      sc1     Si  1.000
SI3     14.222622041    3.517405033    2.954212666 XXX  2      sc1     Si  1.000
O4      20.314927225   -0.000001574    4.595788002 XXX  2      oc1     O  -1.000
O5      16.253349428   -0.000001990    4.156828403 XXX  2      oc2     O  -1.500
O6      17.533337717    4.817808628    6.048421860 XXX  2      oc1     O  -1.000
O7      19.785685663    3.517402172    6.048669338 XXX  2      oc1     O  -1.000
O8      18.283950452    3.517402172    1.600960732 XXX  2      oc1     O  -1.000
O9      18.284347181    3.517402649    3.943363667 XXX  2      oc1     O  -1.000
O10     16.253423338    0.000001124    7.182777882 XXX  2      oc2     O  -1.500
O11     22.345633630    3.517408133    1.031637788 XXX  2      oc2     O  -1.500
O12     14.972803001    2.218219757    7.946106911 XXX  2      oc1     O  -1.000
O13     18.803892259   -0.000002229    2.398023367 XXX  2      oc1     O  -1.000
O14     18.814823751    0.000008116    7.945886135 XXX  2      oc1     O  -1.000
O15     21.070384149    1.308555365    2.397974253 XXX  2      oc1     O  -1.000
CA10    17.224206094    1.681557536    2.717638016 XXX  2      ca++    Ca  1.500
CA11    15.318753128    5.416029453    5.712172031 XXX  2      ca++    Ca  1.500
O16     17.533335332    2.217002392    6.048423290 XXX  2      oc1     O  -1.000
O17     14.972797756    4.816592216    7.946106434 XXX  2      oc1     O  -1.000
O18     21.070387010   -1.308543682    2.397972584 XXX  2      oc1     O  -1.000
CA13    19.255091314    5.198971272   11.142578125 XXX  2      ca++    Ca  1.500
CA14    17.349586134    1.898623943   14.137107849 XXX  2      ca++    Ca  1.500
CA15    23.335906152    5.232314587    8.370634079 XXX  2      ca++    Ca  1.500
O19     19.564222936   -1.300394535   14.473358154 XXX  2      oc1     O  -1.000
O20     17.003686075    1.299185634   16.371046066 XXX  2      oc1     O  -1.000
O21     23.101265077    2.208848000   10.822911263 XXX  2      oc1     O  -1.000
CA16    13.162768249    5.353242874   11.142577171 XXX  2      ca++    Ca  1.500
CA17    23.441911821    1.618782163   14.137110710 XXX  2      ca++    Ca  1.500
CA18    17.243582372    5.319900990    8.370634079 XXX  2      ca++    Ca  1.500
CA19    14.061131363    0.000000840   14.137010574 XXX  2      ca++    Ca  1.500
CA20    22.434860353   -0.000001915   11.142459869 XXX  2      ca++    Ca  1.500
CA21    14.273277168   -0.000002081    8.370750427 XXX  2      ca++    Ca  1.500
SI4     14.222665672    3.517403364    8.453553200 XXX  2      sc1     Si  1.000
SI5     14.222731952    3.517404079   13.950095177 XXX  2      sc1     Si  1.000
SI6     22.345780496    3.517405033   11.379149437 XXX  2      sc1     Si  1.000
O22     16.253485326   -0.000001574   13.020724297 XXX  2      oc1     O  -1.000
O23     12.191907764   -0.000001990   12.581765175 XXX  2      oc2     O  -1.500
O24     13.471896057    4.817808628   14.473358154 XXX  2      oc1     O  -1.000
O25     15.724244003    3.517402172   14.473606110 XXX  2      oc1     O  -1.000
O26     14.222508792    3.517402172   10.025897026 XXX  2      oc1     O  -1.000
O27     14.222905521    3.517402649   12.368300438 XXX  2      oc1     O  -1.000
O28     12.191981674    0.000001124   15.607714653 XXX  2      oc2     O  -1.500
O29     18.284191732    3.517408133    9.456574440 XXX  2      oc2     O  -1.500
O30     23.095961694    2.218219757   16.371044159 XXX  2      oc1     O  -1.000
O31     14.742450599   -0.000002229   10.822959900 XXX  2      oc1     O  -1.000
O32     14.753382091    0.000008116   16.370822906 XXX  2      oc1     O  -1.000
O33     17.008942251    1.308555365   10.822911263 XXX  2      oc1     O  -1.000
CA22    13.162764434    1.681557536   11.142574310 XXX  2      ca++    Ca  1.500
CA23    23.441911821    5.416029453   14.137108803 XXX  2      ca++    Ca  1.500
CA24    17.243579511    1.714915872    8.370634079 XXX  2      ca++    Ca  1.500
O34     13.471893673    2.217002392   14.473360062 XXX  2      oc1     O  -1.000
O35     23.095955972    4.816592216   16.371042252 XXX  2      oc1     O  -1.000
O36     17.008945112   -1.308543682   10.822909355 XXX  2      oc1     O  -1.000
CA25    15.193649654    5.198971272   19.567514420 XXX  2      ca++    Ca  1.500
CA26    13.288144712    1.898623943   22.562044144 XXX  2      ca++    Ca  1.500
CA27    19.274463777    5.232314587   16.795570374 XXX  2      ca++    Ca  1.500
O37     15.502781276   -1.300394535   22.898294449 XXX  2      oc1     O  -1.000
O38     12.942244773    1.299185634   -0.478817642 XXX  2      oc1     O  -1.000
O39     19.039823656    2.208848000   19.247848511 XXX  2      oc1     O  -1.000
CA28    21.285926942    5.353242874   19.567514420 XXX  2      ca++    Ca  1.500
CA29    19.380469923    1.618782163   22.562047958 XXX  2      ca++    Ca  1.500
CA30    13.182140951    5.319900990   16.795570374 XXX  2      ca++    Ca  1.500
CA31    22.184290056    0.000000840   22.561946869 XXX  2      ca++    Ca  1.500
CA32    18.373418455   -0.000001915   19.567396164 XXX  2      ca++    Ca  1.500
CA33    22.396435861   -0.000002081   16.795686722 XXX  2      ca++    Ca  1.500
SI7     22.345824365    3.517403364   16.878490448 XXX  2      sc1     Si  1.000
SI8     22.345890169    3.517404079   22.375032425 XXX  2      sc1     Si  1.000
SI9     18.284338598    3.517405033   19.804086685 XXX  2      sc1     Si  1.000
O40     12.192043897   -0.000001574   21.445661545 XXX  2      oc1     O  -1.000
O41     20.315066461   -0.000001990   21.006702423 XXX  2      oc2     O  -1.500
O42     21.595054750    4.817808628   22.898294449 XXX  2      oc1     O  -1.000
O43     23.847402696    3.517402172   22.898542404 XXX  2      oc1     O  -1.000
O44     22.345667009    3.517402172   18.450834274 XXX  2      oc1     O  -1.000
O45     22.346063737    3.517402649   20.793237686 XXX  2      oc1     O  -1.000
O46     20.315139894    0.000001124   24.032651901 XXX  2      oc2     O  -1.500
O47     14.222750311    3.517408133   17.881511688 XXX  2      oc2     O  -1.500
O48     19.034519319    2.218219757   -0.478819549 XXX  2      oc1     O  -1.000
O49     10.681008939   -0.000002229   19.247896194 XXX  2      oc1     O  -1.000
O50     10.691940431    0.000008116   -0.479040802 XXX  2      oc1     O  -1.000
O51     12.947500829    1.308555365   19.247848511 XXX  2      oc1     O  -1.000
CA34    21.285923128    1.681557536   19.567510605 XXX  2      ca++    Ca  1.500
CA35    19.380469446    5.416029453   22.562046051 XXX  2      ca++    Ca  1.500
CA36    13.182138090    1.714915872   16.795570374 XXX  2      ca++    Ca  1.500
O52     21.595051889    2.217002392   22.898296356 XXX  2      oc1     O  -1.000
O53     19.034514074    4.816592216   -0.478819549 XXX  2      oc1     O  -1.000
O54     12.947503690   -1.308543682   19.247846603 XXX  2      oc1     O  -1.000
CA37    23.316533212   12.233771324    2.717641354 XXX  2      ca++    Ca  1.500
CA38    21.411028032    8.933423996    5.712171555 XXX  2      ca++    Ca  1.500
O55     11.441064899    5.734405518    6.048421860 XXX  2      oc1     O  -1.000
O56     21.065127496    8.333985329    7.946108818 XXX  2      oc1     O  -1.000
O57     14.978107099    9.243647575    2.397974491 XXX  2      oc1     O  -1.000
CA40    17.224209909   12.388042450    2.717640877 XXX  2      ca++    Ca  1.500
CA41    15.318753605    8.653582573    5.712173939 XXX  2      ca++    Ca  1.500
CA43    18.122573022    7.034801006    5.712074280 XXX  2      ca++    Ca  1.500
CA44    14.311701898    7.034798145    2.717522860 XXX  2      ca++    Ca  1.500
SI10    18.284107332   10.552203178    0.028616356 XXX  2      sc1     Si  1.000
SI11    18.284173612   10.552204132    5.525158882 XXX  2      sc1     Si  1.000
SI12    14.222622041   10.552205086    2.954212666 XXX  2      sc1     Si  1.000
O58     20.314927225    7.034798622    4.595788002 XXX  2      oc1     O  -1.000
O59     16.253349428    7.034798145    4.156828403 XXX  2      oc2     O  -1.500
O60     17.533337717   11.852608681    6.048421860 XXX  2      oc1     O  -1.000
O61     19.785685663   10.552202225    6.048669338 XXX  2      oc1     O  -1.000
O62     18.283950452   10.552202225    1.600960732 XXX  2      oc1     O  -1.000
O63     18.284347181   10.552202225    3.943363667 XXX  2      oc1     O  -1.000
O64     16.253423338    7.034801006    7.182777882 XXX  2      oc2     O  -1.500
O65     22.345633630   10.552207947    1.031637788 XXX  2      oc2     O  -1.500
O66     14.972803001    9.253019333    7.946106911 XXX  2      oc1     O  -1.000
O67     18.803892259    7.034797668    2.398023367 XXX  2      oc1     O  -1.000
O68     18.814823751    7.034808159    7.945886135 XXX  2      oc1     O  -1.000
O69     21.070384149    8.343355179    2.397974253 XXX  2      oc1     O  -1.000
CA46    17.224206094    8.716357231    2.717638016 XXX  2      ca++    Ca  1.500
CA47    15.318753128   12.450829506    5.712172031 XXX  2      ca++    Ca  1.500
O70     17.533335332    9.251802444    6.048423290 XXX  2      oc1     O  -1.000
O71     14.972797756   11.851391792    7.946106434 XXX  2      oc1     O  -1.000
O72     21.070387010    5.726256371    2.397972584 XXX  2      oc1     O  -1.000
CA49    19.255091314   12.233771324   11.142578125 XXX  2      ca++    Ca  1.500
CA50    17.349586134    8.933423996   14.137107849 XXX  2      ca++    Ca  1.500
CA51    23.335906152   12.267114639    8.370634079 XXX  2      ca++    Ca  1.500
O73     19.564222936    5.734405518   14.473358154 XXX  2      oc1     O  -1.000
O74     17.003686075    8.333985329   16.371046066 XXX  2      oc1     O  -1.000
O75     23.101265077    9.243647575   10.822911263 XXX  2      oc1     O  -1.000
CA52    13.162768249   12.388042450   11.142577171 XXX  2      ca++    Ca  1.500
CA53    23.441911821    8.653582573   14.137110710 XXX  2      ca++    Ca  1.500
CA54    17.243582372   12.354701042    8.370634079 XXX  2      ca++    Ca  1.500
CA55    14.061131363    7.034801006   14.137010574 XXX  2      ca++    Ca  1.500
CA56    22.434860353    7.034798145   11.142459869 XXX  2      ca++    Ca  1.500
CA57    14.273277168    7.034798145    8.370750427 XXX  2      ca++    Ca  1.500
SI13    14.222665672   10.552203178    8.453553200 XXX  2      sc1     Si  1.000
SI14    14.222731952   10.552204132   13.950095177 XXX  2      sc1     Si  1.000
SI15    22.345780496   10.552205086   11.379149437 XXX  2      sc1     Si  1.000
O76     16.253485326    7.034798622   13.020724297 XXX  2      oc1     O  -1.000
O77     12.191907764    7.034798145   12.581765175 XXX  2      oc2     O  -1.500
O78     13.471896057   11.852608681   14.473358154 XXX  2      oc1     O  -1.000
O79     15.724244003   10.552202225   14.473606110 XXX  2      oc1     O  -1.000
O80     14.222508792   10.552202225   10.025897026 XXX  2      oc1     O  -1.000
O81     14.222905521   10.552202225   12.368300438 XXX  2      oc1     O  -1.000
O82     12.191981674    7.034801006   15.607714653 XXX  2      oc2     O  -1.500
O83     18.284191732   10.552207947    9.456574440 XXX  2      oc2     O  -1.500
O84     23.095961694    9.253019333   16.371044159 XXX  2      oc1     O  -1.000
O85     14.742450599    7.034797668   10.822959900 XXX  2      oc1     O  -1.000
O86     14.753382091    7.034808159   16.370822906 XXX  2      oc1     O  -1.000
O87     17.008942251    8.343355179   10.822911263 XXX  2      oc1     O  -1.000
CA58    13.162764434    8.716357231   11.142574310 XXX  2      ca++    Ca  1.500
CA59    23.441911821   12.450829506   14.137108803 XXX  2      ca++    Ca  1.500
CA60    17.243579511    8.749715805    8.370634079 XXX  2      ca++    Ca  1.500
O88     13.471893673    9.251802444   14.473360062 XXX  2      oc1     O  -1.000
O89     23.095955972   11.851391792   16.371042252 XXX  2      oc1     O  -1.000
O90     17.008945112    5.726256371   10.822909355 XXX  2      oc1     O  -1.000
CA61    15.193649654   12.233771324   19.567514420 XXX  2      ca++    Ca  1.500
CA62    13.288144712    8.933423996   22.562044144 XXX  2      ca++    Ca  1.500
CA63    19.274463777   12.267114639   16.795570374 XXX  2      ca++    Ca  1.500
O91     15.502781276    5.734405518   22.898294449 XXX  2      oc1     O  -1.000
O92     12.942244773    8.333985329   -0.478817642 XXX  2      oc1     O  -1.000
O93     19.039823656    9.243647575   19.247848511 XXX  2      oc1     O  -1.000
CA64    21.285926942   12.388042450   19.567514420 XXX  2      ca++    Ca  1.500
CA65    19.380469923    8.653582573   22.562047958 XXX  2      ca++    Ca  1.500
CA66    13.182140951   12.354701042   16.795570374 XXX  2      ca++    Ca  1.500
CA67    22.184290056    7.034801006   22.561946869 XXX  2      ca++    Ca  1.500
CA68    18.373418455    7.034798145   19.567396164 XXX  2      ca++    Ca  1.500
CA69    22.396435861    7.034798145   16.795686722 XXX  2      ca++    Ca  1.500
SI16    22.345824365   10.552203178   16.878490448 XXX  2      sc1     Si  1.000
SI17    22.345890169   10.552204132   22.375032425 XXX  2      sc1     Si  1.000
SI18    18.284338598   10.552205086   19.804086685 XXX  2      sc1     Si  1.000
O94     12.192043897    7.034798622   21.445661545 XXX  2      oc1     O  -1.000
O95     20.315066461    7.034798145   21.006702423 XXX  2      oc2     O  -1.500
O96     21.595054750   11.852608681   22.898294449 XXX  2      oc1     O  -1.000
O97     23.847402696   10.552202225   22.898542404 XXX  2      oc1     O  -1.000
O98     22.345667009   10.552202225   18.450834274 XXX  2      oc1     O  -1.000
O99     22.346063737   10.552202225   20.793237686 XXX  2      oc1     O  -1.000
O100    20.315139894    7.034801006   24.032651901 XXX  2      oc2     O  -1.500
O101    14.222750311   10.552207947   17.881511688 XXX  2      oc2     O  -1.500
O102    19.034519319    9.253019333   -0.478819549 XXX  2      oc1     O  -1.000
O103    10.681008939    7.034797668   19.247896194 XXX  2      oc1     O  -1.000
O104    10.691940431    7.034808159   -0.479040802 XXX  2      oc1     O  -1.000
O105    12.947500829    8.343355179   19.247848511 XXX  2      oc1     O  -1.000
CA70    21.285923128    8.716357231   19.567510605 XXX  2      ca++    Ca  1.500
CA71    19.380469446   12.450829506   22.562046051 XXX  2      ca++    Ca  1.500
CA72    13.182138090    8.749715805   16.795570374 XXX  2      ca++    Ca  1.500
O106    21.595051889    9.251802444   22.898296356 XXX  2      oc1     O  -1.000
O107    19.034514074   11.851391792   -0.478819549 XXX  2      oc1     O  -1.000
O108    12.947503690    5.726256371   19.247846603 XXX  2      oc1     O  -1.000
CA74    21.411028032   15.968223572    5.712171555 XXX  2      ca++    Ca  1.500
O109    11.441064899   12.769205093    6.048421860 XXX  2      oc1     O  -1.000
O110    21.065127496   15.368785858    7.946108818 XXX  2      oc1     O  -1.000
O111    14.978107099   16.278448105    2.397974491 XXX  2      oc1     O  -1.000
CA76    16.998108034   19.021963120    2.870678902 XXX  2      ca++    Ca  1.500
CA77    15.318753605   15.688382149    5.712173939 XXX  2      ca++    Ca  1.500
CA79    18.122573022   14.069601059    5.712074280 XXX  2      ca++    Ca  1.500
CA80    14.311701898   14.069598198    2.717522860 XXX  2      ca++    Ca  1.500
SI19    18.284107332   17.587003708    0.028616356 XXX  2      sc1     Si  1.000
SI20    18.284173612   17.587003708    5.525158882 XXX  2      sc1     Si  1.000
SI21    14.222622041   17.587005615    2.954212666 XXX  2      sc1     Si  1.000
O112    20.314927225   14.069598198    4.595788002 XXX  2      oc1     O  -1.000
O113    16.253349428   14.069598198    4.156828403 XXX  2      oc2     O  -1.500
O114    17.533337717   18.887409210    6.048421860 XXX  2      oc1     O  -1.000
O115    19.785685663   17.587001801    6.048669338 XXX  2      oc1     O  -1.000
O116    18.283950452   17.587001801    1.600960732 XXX  2      oc1     O  -1.000
O117    18.284347181   17.587001801    3.943363667 XXX  2      oc1     O  -1.000
O118    16.253423338   14.069601059    7.182777882 XXX  2      oc2     O  -1.500
O119    22.345633630   17.587007523    1.031637788 XXX  2      oc2     O  -1.500
O120    14.972803001   16.287818909    7.946106911 XXX  2      oc1     O  -1.000
O121    18.803892259   14.069598198    2.398023367 XXX  2      oc1     O  -1.000
O122    18.814823751   14.069607735    7.945886135 XXX  2      oc1     O  -1.000
O123    21.070384149   15.378155708    2.397974253 XXX  2      oc1     O  -1.000
CA82    17.224206094   15.751157761    2.717638016 XXX  2      ca++    Ca  1.500
O124    17.533335332   16.286602020    6.048423290 XXX  2      oc1     O  -1.000
O125    14.972797756   18.886192322    7.946106434 XXX  2      oc1     O  -1.000
O126    21.070387010   12.761055946    2.397972584 XXX  2      oc1     O  -1.000
CA86    17.349586134   15.968223572   14.137107849 XXX  2      ca++    Ca  1.500
O127    19.564222936   12.769205093   14.473358154 XXX  2      oc1     O  -1.000
O128    17.003686075   15.368785858   16.371046066 XXX  2      oc1     O  -1.000
O129    23.101265077   16.278448105   10.822911263 XXX  2      oc1     O  -1.000
CA88    12.903528754   19.061040878   11.461928368 XXX  2      ca++    Ca  1.500
CA89    23.441911821   15.688382149   14.137110710 XXX  2      ca++    Ca  1.500
CA90    17.085677271   19.053134918    8.134349823 XXX  2      ca++    Ca  1.500
CA91    14.061131363   14.069601059   14.137010574 XXX  2      ca++    Ca  1.500
CA92    22.434860353   14.069598198   11.142459869 XXX  2      ca++    Ca  1.500
CA93    14.273277168   14.069598198    8.370750427 XXX  2      ca++    Ca  1.500
SI22    14.222665672   17.587003708    8.453553200 XXX  2      sc1     Si  1.000
SI23    14.222731952   17.587003708   13.950095177 XXX  2      sc1     Si  1.000
SI24    22.345780496   17.587005615   11.379149437 XXX  2      sc1     Si  1.000
O130    16.253485326   14.069598198   13.020724297 XXX  2      oc1     O  -1.000
O131    12.191907764   14.069598198   12.581765175 XXX  2      oc2     O  -1.500
O132    13.471896057   18.887409210   14.473358154 XXX  2      oc1     O  -1.000
O133    15.724244003   17.587001801   14.473606110 XXX  2      oc1     O  -1.000
O134    14.222508792   17.587001801   10.025897026 XXX  2      oc1     O  -1.000
O135    14.222905521   17.587001801   12.368300438 XXX  2      oc1     O  -1.000
O136    12.191981674   14.069601059   15.607714653 XXX  2      oc2     O  -1.500
O137    18.284191732   17.587007523    9.456574440 XXX  2      oc2     O  -1.500
O138    23.095961694   16.287818909   16.371044159 XXX  2      oc1     O  -1.000
O139    14.742450599   14.069598198   10.822959900 XXX  2      oc1     O  -1.000
O140    14.753382091   14.069607735   16.370822906 XXX  2      oc1     O  -1.000
O141    17.008942251   15.378155708   10.822911263 XXX  2      oc1     O  -1.000
CA94    13.162764434   15.751157761   11.142574310 XXX  2      ca++    Ca  1.500
CA96    17.243579511   15.784516335    8.370634079 XXX  2      ca++    Ca  1.500
O142    13.471893673   16.286602020   14.473360062 XXX  2      oc1     O  -1.000
O143    23.095955972   18.886192322   16.371042252 XXX  2      oc1     O  -1.000
O144    17.008945112   12.761055946   10.822909355 XXX  2      oc1     O  -1.000
CA97    15.000079755   18.996400833   19.438058853 XXX  2      ca++    Ca  1.500
CA98    13.288144712   15.968223572   22.562044144 XXX  2      ca++    Ca  1.500
CA99    21.001212244   19.382310867   18.550819397 XXX  2      ca++    Ca  1.500
O145    15.502781276   12.769205093   22.898294449 XXX  2      oc1     O  -1.000
O146    12.942244773   15.368785858   -0.478817642 XXX  2      oc1     O  -1.000
O147    19.039823656   16.278448105   19.247848511 XXX  2      oc1     O  -1.000
CA101   19.380469923   15.688382149   22.562047958 XXX  2      ca++    Ca  1.500
CA103   22.184290056   14.069601059   22.561946869 XXX  2      ca++    Ca  1.500
CA104   18.373418455   14.069598198   19.567396164 XXX  2      ca++    Ca  1.500
CA105   22.396435861   14.069598198   16.795686722 XXX  2      ca++    Ca  1.500
SI25    22.345824365   17.587003708   16.878490448 XXX  2      sc1     Si  1.000
SI26    22.345890169   17.587003708   22.375032425 XXX  2      sc1     Si  1.000
SI27    18.284338598   17.587005615   19.804086685 XXX  2      sc1     Si  1.000
O148    12.192043897   14.069598198   21.445661545 XXX  2      oc1     O  -1.000
O149    20.315066461   14.069598198   21.006702423 XXX  2      oc2     O  -1.500
O150    21.595054750   18.887409210   22.898294449 XXX  2      oc1     O  -1.000
O151    23.847402696   17.587001801   22.898542404 XXX  2      oc1     O  -1.000
O152    22.345667009   17.587001801   18.450834274 XXX  2      oc1     O  -1.000
O153    22.346063737   17.587001801   20.793237686 XXX  2      oc1     O  -1.000
O154    20.315139894   14.069601059   24.032651901 XXX  2      oc2     O  -1.500
O155    14.222750311   17.587007523   17.881511688 XXX  2      oc2     O  -1.500
O156    19.034519319   16.287818909   -0.478819549 XXX  2      oc1     O  -1.000
O157    10.681008939   14.069598198   19.247896194 XXX  2      oc1     O  -1.000
O158    10.691940431   14.069607735   -0.479040802 XXX  2      oc1     O  -1.000
O159    12.947500829   15.378155708   19.247848511 XXX  2      oc1     O  -1.000
CA106   21.285923128   15.751157761   19.567510605 XXX  2      ca++    Ca  1.500
CA107   19.417116766   19.092185974   22.536867142 XXX  2      ca++    Ca  1.500
CA108   13.182138090   15.784516335   16.795570374 XXX  2      ca++    Ca  1.500
O160    21.595051889   16.286602020   22.898296356 XXX  2      oc1     O  -1.000
O161    19.034514074   18.886192322   -0.478819549 XXX  2      oc1     O  -1.000
O162    12.947503690   12.761055946   19.247846603 XXX  2      oc1     O  -1.000
end
CA3      3.028146505    1.802490234   25.220497006 XXX  1      ca++    Ca  1.500
CA6      0.057844408    3.517402887   25.220613887 XXX  1      ca++    Ca  1.500
CA21     3.028146505    8.837289810   25.220497006 XXX  1      ca++    Ca  1.500
CA24     0.057844408   10.552203178   25.220613887 XXX  1      ca++    Ca  1.500
CA39     3.028146505   15.872090340   25.220497006 XXX  1      ca++    Ca  1.500
CA42     0.057844408   17.587003708   25.220613887 XXX  1      ca++    Ca  1.500
CA3      3.028147459    5.232314587   25.220497024 XXX  2      ca++    Ca  1.500
CA6      9.120424271    5.319900990   25.220497039 XXX  2      ca++    Ca  1.500
CA9      6.150118828   -0.000002081   25.220614118 XXX  2      ca++    Ca  1.500
CA12     9.120421410    1.714915872   25.220497084 XXX  2      ca++    Ca  1.500
CA39     3.028147459   12.267114639   25.220497024 XXX  2      ca++    Ca  1.500
CA42     9.120424271   12.354701042   25.220497039 XXX  2      ca++    Ca  1.500
CA45     6.150118828    7.034798145   25.220614118 XXX  2      ca++    Ca  1.500
CA48     9.120421410    8.749715805   25.220497084 XXX  2      ca++    Ca  1.500
CA78     9.275061607   19.192743301   25.088582424 XXX  2      ca++    Ca  1.500
CA81     6.150118828   14.069598198   25.220614118 XXX  2      ca++    Ca  1.500
CA84     9.120421410   15.784516335   25.220497084 XXX  2      ca++    Ca  1.500
end
CA3     15.212746505    1.802490234   25.220497006 XXX  1      ca++    Ca  1.500
CA6     12.242444408    3.517402887   25.220613887 XXX  1      ca++    Ca  1.500
CA21    15.212746505    8.837289810   25.220497006 XXX  1      ca++    Ca  1.500
CA24    12.242444408   10.552203178   25.220613887 XXX  1      ca++    Ca  1.500
CA39    15.212746505   15.872090340   25.220497006 XXX  1      ca++    Ca  1.500
CA42    12.242444408   17.587003708   25.220613887 XXX  1      ca++    Ca  1.500
CA3     15.212747459    5.232314587   25.220497024 XXX  2      ca++    Ca  1.500
CA6     21.305024271    5.319900990   25.220497039 XXX  2      ca++    Ca  1.500
CA9     18.334718828   -0.000002081   25.220614118 XXX  2      ca++    Ca  1.500
CA12    21.305021410    1.714915872   25.220497084 XXX  2      ca++    Ca  1.500
CA39    15.212747459   12.267114639   25.220497024 XXX  2      ca++    Ca  1.500
CA42    21.305024271   12.354701042   25.220497039 XXX  2      ca++    Ca  1.500
CA45    18.334718828    7.034798145   25.220614118 XXX  2      ca++    Ca  1.500
CA48    21.305021410    8.749715805   25.220497084 XXX  2      ca++    Ca  1.500
CA78    21.459661607   19.192743301   25.088582424 XXX  2      ca++    Ca  1.500
CA81    18.334718828   14.069598198   25.220614118 XXX  2      ca++    Ca  1.500
CA84    21.305021410   15.784516335   25.220497084 XXX  2      ca++    Ca  1.500
end
CA4     24.214898506    3.517402649    5.712074280 XXX  1      ca++    Ca  1.500
CA22    24.214898506   10.552202225    5.712074280 XXX  1      ca++    Ca  1.500
CA40    24.214898506   17.587001801    5.712074280 XXX  1      ca++    Ca  1.500
end
CA50     1.127385139   -1.497910023   22.564620972 XXX  1      ca++    Ca  1.500
CA73    10.896121979   -1.439448714    2.911700964 XXX  2      ca++    Ca  1.500
CA83     3.293734789   -1.457126617    5.726838112 XXX  2      ca++    Ca  1.500
CA85     6.116688728   -1.655293465   12.609378815 XXX  2      ca++    Ca  1.500
CA87    10.976259232   -1.460776925    8.144343376 XXX  2      ca++    Ca  1.500
CA95    11.287973404   -1.421582222   14.052090645 XXX  2      ca++    Ca  1.500
CA100    8.920200348   -1.405950069   19.446554184 XXX  2      ca++    Ca  1.500
CA102    2.780630827   -1.754974961   18.712097168 XXX  2      ca++    Ca  1.500
end
CA50    13.311985139   -1.497910023   22.564620972 XXX  1      ca++    Ca  1.500
CA73    23.080721979   -1.439448714    2.911700964 XXX  2      ca++    Ca  1.500
CA83    15.478334789   -1.457126617    5.726838112 XXX  2      ca++    Ca  1.500
CA85    18.301288728   -1.655293465   12.609378815 XXX  2      ca++    Ca  1.500
CA87    23.160859232   -1.460776925    8.144343376 XXX  2      ca++    Ca  1.500
CA95    23.472573404   -1.421582222   14.052090645 XXX  2      ca++    Ca  1.500
CA100   21.104800348   -1.405950069   19.446554184 XXX  2      ca++    Ca  1.500
CA102   14.965230827   -1.754974961   18.712097168 XXX  2      ca++    Ca  1.500
end
CA75     3.185939550   -1.611430168   25.099248392 XXX  2      ca++    Ca  1.500
end
CA75    15.370539550   -1.611430168   25.099248392 XXX  2      ca++    Ca  1.500
end
end
