!BIOSYM archive 3
PBC=ON
Materials Studio Generated CAR File
!DATE Mon Apr 21 03:13:57 2014
PBC   30.5260   91.1020   30.5260   90.0000   90.0000   90.0000 (P1)
CA1     -0.155784052   -2.164443827    2.165180003 XXX  1      ca+a    Ca  1.500
CA2      5.113772912   -1.161145836    1.994927853 XXX  1      ca+a    Ca  1.500
CA3      3.729870419    4.484395539    3.959495019 XXX  1      ca+a    Ca  1.500
CA4      5.711272361    6.552987378    5.871869790 XXX  1      ca+a    Ca  1.500
CA5      1.885347903    6.119571289    2.407243989 XXX  1      ca+a    Ca  1.500
CA6      5.737707209    6.256303988    1.794380608 XXX  1      ca+a    Ca  1.500
AL1      3.581848361    0.692462612    0.115890849 XXX  1      ac1     Al  1.200
AL2      3.419993755    4.153414876   -0.062649222 XXX  1      ac1     Al  1.200
O1       3.916190584    2.439550235   -0.173965537 XXX  1      oc3     O  -0.750
O2       7.300797556    2.510434961    3.638196193 XXX  1      oc3     O  -0.750
O3       3.696476207    4.816919458    1.564514556 XXX  1      oc4     O  -1.350
O4       3.147350039    6.701117106    4.189277136 XXX  1      oc4     O  -1.350
O5       5.069017853   -0.247541334   -0.100995754 XXX  1      oc4     O  -1.350
O6       2.147002060    0.345578995   -0.775928448 XXX  1      oc4     O  -1.350
CA1      8.421718193   -0.518349842    6.628272950 XXX  2      ca+a    Ca  1.500
CA2     -2.647346366   -1.253006530    5.685430522 XXX  2      ca+a    Ca  1.500
CA3      3.626385462   12.033625648   11.462679824 XXX  2      ca+a    Ca  1.500
CA4      1.949795465   10.261540769   13.337343050 XXX  2      ca+a    Ca  1.500
CA5      5.552883845   10.365869168    9.871801405 XXX  2      ca+a    Ca  1.500
CA6      1.779942444   10.240365018    9.311099261 XXX  2      ca+a    Ca  1.500
AL1      3.651438664   15.618449686    7.780228761 XXX  2      ac1     Al  1.200
AL2      4.012758279   12.221111392    7.587148504 XXX  2      ac1     Al  1.200
O1       3.425830191   13.893278077    7.727203296 XXX  2      oc3     O  -0.750
O2      15.520725296   14.050077884   11.292202069 XXX  2      oc3     O  -0.750
O3       3.712027565   11.444478294    9.139280034 XXX  2      oc4     O  -1.350
O4       4.096511729    9.906050231   11.880484819 XXX  2      oc4     O  -1.350
O5       2.158416050   16.247389694    7.070219518 XXX  2      oc4     O  -1.350
O6       5.295139836   15.862337191    7.203526164 XXX  2      oc4     O  -1.350
CA7     -0.053471681    8.146609431    7.570883751 XXX  2      ca+a    Ca  1.500
CA8      7.522724148    8.335447100    7.521290229 XXX  2      ca+a    Ca  1.500
CA9     11.426673937   12.312465727    3.639919962 XXX  2      ca+a    Ca  1.500
CA10     9.333400428   14.160795726    1.615354492 XXX  2      ca+a    Ca  1.500
CA11    13.358829789   13.956616588    5.413083359 XXX  2      ca+a    Ca  1.500
CA12     9.462451118   14.120162968    5.949872925 XXX  2      ca+a    Ca  1.500
AL3     11.265084617    8.591109835    7.492689630 XXX  2      ac1     Al  1.200
AL4     11.718226180   12.019378038    7.523479167 XXX  2      ac1     Al  1.200
O7      11.142927962   10.345155625    7.555247625 XXX  2      oc3     O  -0.750
O8       7.771223904   10.115609369    4.001878289 XXX  2      oc3     O  -0.750
O9      11.352335376   12.632679789    5.947203801 XXX  2      oc4     O  -1.350
O10     11.569385294   -0.663443968    3.481595784 XXX  2      oc4     O  -1.350
O11      9.769600033    8.082031959    8.267936498 XXX  2      oc4     O  -1.350
O12     12.885557840    8.378811497    8.109629951 XXX  2      oc4     O  -1.350
CA13     7.541407062    8.213977239   -0.034599106 XXX  2      ca+a    Ca  1.500
CA14     0.118593402    8.225872722   -0.113530355 XXX  2      ca+a    Ca  1.500
CA15    11.467551405    4.409509010   11.268963709 XXX  2      ca+a    Ca  1.500
CA16    14.505923909    0.669716910    7.365029424 XXX  2      ca+a    Ca  1.500
CA17     9.460012274    2.340560189   12.843837115 XXX  2      ca+a    Ca  1.500
CA18    13.217253292    2.490504881   13.308024264 XXX  2      ca+a    Ca  1.500
AL5     11.507897623    7.736152226   15.053900715 XXX  2      ac1     Al  1.200
AL6     11.053452468    4.279161615   15.073088847 XXX  2      ac1     Al  1.200
O13     11.665702395    5.968113322   15.072265620 XXX  2      oc3     O  -0.750
O14     -0.236297253    6.454840711   11.093695359 XXX  2      oc3     O  -0.750
O15     11.201852895    3.525579827   13.453999380 XXX  2      oc4     O  -1.350
O16     10.991735895   17.463063028   11.034092103 XXX  2      oc4     O  -1.350
O17     13.005383523    8.380304905   15.765508710 XXX  2      oc4     O  -1.350
O18      9.957255252    8.077907686   15.693388617 XXX  2      oc4     O  -1.350
CA19     1.868455232    2.534006897    5.563314831 XXX  2      ca+a    Ca  1.500
CA20     1.529129481    6.156794622    5.667961305 XXX  2      ca+a    Ca  1.500
AL7      0.025224139    4.370626242    0.158905648 XXX  2      ac1     Al  1.200
AL8     -0.154079515    4.135574494    3.572598458 XXX  2      ac1     Al  1.200
O19     -0.121758962    4.663621213    1.868820576 XXX  2      oc3     O  -0.750
O20      3.586304957    7.937488793    1.829673176 XXX  2      oc3     O  -0.750
O21      1.424528138    4.331424817    4.255067369 XXX  2      oc4     O  -1.350
O22      4.000103936    3.736617064    6.225448297 XXX  2      oc4     O  -1.350
O23     -0.663384687    5.857093077   -0.473209513 XXX  2      oc4     O  -1.350
O24     -0.730089483    2.790591459   -0.251929607 XXX  2      oc4     O  -1.350
CA21     9.825034794    6.410520902    9.589811459 XXX  2      ca+a    Ca  1.500
CA22     8.713582976    2.257469376    9.065123127 XXX  2      ca+a    Ca  1.500
AL9      7.722978194    4.146636982   14.977748462 XXX  2      ac1     Al  1.200
AL10     7.538865400    4.381484603   11.592614281 XXX  2      ac1     Al  1.200
O25      7.363860125    3.964004727   13.272917856 XXX  2      oc3     O  -0.750
O26     11.347523753   16.103663037   13.333702612 XXX  2      oc3     O  -0.750
O27      8.965185722    3.484752086   11.014192729 XXX  2      oc4     O  -1.350
O28     11.526847712    5.156431896    9.074001949 XXX  2      oc4     O  -1.350
O29      6.978557987    2.830638875   15.891239618 XXX  2      oc4     O  -1.350
O30      7.253829603    5.802033517   15.353529996 XXX  2      oc4     O  -1.350
CA23     5.525568422   13.684324701   13.273929779 XXX  2      ca+a    Ca  1.500
CA24     5.786845486    9.918565746   13.293302675 XXX  2      ca+a    Ca  1.500
AL11     7.385618066   12.048153686    7.886463565 XXX  2      ac1     Al  1.200
AL12     7.590343457   12.210566068   11.263663546 XXX  2      ac1     Al  1.200
O31      7.543895113   11.776672456    9.560772909 XXX  2      oc3     O  -0.750
O32      3.783732846    8.485467478    9.477235076 XXX  2      oc3     O  -0.750
O33      6.008172340   11.794971748   11.854544911 XXX  2      oc4     O  -1.350
O34      3.448502010   12.476480314   -1.425451114 XXX  2      oc4     O  -1.350
O35      8.141635635   10.574368079    7.311277879 XXX  2      oc4     O  -1.350
O36      8.104999808   13.632843977    7.586471249 XXX  2      oc4     O  -1.350
CA25    12.717178187   10.202151044    2.047039222 XXX  2      ca+a    Ca  1.500
CA26    13.631064398   14.044864671    1.784827630 XXX  2      ca+a    Ca  1.500
AL13    15.125521303   12.165678185    7.287904297 XXX  2      ac1     Al  1.200
AL14    15.290920162   11.705355527    3.888319545 XXX  2      ac1     Al  1.200
O37     15.345552521   12.356681176    5.548701707 XXX  2      oc3     O  -0.750
O38     11.397525121    0.335021289    6.086612721 XXX  2      oc3     O  -0.750
O39     13.739396452   12.065655282    3.143367870 XXX  2      oc4     O  -1.350
O40     10.995350309   11.539217473   16.689545110 XXX  2      oc4     O  -1.350
O41     15.904888642   13.585044051    7.898299736 XXX  2      oc4     O  -1.350
O42     15.560112794   10.494390328    7.728348290 XXX  2      oc4     O  -1.350
CA27     5.393751925    2.920680313    2.034948705 XXX  2      ca+a    Ca  1.500
CA28     5.627762411    2.234355222    5.902158046 XXX  2      ca+a    Ca  1.500
AL15    -0.304399801    0.713470328    3.948358309 XXX  2      ac1     Al  1.200
AL16     3.132155377    0.506802355    3.436091278 XXX  2      ac1     Al  1.200
O43      1.466410287    0.480101365    4.130729324 XXX  2      oc3     O  -0.750
O44      1.658556562    4.442726427    7.359247637 XXX  2      oc3     O  -0.750
O45      3.823882481    2.079624653    3.845020311 XXX  2      oc4     O  -1.350
O46      5.914944137    4.700335632    3.443944642 XXX  2      oc4     O  -1.350
O47     -1.016298311    0.248761045    5.440242885 XXX  2      oc4     O  -1.350
O48     -0.802022555   -0.068749869    2.479755652 XXX  2      oc4     O  -1.350
CA29     9.642495919   10.858360152    5.620124510 XXX  2      ca+a    Ca  1.500
CA30     9.485391763    9.968627016    1.943359616 XXX  2      ca+a    Ca  1.500
AL17    14.832331643    8.278972108    3.711856745 XXX  2      ac1     Al  1.200
AL18    11.404636877    8.234694765    4.166826398 XXX  2      ac1     Al  1.200
O49     13.053123967    8.142723087    3.606672415 XXX  2      oc3     O  -0.750
O50     13.385734706   12.076597843   15.559976409 XXX  2      oc3     O  -0.750
O51     10.842581630    9.782305183    3.768288285 XXX  2      oc4     O  -1.350
O52      9.044664509   12.578630890    4.289189930 XXX  2      oc4     O  -1.350
O53     15.411928842    7.376917540    2.319553841 XXX  2      oc4     O  -1.350
O54     15.096296332    7.760864955    5.327762429 XXX  2      oc4     O  -1.350
CA31    13.464240758    6.378790994   13.109118478 XXX  2      ca+a    Ca  1.500
CA32    13.230680056    6.582166778    9.428821907 XXX  2      ca+a    Ca  1.500
AL19     7.984292607    7.862897981   11.393753244 XXX  2      ac1     Al  1.200
AL20    11.228817877    8.271472809   11.723342382 XXX  2      ac1     Al  1.200
O55      9.557179947    8.467551309   11.330143256 XXX  2      oc3     O  -0.750
O56      9.207542044    4.344175391    7.943208010 XXX  2      oc3     O  -0.750
O57     11.768511900    6.632846731   11.333755296 XXX  2      oc4     O  -1.350
O58     -1.535596487    4.382001458   11.984179624 XXX  2      oc4     O  -1.350
O59      7.212940981    8.431566984    9.894157839 XXX  2      oc4     O  -1.350
O60      7.324609636    8.316283135   12.993615502 XXX  2      oc4     O  -1.350
CA33     1.705738896   14.109733297    9.610012297 XXX  2      ca+a    Ca  1.500
CA34     1.836908101   13.978885781   13.432390952 XXX  2      ca+a    Ca  1.500
AL21     7.278757904   15.568693651   11.537075064 XXX  2      ac1     Al  1.200
AL22     3.850268934   15.887994314   11.172413628 XXX  2      ac1     Al  1.200
O61      5.555957848   15.743382133   11.755901682 XXX  2      oc3     O  -0.750
O62      5.753836082   12.029409238   -0.176105306 XXX  2      oc3     O  -0.750
O63      3.105557765   14.281362258   11.416267495 XXX  2      oc4     O  -1.350
O64     16.713462780   11.665807607   10.902986690 XXX  2      oc4     O  -1.350
O65      7.990880038   16.299725992   12.894645289 XXX  2      oc4     O  -1.350
O66      7.581588119   16.202747718    9.944688463 XXX  2      oc4     O  -1.350
CA35    11.422322510   11.979525853   11.222090768 XXX  2      ca+a    Ca  1.500
CA36     9.269921350   10.017903555    9.369194933 XXX  2      ca+a    Ca  1.500
CA37    13.286159187   10.190689947   12.816058075 XXX  2      ca+a    Ca  1.500
CA38     9.352532701   10.171274995   13.500324706 XXX  2      ca+a    Ca  1.500
AL23    11.366298270   15.547421285   15.050396764 XXX  2      ac1     Al  1.200
AL24    11.660146613   12.177471392   15.249148393 XXX  2      ac1     Al  1.200
O67     11.114602379   13.818999519   15.176074724 XXX  2      oc3     O  -0.750
O68      7.826346264   13.884876712   11.570742745 XXX  2      oc3     O  -0.750
O69     11.367336724   11.491472962   13.689471063 XXX  2      oc4     O  -1.350
O70     11.936386678    9.710497803   11.107662424 XXX  2      oc4     O  -1.350
O71      9.826374409   16.167382408   15.755382905 XXX  2      oc4     O  -1.350
O72     13.006233440   15.872020055   15.629886249 XXX  2      oc4     O  -1.350
CA39    11.208063384    4.616544331    3.781417042 XXX  2      ca+a    Ca  1.500
CA40    13.419877441    6.274320840    1.628285730 XXX  2      ca+a    Ca  1.500
CA41     9.447551293    6.324252613    5.466450078 XXX  2      ca+a    Ca  1.500
CA42    13.280510816    6.352635874    5.925122239 XXX  2      ca+a    Ca  1.500
AL25    11.356570298    0.763904266    7.801542080 XXX  2      ac1     Al  1.200
AL26    10.962325040    4.213712294    7.717294732 XXX  2      ac1     Al  1.200
O73     11.538960303    2.543947975    7.877657738 XXX  2      oc3     O  -0.750
O74     -0.623989908    2.407431048    3.686564569 XXX  2      oc3     O  -0.750
O75     11.305521495    4.753412893    6.074021363 XXX  2      oc4     O  -1.350
O76     10.642013136    6.726026662    3.548804908 XXX  2      oc4     O  -1.350
O77     12.744037062    0.100240518    8.589264811 XXX  2      oc4     O  -1.350
O78      9.707968718    0.519740906    8.259343837 XXX  2      oc4     O  -1.350
CA43     3.849447585    4.800619450   11.498864399 XXX  2      ca+a    Ca  1.500
CA44     6.928516629    0.688052624   15.676077975 XXX  2      ca+a    Ca  1.500
CA45     1.968495440    2.617632586   10.415430418 XXX  2      ca+a    Ca  1.500
CA46     5.384319856    2.751298184    9.560794415 XXX  2      ca+a    Ca  1.500
AL27     3.787229056    7.874692970    7.818534243 XXX  2      ac1     Al  1.200
AL28     3.334357721    4.479627502    7.698674498 XXX  2      ac1     Al  1.200
O79      3.940114051    6.122780876    7.769628710 XXX  2      oc3     O  -0.750
O80      7.961562241    6.102103751   11.264516942 XXX  2      oc3     O  -0.750
O81      3.487876766    3.767816140    9.346657533 XXX  2      oc4     O  -1.350
O82      3.311049725   17.392592094   11.889674159 XXX  2      oc4     O  -1.350
O83      5.219731433    8.501711625    7.062580788 XXX  2      oc4     O  -1.350
O84      2.168931731    8.184697205    7.128260744 XXX  2      oc4     O  -1.350
CA47     3.645831881   12.187450994    3.915733605 XXX  2      ca+a    Ca  1.500
CA48     1.695124345   14.200291965    5.944716286 XXX  2      ca+a    Ca  1.500
CA49     5.533053062   13.972308822    1.935934494 XXX  2      ca+a    Ca  1.500
CA50     1.802418337   13.845336126    1.856347543 XXX  2      ca+a    Ca  1.500
AL29     3.706264634    8.538739483    0.148455753 XXX  2      ac1     Al  1.200
AL30     4.039901810   11.862810583    0.087378369 XXX  2      ac1     Al  1.200
O85      3.495972306   10.222667348    0.115055958 XXX  2      oc3     O  -0.750
O86     15.437513833    9.947713926    3.701715818 XXX  2      oc3     O  -0.750
O87      3.683402363   12.590949537    1.702954473 XXX  2      oc4     O  -1.350
O88      3.892235587   -1.023144418    3.899294094 XXX  2      oc4     O  -1.350
O89      2.320033209    7.980414182   -0.682136821 XXX  2      oc4     O  -1.350
O90      5.331256276    8.205408033   -0.395981423 XXX  2      oc4     O  -1.350
CA51    13.044358833   13.915129879    9.512823413 XXX  2      ca+a    Ca  1.500
CA52    13.599505834    9.976463775    9.448337085 XXX  2      ca+a    Ca  1.500
AL31    15.047497525   12.014988524   14.947241524 XXX  2      ac1     Al  1.200
AL32    15.226245208   12.332031241   11.488244490 XXX  2      ac1     Al  1.200
O91     15.069436335   11.767038618   13.178113311 XXX  2      oc3     O  -0.750
O92     11.556585900    8.413990861   13.420238478 XXX  2      oc3     O  -0.750
O93     13.661704506   11.918829533   10.844935174 XXX  2      oc4     O  -1.350
O94     11.097674130   12.652758636    9.080327195 XXX  2      oc4     O  -1.350
O95     15.763488896   10.574909376   15.609153979 XXX  2      oc4     O  -1.350
O96     15.716651812   13.565813595   15.184309132 XXX  2      oc4     O  -1.350
CA53     5.203595331   10.338432534    5.509325298 XXX  2      ca+a    Ca  1.500
CA54     5.778237361   14.097262681    5.782575972 XXX  2      ca+a    Ca  1.500
AL33     7.417380049   12.116396492    0.346786668 XXX  2      ac1     Al  1.200
AL34     7.531241982   11.879462735    3.715185616 XXX  2      ac1     Al  1.200
O97      7.560713550   12.354685691    2.049833050 XXX  2      oc3     O  -0.750
O98      3.050429544    0.341035654    1.724693883 XXX  2      oc3     O  -0.750
O99      5.931991732   12.176720731    4.402581395 XXX  2      oc4     O  -1.350
O100     3.370269058   11.602089044    6.127436592 XXX  2      oc4     O  -1.350
O101     8.152432210   13.479731530   -0.307635313 XXX  2      oc4     O  -1.350
O102     8.070820771   10.521577728    0.109630272 XXX  2      oc4     O  -1.350
CA55     9.278219114    2.714583640    2.123800920 XXX  2      ca+a    Ca  1.500
CA56     9.228055882    6.425452065    2.016677916 XXX  2      ca+a    Ca  1.500
AL35     7.519319459    4.487530991    7.429506573 XXX  2      ac1     Al  1.200
AL36     7.439721840    4.197837410    4.057445623 XXX  2      ac1     Al  1.200
O103     7.305531900    4.600276740    5.728589802 XXX  2      oc3     O  -0.750
O104    11.239002658    8.018787428    5.877981935 XXX  2      oc3     O  -0.750
O105     8.947946693    4.684223868    3.447826082 XXX  2      oc4     O  -1.350
O106    11.771169925    3.661482815   16.543137936 XXX  2      oc4     O  -1.350
O107     6.896839017    6.022558383    7.987183053 XXX  2      oc4     O  -1.350
O108     6.791256928    2.933750812    7.862472371 XXX  2      oc4     O  -1.350
CA57     2.040282363    6.168592657   13.256341550 XXX  2      ca+a    Ca  1.500
CA58    -1.754937805    2.827534073   13.526685743 XXX  2      ca+a    Ca  1.500
AL37     0.058969881    4.306986472    7.854444891 XXX  2      ac1     Al  1.200
AL38    -0.011210960    4.747331228   11.200572118 XXX  2      ac1     Al  1.200
O109    -0.180221440    4.083857840    9.590882010 XXX  2      oc3     O  -0.750
O110     3.653492158   16.173774577    9.430452396 XXX  2      oc3     O  -0.750
O111     1.594781772    4.404644198   11.731559820 XXX  2      oc4     O  -1.350
O112     4.068045958    5.024059741   -1.416654597 XXX  2      oc4     O  -1.350
O113    -0.425633364    2.911237375    6.961349013 XXX  2      oc4     O  -1.350
O114    -0.542285455    5.893944856    7.469945543 XXX  2      oc4     O  -1.350
CA59     9.573306914   13.600910160   13.115758011 XXX  2      ca+a    Ca  1.500
CA60     9.395946085   14.161241012    9.391340734 XXX  2      ca+a    Ca  1.500
AL39    14.926939976   15.717260365   11.329903547 XXX  2      ac1     Al  1.200
AL40    11.507598001   15.894765536   11.633003307 XXX  2      ac1     Al  1.200
O115    13.189981431   15.733481969   11.074627342 XXX  2      oc3     O  -0.750
O116    13.464031224   12.319088593    7.745786923 XXX  2      oc3     O  -0.750
O117    10.714238374   14.332545503   11.264148973 XXX  2      oc4     O  -1.350
O118     9.045027622   11.510181962   11.771331237 XXX  2      oc4     O  -1.350
O119    15.569650288   16.482556287    9.928797136 XXX  2      oc4     O  -1.350
O120    15.240417726   16.290480160   13.008235986 XXX  2      oc4     O  -1.350
CA61     5.759058115    6.452249597    9.820882392 XXX  2      ca+a    Ca  1.500
CA62     5.735952343    6.440826697   13.417990023 XXX  2      ca+a    Ca  1.500
AL41     0.239445351    8.112748232   11.387953341 XXX  2      ac1     Al  1.200
AL42     3.625224657    8.363032868   11.207334026 XXX  2      ac1     Al  1.200
O121     1.953053987    8.170947364   11.708884984 XXX  2      oc3     O  -0.750
O122     1.686373641    4.302286099   -0.336038182 XXX  2      oc3     O  -0.750
O123     4.488335737    6.934571433   11.589040978 XXX  2      oc4     O  -1.350
O124     5.979168981    4.351300542   10.828453462 XXX  2      oc4     O  -1.350
O125    -0.637387628    8.613095170   12.841378068 XXX  2      oc4     O  -1.350
O126     0.011675770    8.830890539    9.837574097 XXX  2      oc4     O  -1.350
CA63     1.891479727   10.481213702    2.012549672 XXX  2      ca+a    Ca  1.500
CA64     1.763218879    9.943793540    5.870070889 XXX  2      ca+a    Ca  1.500
AL43     7.219588281    8.485490700    3.852889304 XXX  2      ac1     Al  1.200
AL44     3.785557822    8.206211479    3.575146144 XXX  2      ac1     Al  1.200
O127     5.483554522    8.288471372    4.086618371 XXX  2      oc3     O  -0.750
O128     5.722564964   12.039152051    7.339710346 XXX  2      oc3     O  -0.750
O129     3.094461958    9.712268241    3.991413730 XXX  2      oc4     O  -1.350
O130    16.719980392   12.324238769    3.261240926 XXX  2      oc4     O  -1.350
O131     7.733946502    7.647456466    5.300748591 XXX  2      oc4     O  -1.350
O132     7.441194884    7.840699583    2.281927788 XXX  2      oc4     O  -1.350
CA65    12.829592825    3.131814385    5.757021754 XXX  2      ca+a    Ca  1.500
CA66    12.667520412    2.087767759    2.204992406 XXX  2      ca+a    Ca  1.500
AL45     7.529567277    0.797043996    3.909209227 XXX  2      ac1     Al  1.200
AL46    10.900365354    0.621166407    4.415158749 XXX  2      ac1     Al  1.200
O133     9.197517985    0.367883917    4.113817880 XXX  2      oc3     O  -0.750
O134     9.388340775    4.027754049   15.446464855 XXX  2      oc3     O  -0.750
O135    11.347326701    2.334406689    3.957933211 XXX  2      oc4     O  -1.350
O136    -1.595476976    4.788076759    4.164987608 XXX  2      oc4     O  -1.350
O137     6.987491850    0.176447193    2.393050553 XXX  2      oc4     O  -1.350
O138     6.792484492    0.473348251    5.457625293 XXX  2      oc4     O  -1.350
end
O1      32.096737398   69.387405456   19.746811999 XXXX 3      o*      O  -0.820
H1      31.463957984   69.501287557   19.022914809 XXXX 3      h*      H   0.410
H2      32.566381468   68.514225584   19.428383951 XXXX 3      h*      H   0.410
O2       2.775188247   70.615219855   14.412038271 XXXX 3      o*      O  -0.820
H3       2.832257155   69.916030808   15.151863120 XXXX 3      h*      H   0.410
H4       2.356507994   70.011060127   13.778952746 XXXX 3      h*      H   0.410
O3       2.982720348   91.575825376   21.612787810 XXXX 3      o*      O  -0.820
H5       2.326971467   90.838039105   21.780499425 XXXX 3      h*      H   0.410
H6       3.551113931   91.210162786   20.849329988 XXXX 3      h*      H   0.410
O4      19.020406672   49.437131730   20.709118446 XXXX 3      o*      O  -0.820
O5      19.518326776   90.186527141    8.439124579 XXXX 3      o*      O  -0.820
O6      19.454519719   87.097390365    2.926987019 XXXX 3      o*      O  -0.820
H7      18.568726798   49.329282175   19.850149102 XXXX 3      h*      H   0.410
H8      20.409963332   89.755902536    8.677178556 XXXX 3      h*      H   0.410
H9      18.470038272   87.223435336    3.090372584 XXXX 3      h*      H   0.410
H10     19.714631110   48.793084083   20.663694062 XXXX 3      h*      H   0.410
H11     19.002470567   89.409573241    8.805686821 XXXX 3      h*      H   0.410
H12     19.635023640   86.423734286    3.554702965 XXXX 3      h*      H   0.410
O7       3.754269666   70.184709943   10.936857461 XXXX 3      o*      O  -0.820
H13      4.690027187   69.984746352   10.988489454 XXXX 3      h*      H   0.410
H14      3.413279571   69.401612255   11.486510434 XXXX 3      h*      H   0.410
O8       8.168539453   76.509864012   29.838349661 XXXX 3      o*      O  -0.820
H15      7.262798851   76.180045843   29.677960893 XXXX 3      h*      H   0.410
H16      8.343806754   76.081340968   30.669750997 XXXX 3      h*      H   0.410
O9      17.423538189   83.254713092   24.357621190 XXXX 3      o*      O  -0.820
H17     17.370282257   83.393013213   25.300437782 XXXX 3      h*      H   0.410
H18     16.510937917   83.452961702   24.125971832 XXXX 3      h*      H   0.410
O10     12.461124363   66.536581177   20.704601328 XXXX 3      o*      O  -0.820
H19     13.251546628   66.688049724   20.048978230 XXXX 3      h*      H   0.410
H20     11.739987473   66.427716321   20.018459821 XXXX 3      h*      H   0.410
O11     23.153862827   75.464946815   34.394929313 XXXX 3      o*      O  -0.820
H21     22.404027489   75.898068234   34.862046585 XXXX 3      h*      H   0.410
H22     22.714320888   74.918018385   33.710205583 XXXX 3      h*      H   0.410
O12     27.576961049   72.163246756   15.567437927 XXXX 3      o*      O  -0.820
H23     28.115344293   72.711457044   15.012455513 XXXX 3      h*      H   0.410
H24     26.894218719   72.798367702   15.939693266 XXXX 3      h*      H   0.410
O13      8.368690737   67.449098384    2.764404118 XXXX 3      o*      O  -0.820
H25      8.182270097   66.506958150    2.860497709 XXXX 3      h*      H   0.410
H26      8.882294819   67.682478695    3.549346021 XXXX 3      h*      H   0.410
O14      2.143060987   89.237404402   14.003178637 XXXX 3      o*      O  -0.820
H27      1.833633461   90.152981617   14.183786519 XXXX 3      h*      H   0.410
H28      3.100789594   89.475810103   13.870807904 XXXX 3      h*      H   0.410
O15     11.000203988   85.606305901   -1.819486927 XXXX 3      o*      O  -0.820
H29     10.227607843   85.074991328   -1.977794244 XXXX 3      h*      H   0.410
H30     11.020740597   85.784051827   -0.859356812 XXXX 3      h*      H   0.410
O16     21.713509484   40.256195221   13.200948265 XXXX 3      o*      O  -0.820
H31     21.616144935   40.921586662   12.461483263 XXXX 3      h*      H   0.410
H32     21.049024470   39.604037519   13.080611904 XXXX 3      h*      H   0.410
O17     16.794565786   81.917592319   20.027669723 XXXX 3      o*      O  -0.820
H33     17.086019718   82.088923106   20.960207955 XXXX 3      h*      H   0.410
H34     16.846939774   80.916278867   20.053527587 XXXX 3      h*      H   0.410
O18     14.994516271   83.121710135   18.157649277 XXXX 3      o*      O  -0.820
H35     14.713935279   82.565344283   17.447934643 XXXX 3      h*      H   0.410
H36     15.481650656   82.406471922   18.708767441 XXXX 3      h*      H   0.410
O19     24.811306347   91.385589437   15.883060674 XXXX 3      o*      O  -0.820
H37     25.305718735   90.592269744   16.163243725 XXXX 3      h*      H   0.410
H38     24.203893510   91.255376832   16.684376900 XXXX 3      h*      H   0.410
O20      9.870367723   87.163457269   26.124889578 XXXX 3      o*      O  -0.820
H39     10.822610306   87.161944864   26.324594966 XXXX 3      h*      H   0.410
H40      9.913633542   86.809226543   25.201774608 XXXX 3      h*      H   0.410
O21     30.496501744   37.302345493   23.516984590 XXXX 3      o*      O  -0.820
H41     30.135531911   37.059913512   22.618235585 XXXX 3      h*      H   0.410
H42     29.725000414   36.892607925   24.033131502 XXXX 3      h*      H   0.410
O22      5.023772064   33.476433836    2.024059069 XXXX 3      o*      O  -0.820
H43      4.308443344   33.133193812    2.640456778 XXXX 3      h*      H   0.410
H44      4.822711185   32.928341843    1.226460099 XXXX 3      h*      H   0.410
O23     27.893490578   79.633371771   12.629121330 XXXX 3      o*      O  -0.820
H45     28.729416942   79.389940879   13.005955187 XXXX 3      h*      H   0.410
H46     28.080833358   80.586187289   12.664713412 XXXX 3      h*      H   0.410
O24     10.023338351   80.203409616   14.237808128 XXXX 3      o*      O  -0.820
H47     10.279856750   80.683639102   15.069605677 XXXX 3      h*      H   0.410
H48     10.612958680   79.457461376   14.334580840 XXXX 3      h*      H   0.410
O25     17.813355962   83.177443195    9.049933896 XXXX 3      o*      O  -0.820
H49     16.771647166   83.212593482    8.933301453 XXXX 3      h*      H   0.410
H50     17.987370946   82.423068310    8.502383290 XXXX 3      h*      H   0.410
O26     16.537343458   33.223235339    2.477949598 XXXX 3      o*      O  -0.820
H51     17.499605413   33.528075917    2.206820685 XXXX 3      h*      H   0.410
H52     16.764459234   33.054334622    3.389601321 XXXX 3      h*      H   0.410
O27     17.969330851   87.229732161   24.054870944 XXXX 3      o*      O  -0.820
H53     18.144682052   87.306913078   25.063804385 XXXX 3      h*      H   0.410
H54     18.382416189   86.378561444   23.914785523 XXXX 3      h*      H   0.410
O28      7.713827024   84.712365801   17.173492898 XXXX 3      o*      O  -0.820
H55      8.329199470   85.168308958   17.855488014 XXXX 3      h*      H   0.410
H56      7.613319462   83.908128874   17.795809435 XXXX 3      h*      H   0.410
O29     24.969135934   53.423527854    2.562217669 XXXX 3      o*      O  -0.820
O30     -0.795278394   55.370410970   21.621696227 XXXX 3      o*      O  -0.820
H57     24.609281882   53.115439846    3.420135092 XXXX 3      h*      H   0.410
H58     -0.786523685   54.474124027   21.275696163 XXXX 3      h*      H   0.410
H59     25.802224597   52.867801760    2.433728309 XXXX 3      h*      H   0.410
H60      0.170438756   55.536165088   21.701578995 XXXX 3      h*      H   0.410
O31      8.020042416   72.206925448   22.895927616 XXXX 3      o*      O  -0.820
H61      8.807795077   71.730313147   23.330028573 XXXX 3      h*      H   0.410
H62      7.709097234   71.427704291   22.348888569 XXXX 3      h*      H   0.410
O32      3.801817770   84.984697553   24.932319229 XXXX 3      o*      O  -0.820
H63      4.380289334   85.294122375   25.661593888 XXXX 3      h*      H   0.410
H64      4.270289105   85.151397312   24.150781698 XXXX 3      h*      H   0.410
O33     16.568321431   90.077595347    6.298772927 XXXX 3      o*      O  -0.820
H65     16.848350041   89.181575160    5.919864819 XXXX 3      h*      H   0.410
H66     15.697592260   90.338330960    5.765418607 XXXX 3      h*      H   0.410
O34     26.585034409   41.463813897    6.336522936 XXXX 3      o*      O  -0.820
H67     25.870214555   41.557211778    5.640895019 XXXX 3      h*      H   0.410
H68     26.815614459   40.540377756    6.179048575 XXXX 3      h*      H   0.410
O35     31.727993383   72.059209946    0.357162377 XXXX 3      o*      O  -0.820
H69     32.136288385   72.081970739    1.201087558 XXXX 3      h*      H   0.410
H70     32.374832327   71.441141153   -0.130733347 XXXX 3      h*      H   0.410
O36      3.566383363   76.195324779   15.542848480 XXXX 3      o*      O  -0.820
O37      2.798755720   85.527484713   15.945562613 XXXX 3      o*      O  -0.820
O38     18.480632840   53.937008772   26.525614575 XXXX 3      o*      O  -0.820
H71      4.289883445   75.958236022   16.166409877 XXXX 3      h*      H   0.410
H72      3.376380135   85.133720115   16.625447481 XXXX 3      h*      H   0.410
H73     18.260232403   54.156826165   27.479354512 XXXX 3      h*      H   0.410
H74      3.968877533   76.014797564   14.677990370 XXXX 3      h*      H   0.410
H75      2.090765273   84.821902648   15.994462471 XXXX 3      h*      H   0.410
H76     18.605609695   52.949355858   26.629906732 XXXX 3      h*      H   0.410
O39     17.000007253   84.826118199   11.315356277 XXXX 3      o*      O  -0.820
O40     11.181044871   71.058761305   -1.262705739 XXXX 3      o*      O  -0.820
H77     17.315186598   84.427575695   10.449114023 XXXX 3      h*      H   0.410
H78     11.083529742   70.866504451   -2.236545814 XXXX 3      h*      H   0.410
H79     16.661917981   84.046340257   11.807484224 XXXX 3      h*      H   0.410
H80     11.204314598   70.138327819   -1.038824136 XXXX 3      h*      H   0.410
O41     27.339404737   81.938632001   18.900041743 XXXX 3      o*      O  -0.820
H81     27.995283197   81.285981918   18.675839213 XXXX 3      h*      H   0.410
H82     26.583490284   81.379527600   19.126097116 XXXX 3      h*      H   0.410
O42     18.602511383   73.452903077   11.395609102 XXXX 3      o*      O  -0.820
O43     28.274961396   78.996057562    5.223565801 XXXX 3      o*      O  -0.820
O44      4.862372784   62.087591578   29.977917911 XXXX 3      o*      O  -0.820
O45     23.032624655   67.436289129   28.017322184 XXXX 3      o*      O  -0.820
O46     20.777575408   79.776623721   10.375162828 XXXX 3      o*      O  -0.820
O47     31.547511864   81.090269466    3.542238107 XXXX 3      o*      O  -0.820
H83     18.762497621   72.690358176   10.843386664 XXXX 3      h*      H   0.410
H84     28.798598087   79.072649005    6.040565137 XXXX 3      h*      H   0.410
H85      4.115912809   61.526037303   30.181292866 XXXX 3      h*      H   0.410
H86     23.476184985   66.601624815   28.280045463 XXXX 3      h*      H   0.410
H87     20.640941058   79.028289583    9.769616998 XXXX 3      h*      H   0.410
H88     31.866530701   80.661107231    4.340792227 XXXX 3      h*      H   0.410
H89     17.878497363   73.919904893   10.859455491 XXXX 3      h*      H   0.410
H90     27.938729411   78.047004764    5.255926736 XXXX 3      h*      H   0.410
H91      5.485318757   61.614177856   29.365987500 XXXX 3      h*      H   0.410
H92     23.795083545   67.991693890   27.752789357 XXXX 3      h*      H   0.410
H93     21.676546728   79.576472449   10.645271396 XXXX 3      h*      H   0.410
H94     31.939061813   80.463012057    2.859887785 XXXX 3      h*      H   0.410
O48      6.995459155   75.656202240    3.999821859 XXXX 3      o*      O  -0.820
O49     22.197418969   37.663419967   20.353381156 XXXX 3      o*      O  -0.820
O50      4.910667161   83.052173076   11.226449777 XXXX 3      o*      O  -0.820
H95      7.455724898   74.848597373    3.795036430 XXXX 3      h*      H   0.410
H96     22.907073435   38.076774394   19.741218726 XXXX 3      h*      H   0.410
H97      4.939951493   82.276139726   11.862429830 XXXX 3      h*      H   0.410
H98      6.119702864   75.362357318    4.028438582 XXXX 3      h*      H   0.410
H99     22.448465577   38.137510699   21.169995815 XXXX 3      h*      H   0.410
H100     5.825514414   83.467081517   11.391368693 XXXX 3      h*      H   0.410
O51     22.261191569   71.506525340   11.475589083 XXXX 3      o*      O  -0.820
O52     13.626073969   60.473174714   21.832564100 XXXX 3      o*      O  -0.820
O53     25.503356871   91.626818583   26.091231553 XXXX 3      o*      O  -0.820
O54     19.071825974   84.582077596    5.084104016 XXXX 3      o*      O  -0.820
O55     12.734925938   76.480045719   22.551596563 XXXX 3      o*      O  -0.820
H101    23.113146528   71.787119152   11.906502176 XXXX 3      h*      H   0.410
H102    12.779054076   60.417248842   21.337992094 XXXX 3      h*      H   0.410
H103    25.404324376   91.333931410   25.165525858 XXXX 3      h*      H   0.410
H104    20.005185890   84.363205867    5.541003649 XXXX 3      h*      H   0.410
H105    12.383094850   76.660081757   21.622654795 XXXX 3      h*      H   0.410
H106    22.714039728   71.121824649   10.628491102 XXXX 3      h*      H   0.410
H107    13.792868010   59.628288916   22.229411548 XXXX 3      h*      H   0.410
H108    26.370498859   91.183582358   26.316639981 XXXX 3      h*      H   0.410
H109    18.938952015   83.811945240    4.481216370 XXXX 3      h*      H   0.410
H110    13.702346033   76.756383188   22.523846457 XXXX 3      h*      H   0.410
O56     -0.855345810   75.146835946    2.263330547 XXXX 3      o*      O  -0.820
H111    -1.294897610   74.665460476    1.585658820 XXXX 3      h*      H   0.410
H112    -0.678937391   75.936406457    1.747971823 XXXX 3      h*      H   0.410
O57     14.784891493   48.649392069    7.506052356 XXXX 3      o*      O  -0.820
H113    14.875974952   49.303122772    6.720242558 XXXX 3      h*      H   0.410
H114    13.884281368   48.849512880    7.874184091 XXXX 3      h*      H   0.410
O58      6.006163419   42.798155745   10.800210732 XXXX 3      o*      O  -0.820
O59      5.887218022   77.066265216   16.834729532 XXXX 3      o*      O  -0.820
O60     34.663577643   77.000667754   31.196852866 XXXX 3      o*      O  -0.820
O61      7.136133358   68.226980731    7.396855950 XXXX 3      o*      O  -0.820
O62     20.666372094   90.718556786   12.502355539 XXXX 3      o*      O  -0.820
O63     15.162169506   91.636683304   24.926637730 XXXX 3      o*      O  -0.820
O64     16.206367083   84.835041832    5.194685133 XXXX 3      o*      O  -0.820
O65     10.336050806   69.869266568   11.529420019 XXXX 3      o*      O  -0.820
H115     6.231802126   41.851388648   10.984310241 XXXX 3      h*      H   0.410
H116     6.166354221   77.874705196   16.304790218 XXXX 3      h*      H   0.410
H117    35.356376886   76.925251885   30.540985166 XXXX 3      h*      H   0.410
H118     6.319762512   67.775165510    7.753800291 XXXX 3      h*      H   0.410
H119    20.172178632   89.872026323   12.612072250 XXXX 3      h*      H   0.410
H120    14.248268955   91.677768309   24.514390079 XXXX 3      h*      H   0.410
H121    15.950022705   83.916439100    5.157209039 XXXX 3      h*      H   0.410
H122    11.186068617   69.471520683   11.215636295 XXXX 3      h*      H   0.410
H123     6.819318694   43.248073933   10.663333681 XXXX 3      h*      H   0.410
H124     6.731908737   76.531110112   16.670050425 XXXX 3      h*      H   0.410
H125    33.895959231   76.502931428   30.763692771 XXXX 3      h*      H   0.410
H126     7.852480534   67.534559629    7.740359950 XXXX 3      h*      H   0.410
H127    20.427561586   90.983805463   13.435523362 XXXX 3      h*      H   0.410
H128    14.920813132   90.877844851   25.619752452 XXXX 3      h*      H   0.410
H129    17.197622709   84.911665812    5.418096683 XXXX 3      h*      H   0.410
H130    10.065357220   69.140549020   12.102947099 XXXX 3      h*      H   0.410
O66     26.253993942   73.934153111    3.321300780 XXXX 3      o*      O  -0.820
O67      9.197109967   69.682902817   24.319079364 XXXX 3      o*      O  -0.820
O68     16.004789167   89.284967931   23.118257355 XXXX 3      o*      O  -0.820
H131    25.430050922   74.413603143    3.500093489 XXXX 3      h*      H   0.410
H132     9.019730420   69.207030286   25.204349607 XXXX 3      h*      H   0.410
H133    16.090245225   88.410418849   23.630148492 XXXX 3      h*      H   0.410
H134    25.995933930   73.178467250    2.770415672 XXXX 3      h*      H   0.410
H135     9.636570787   68.920826151   23.840224974 XXXX 3      h*      H   0.410
H136    16.699182533   89.163347270   22.421481331 XXXX 3      h*      H   0.410
O69     21.274557110   80.101964995   14.235680828 XXXX 3      o*      O  -0.820
H137    21.575546944   79.281761921   13.809992833 XXXX 3      h*      H   0.410
H138    20.315097667   80.042168967   13.979220287 XXXX 3      h*      H   0.410
O70     22.281581918   31.121863683   21.232231745 XXXX 3      o*      O  -0.820
O71     20.409520545   65.425394118   13.452703073 XXXX 3      o*      O  -0.820
O72      8.491582854   77.582605316    5.326803388 XXXX 3      o*      O  -0.820
H139    21.555453097   31.250125860   21.943571501 XXXX 3      h*      H   0.410
H140    20.054435799   65.621007551   14.401812176 XXXX 3      h*      H   0.410
H141     8.844265148   77.095706938    6.069643561 XXXX 3      h*      H   0.410
H142    23.037804126   31.004794820   21.890498223 XXXX 3      h*      H   0.410
H143    19.561021190   65.319143648   12.981012480 XXXX 3      h*      H   0.410
H144     8.187317037   76.892767819    4.677932171 XXXX 3      h*      H   0.410
O73     23.489815409   74.510963412   12.155587304 XXXX 3      o*      O  -0.820
H145    23.391758836   74.928529789   11.249153762 XXXX 3      h*      H   0.410
H146    24.500210741   74.383944210   12.126569635 XXXX 3      h*      H   0.410
O74     19.958625572   38.330301833   -0.143259707 XXXX 3      o*      O  -0.820
H147    20.655293378   37.735394321    0.138551485 XXXX 3      h*      H   0.410
H148    19.284565285   37.896386264    0.412391343 XXXX 3      h*      H   0.410
O75     28.736080619   83.062314506    1.972569593 XXXX 3      o*      O  -0.820
H149    27.768837253   83.023510950    2.186328325 XXXX 3      h*      H   0.410
H150    28.820022387   82.235692385    1.328348658 XXXX 3      h*      H   0.410
O76     24.350360718   37.115563878    9.693782998 XXXX 3      o*      O  -0.820
H151    24.445361052   37.907010694    9.039463081 XXXX 3      h*      H   0.410
H152    23.626847965   37.474716267   10.219496730 XXXX 3      h*      H   0.410
O77      0.162104295   54.757917407   -1.144931742 XXXX 3      o*      O  -0.820
H153    -0.837279636   54.559181277   -1.051218272 XXXX 3      h*      H   0.410
H154     0.473830876   53.967876022   -1.683832444 XXXX 3      h*      H   0.410
O78     13.503034058   76.619806181    3.526880718 XXXX 3      o*      O  -0.820
H155    13.315003188   77.202441510    2.700468245 XXXX 3      h*      H   0.410
H156    12.606595377   76.267742578    3.711980947 XXXX 3      h*      H   0.410
O79     22.551374270   75.556090640    7.165670351 XXXX 3      o*      O  -0.820
H157    23.230976396   74.909563071    6.984830685 XXXX 3      h*      H   0.410
H158    21.817314805   74.901732835    7.164265597 XXXX 3      h*      H   0.410
O80     18.843683023   69.465351072   19.281204672 XXXX 3      o*      O  -0.820
H159    19.118869807   68.690402972   19.884181745 XXXX 3      h*      H   0.410
H160    19.633586727   69.882805773   19.048535549 XXXX 3      h*      H   0.410
O81     20.724994542   80.547375261   22.916417184 XXXX 3      o*      O  -0.820
H161    21.401507217   80.542010682   23.607537716 XXXX 3      h*      H   0.410
H162    21.229120856   80.181861274   22.253692410 XXXX 3      h*      H   0.410
O82     19.432039216   69.554714156   14.235457380 XXXX 3      o*      O  -0.820
H163    19.836203017   68.939990782   14.891008045 XXXX 3      h*      H   0.410
H164    18.648707474   69.914499947   14.700901271 XXXX 3      h*      H   0.410
O83     25.062623688   68.250611990   11.531205252 XXXX 3      o*      O  -0.820
H165    24.951914797   67.401399052   12.098448352 XXXX 3      h*      H   0.410
H166    25.299777088   67.795694034   10.678856385 XXXX 3      h*      H   0.410
O84      7.296574884   62.400559857   15.622134864 XXXX 3      o*      O  -0.820
H167     7.649330008   63.104611792   15.003930454 XXXX 3      h*      H   0.410
H168     7.402071530   61.633613666   15.027499501 XXXX 3      h*      H   0.410
O85     13.448355127   39.197416494   17.595387374 XXXX 3      o*      O  -0.820
H169    14.206593469   39.656310435   17.920055420 XXXX 3      h*      H   0.410
H170    13.471936778   39.340821974   16.610755933 XXXX 3      h*      H   0.410
O86     12.435855378   57.462991023   27.074088799 XXXX 3      o*      O  -0.820
H171    11.690275135   56.903593548   26.740217112 XXXX 3      h*      H   0.410
H172    12.253009772   57.445298690   28.049097983 XXXX 3      h*      H   0.410
O87     22.021994867   33.275723876    2.955394043 XXXX 3      o*      O  -0.820
H173    21.887216777   33.738029754    3.847517775 XXXX 3      h*      H   0.410
H174    22.933087103   32.896016929    3.058682906 XXXX 3      h*      H   0.410
O88      9.745097276   63.906301349    8.233079766 XXXX 3      o*      O  -0.820
H175    10.217819760   63.450625292    8.967620200 XXXX 3      h*      H   0.410
H176     9.311397814   63.114240055    7.808610637 XXXX 3      h*      H   0.410
O89     20.900814467   69.889205867    7.306892877 XXXX 3      o*      O  -0.820
H177    20.358765223   69.812255437    6.470453953 XXXX 3      h*      H   0.410
H178    20.922756836   68.967790262    7.636842063 XXXX 3      h*      H   0.410
O90     21.294016236   38.949236634   17.238824867 XXXX 3      o*      O  -0.820
H179    21.327781965   38.188901409   16.547593086 XXXX 3      h*      H   0.410
H180    22.200052432   38.971218758   17.549437334 XXXX 3      h*      H   0.410
O91     17.375102399   38.030978358   15.929024712 XXXX 3      o*      O  -0.820
H181    16.511298644   37.562097776   16.087081320 XXXX 3      h*      H   0.410
H182    17.375736808   38.146691960   14.955891377 XXXX 3      h*      H   0.410
O92      3.608942038   42.543912997   30.248943071 XXXX 3      o*      O  -0.820
H183     4.016838543   43.443949199   30.199939869 XXXX 3      h*      H   0.410
H184     2.720816740   42.809337922   29.946483837 XXXX 3      h*      H   0.410
O93      3.312158306   52.888656587   10.857802121 XXXX 3      o*      O  -0.820
H185     3.705425373   52.577206913   11.752571999 XXXX 3      h*      H   0.410
H186     3.663590059   53.809630640   10.812936128 XXXX 3      h*      H   0.410
O94     25.282132480   65.388476173    6.595064680 XXXX 3      o*      O  -0.820
H187    24.916504247   64.438730232    6.660986992 XXXX 3      h*      H   0.410
H188    25.638008043   65.526307616    7.510328425 XXXX 3      h*      H   0.410
O95     15.282787601   60.677634291   14.510507340 XXXX 3      o*      O  -0.820
O96     29.193799192   55.589186590   17.920337544 XXXX 3      o*      O  -0.820
H189    15.377277923   59.876447582   15.131883674 XXXX 3      h*      H   0.410
H190    28.709177057   54.841707927   17.449659460 XXXX 3      h*      H   0.410
H191    15.169644600   60.120959300   13.695890536 XXXX 3      h*      H   0.410
H192    29.896158668   55.114892840   18.456162310 XXXX 3      h*      H   0.410
O97      4.171963793   65.273876396   10.755800261 XXXX 3      o*      O  -0.820
O98     11.628724198   88.026998588   17.272362429 XXXX 3      o*      O  -0.820
O99     12.751259431   72.060725679   12.007904198 XXXX 3      o*      O  -0.820
O100    26.631162608   85.361913491   10.901755375 XXXX 3      o*      O  -0.820
O101    10.964901665   71.561740052   23.098811433 XXXX 3      o*      O  -0.820
O102     2.265636011   56.435919690   16.080339740 XXXX 3      o*      O  -0.820
O103     3.085292316   44.442059874    8.030905222 XXXX 3      o*      O  -0.820
H193     3.840886887   64.542771631   10.219744346 XXXX 3      h*      H   0.410
H194    11.652347556   88.788653419   17.888729355 XXXX 3      h*      H   0.410
H195    13.199479887   71.913014896   11.106014103 XXXX 3      h*      H   0.410
H196    26.751845876   84.537051865   10.412485811 XXXX 3      h*      H   0.410
H197    10.794833241   70.917145864   23.773663917 XXXX 3      h*      H   0.410
H198     2.579093410   56.202710070   16.959143035 XXXX 3      h*      H   0.410
H199     2.529807140   44.519347453    8.810450824 XXXX 3      h*      H   0.410
H200     4.010316989   64.847979490   11.640846988 XXXX 3      h*      H   0.410
H201    10.712270726   87.682012578   17.417345935 XXXX 3      h*      H   0.410
H202    11.898414132   71.720516166   11.791264822 XXXX 3      h*      H   0.410
H203    26.917935779   85.108342973   11.819913183 XXXX 3      h*      H   0.410
H204    10.798838858   71.204253105   22.199228819 XXXX 3      h*      H   0.410
H205     1.963171553   55.603577651   15.649377401 XXXX 3      h*      H   0.410
H206     2.663030047   45.124651939    7.424811466 XXXX 3      h*      H   0.410
O104    11.785109290   78.297673163    9.594733759 XXXX 3      o*      O  -0.820
H207    11.231062413   78.152128748    8.787696528 XXXX 3      h*      H   0.410
H208    11.963625975   77.360701821    9.817057805 XXXX 3      h*      H   0.410
O105    28.131717296   88.077009127    3.051784552 XXXX 3      o*      O  -0.820
H209    27.282552824   88.605871513    3.378072612 XXXX 3      h*      H   0.410
H210    27.552551352   87.384083882    2.589749558 XXXX 3      h*      H   0.410
O106    14.307318713   41.000199337   22.838637576 XXXX 3      o*      O  -0.820
O107    28.590680767   89.168583769   22.491629815 XXXX 3      o*      O  -0.820
H211    15.133677448   41.400709480   22.380039044 XXXX 3      h*      H   0.410
H212    28.416546435   89.829590332   23.247239567 XXXX 3      h*      H   0.410
H213    14.055995374   40.535928220   21.981631513 XXXX 3      h*      H   0.410
H214    28.847659631   88.357169628   22.932140097 XXXX 3      h*      H   0.410
O108    23.612130788   46.136434769   19.245356838 XXXX 3      o*      O  -0.820
H215    23.565754652   45.220391612   19.410269116 XXXX 3      h*      H   0.410
H216    24.274841633   46.155444795   18.512459854 XXXX 3      h*      H   0.410
O109    22.415091723   47.329822934    5.405972841 XXXX 3      o*      O  -0.820
O110     4.227857667   39.767598314   13.143995753 XXXX 3      o*      O  -0.820
H217    21.847170209   46.887787158    6.070215257 XXXX 3      h*      H   0.410
H218     4.792867567   40.249110278   12.567897688 XXXX 3      h*      H   0.410
H219    21.967161977   47.287563585    4.540510624 XXXX 3      h*      H   0.410
H220     4.931259915   39.517189492   13.798958128 XXXX 3      h*      H   0.410
O111    16.243359444   69.795199324   28.724281158 XXXX 3      o*      O  -0.820
H221    15.839020014   68.999154706   28.388622639 XXXX 3      h*      H   0.410
H222    16.731049009   69.454946822   29.487595355 XXXX 3      h*      H   0.410
O112     0.554521981   57.173294652   30.826503803 XXXX 3      o*      O  -0.820
H223     1.413627056   56.830380838   30.945060536 XXXX 3      h*      H   0.410
H224     0.148599525   56.281625238   30.760319781 XXXX 3      h*      H   0.410
O113    14.560942704   80.605932299   16.740772591 XXXX 3      o*      O  -0.820
H225    15.248003147   80.848622104   16.014912951 XXXX 3      h*      H   0.410
H226    13.857309831   80.203675611   16.213123378 XXXX 3      h*      H   0.410
O114     1.266329451   89.508700261   22.679456035 XXXX 3      o*      O  -0.820
H227     0.776082808   89.087802069   23.385541100 XXXX 3      h*      H   0.410
H228     1.638790958   88.652178430   22.301559347 XXXX 3      h*      H   0.410
O115     4.609634875   58.250383414    9.294918057 XXXX 3      o*      O  -0.820
H229     4.095928841   57.997709025    8.562117457 XXXX 3      h*      H   0.410
H230     4.060682571   57.961236166   10.018424659 XXXX 3      h*      H   0.410
O116    28.986071990   48.927553550   28.575878937 XXXX 3      o*      O  -0.820
H231    28.657465435   49.858025725   28.600858903 XXXX 3      h*      H   0.410
H232    28.689481782   48.696639374   27.648521913 XXXX 3      h*      H   0.410
O117    15.639315282   53.133551283   13.201251467 XXXX 3      o*      O  -0.820
H233    15.193882401   52.432170320   13.714811002 XXXX 3      h*      H   0.410
H234    16.479995539   52.624992579   13.032260381 XXXX 3      h*      H   0.410
O118    33.707623790   87.106982535   22.719031941 XXXX 3      o*      O  -0.820
H235    32.935954725   86.584104583   22.411593175 XXXX 3      h*      H   0.410
H236    33.734953217   86.925030094   23.667489781 XXXX 3      h*      H   0.410
O119     4.729850751   42.173482229   20.970697697 XXXX 3      o*      O  -0.820
H237     5.427040112   42.334651993   21.589924091 XXXX 3      h*      H   0.410
H238     4.623315502   41.207104648   21.082965556 XXXX 3      h*      H   0.410
O120     8.872804322   72.349442425    6.176910220 XXXX 3      o*      O  -0.820
H239     8.798460598   71.749713463    5.369797440 XXXX 3      h*      H   0.410
H240     9.512318583   71.893720529    6.672721176 XXXX 3      h*      H   0.410
O121    12.398967112   68.499601466   28.044147721 XXXX 3      o*      O  -0.820
H241    13.367063755   68.304708253   28.171966438 XXXX 3      h*      H   0.410
H242    12.362103323   68.311664436   27.107392575 XXXX 3      h*      H   0.410
O122     4.356508826   67.562107558   21.651560565 XXXX 3      o*      O  -0.820
H243     4.865150947   67.471458669   22.435710245 XXXX 3      h*      H   0.410
H244     4.912743428   67.079249939   20.981789920 XXXX 3      h*      H   0.410
O123     1.849276983   67.975446350   10.090106850 XXXX 3      o*      O  -0.820
H245     1.070621812   68.171630976    9.520689740 XXXX 3      h*      H   0.410
H246     1.664256888   67.133210264   10.558272344 XXXX 3      h*      H   0.410
O124     9.439357644   44.573583214   19.110001416 XXXX 3      o*      O  -0.820
H247    10.387738856   44.879859964   19.211208904 XXXX 3      h*      H   0.410
H248     9.231757597   44.333551850   20.027393991 XXXX 3      h*      H   0.410
O125     2.842393832   49.355012479   12.394224988 XXXX 3      o*      O  -0.820
H249     2.339750086   48.796683863   13.109622699 XXXX 3      h*      H   0.410
H250     3.345350034   48.633589063   11.862639808 XXXX 3      h*      H   0.410
O126     1.306992223   61.474975433   22.678357388 XXXX 3      o*      O  -0.820
O127    17.602027199   91.818371014   22.200307251 XXXX 3      o*      O  -0.820
O128    19.090078182   66.245176682   16.058754668 XXXX 3      o*      O  -0.820
H251     0.487170329   60.938038401   22.516039495 XXXX 3      h*      H   0.410
H252    18.194816308   91.847312979   21.338317324 XXXX 3      h*      H   0.410
H253    18.698053603   65.676374741   16.750379177 XXXX 3      h*      H   0.410
H254     1.823589931   61.412348512   21.836140630 XXXX 3      h*      H   0.410
H255    17.848134306   90.883499581   22.409380922 XXXX 3      h*      H   0.410
H256    19.978404690   66.314489305   16.446824852 XXXX 3      h*      H   0.410
O129     6.893909352   79.658033383    7.206027546 XXXX 3      o*      O  -0.820
O130    23.427603013   65.360467025   13.864110464 XXXX 3      o*      O  -0.820
O131     6.389825960   83.422583793   27.399662204 XXXX 3      o*      O  -0.820
O132     6.080744883   91.121975754   28.176010957 XXXX 3      o*      O  -0.820
O133     7.878205139   47.089766120   21.602418886 XXXX 3      o*      O  -0.820
H257     6.280434813   79.648528024    6.445473294 XXXX 3      h*      H   0.410
H258    22.483334464   65.477640556   14.036820844 XXXX 3      h*      H   0.410
H259     5.592394917   83.767784118   27.940910398 XXXX 3      h*      H   0.410
H260     5.392869904   91.085652383   28.927411732 XXXX 3      h*      H   0.410
H261     7.968708869   46.160604402   22.007964716 XXXX 3      h*      H   0.410
H262     6.773574390   78.713192876    7.380873808 XXXX 3      h*      H   0.410
H263    23.587686528   64.731006881   14.594466360 XXXX 3      h*      H   0.410
H264     7.035084324   84.103905113   27.699547574 XXXX 3      h*      H   0.410
H265     5.626728012   90.478093639   27.474230704 XXXX 3      h*      H   0.410
H266     7.582885108   47.537415779   22.423755215 XXXX 3      h*      H   0.410
O134    17.728222099   56.641128351   19.730079485 XXXX 3      o*      O  -0.820
H267    17.555422895   57.323940065   20.539538597 XXXX 3      h*      H   0.410
H268    18.578033947   56.973981500   19.416520425 XXXX 3      h*      H   0.410
O135    13.364387170   85.620926594   18.017676773 XXXX 3      o*      O  -0.820
O136     3.083343439   63.401002294   16.255612494 XXXX 3      o*      O  -0.820
H269    12.527009560   85.141531132   18.172527224 XXXX 3      h*      H   0.410
H270     3.814995583   62.707642857   16.179499234 XXXX 3      h*      H   0.410
H271    13.856940588   84.735126288   18.130673050 XXXX 3      h*      H   0.410
H272     2.326720592   62.849757967   16.023482665 XXXX 3      h*      H   0.410
O137    22.310577346   77.851977402    5.467697527 XXXX 3      o*      O  -0.820
O138    11.636368361   91.577321903   13.301408443 XXXX 3      o*      O  -0.820
H273    22.659830676   78.504123743    6.122404968 XXXX 3      h*      H   0.410
H274    11.510279796   90.651969842   13.723029304 XXXX 3      h*      H   0.410
H275    22.184555207   77.088293355    6.106218190 XXXX 3      h*      H   0.410
H276    11.481051546   91.259231646   12.421773686 XXXX 3      h*      H   0.410
O139    23.111916471   70.339763468    9.218677014 XXXX 3      o*      O  -0.820
H277    23.614105432   69.535823445    8.996802119 XXXX 3      h*      H   0.410
H278    22.477005510   70.280772254    8.471029899 XXXX 3      h*      H   0.410
O140    12.144670289   48.572907194   26.433495008 XXXX 3      o*      O  -0.820
H279    12.907974162   48.029028499   26.609036968 XXXX 3      h*      H   0.410
H280    11.643347382   48.345535644   27.191657399 XXXX 3      h*      H   0.410
O141    20.297990540   77.297897410   19.325298927 XXXX 3      o*      O  -0.820
H281    20.012545608   76.420032126   19.504813780 XXXX 3      h*      H   0.410
H282    20.331264816   77.211604582   18.293714570 XXXX 3      h*      H   0.410
O142    16.483522104   39.205455406   24.757014397 XXXX 3      o*      O  -0.820
H283    16.334621503   38.800398471   23.877907463 XXXX 3      h*      H   0.410
H284    17.344275090   38.852323335   25.008772487 XXXX 3      h*      H   0.410
O143     5.586563027   74.193800345    6.451216149 XXXX 3      o*      O  -0.820
H285     5.744769387   73.267172716    6.745523387 XXXX 3      h*      H   0.410
H286     5.786306863   74.105383367    5.488314110 XXXX 3      h*      H   0.410
O144     2.272662547   68.139610767   15.847711336 XXXX 3      o*      O  -0.820
H287     2.891563775   67.721492706   16.508705291 XXXX 3      h*      H   0.410
H288     1.564103071   67.509012957   15.640077564 XXXX 3      h*      H   0.410
O145     9.477872839   45.678572226   26.997569531 XXXX 3      o*      O  -0.820
H289    10.336217781   45.290360549   27.315552509 XXXX 3      h*      H   0.410
H290     9.237880434   44.976361493   26.358757837 XXXX 3      h*      H   0.410
O146     9.787928605   35.667963733   11.409010015 XXXX 3      o*      O  -0.820
H291     8.844289630   35.330956034   11.426121098 XXXX 3      h*      H   0.410
H292     9.763644361   36.269195270   10.621561151 XXXX 3      h*      H   0.410
O147    13.815188037   76.109816288    7.184223927 XXXX 3      o*      O  -0.820
H293    14.221141192   76.141828035    8.093317837 XXXX 3      h*      H   0.410
H294    14.615040920   76.044868446    6.624433152 XXXX 3      h*      H   0.410
O148    16.448661405   39.842891276   28.004512690 XXXX 3      o*      O  -0.820
H295    16.037174422   38.938249960   27.874342092 XXXX 3      h*      H   0.410
H296    16.637759019   39.804202399   28.931249135 XXXX 3      h*      H   0.410
O149    26.879377429   86.880797101   26.258849486 XXXX 3      o*      O  -0.820
H297    26.907547592   87.871920369   26.213674556 XXXX 3      h*      H   0.410
H298    27.192468823   86.683417420   25.351286133 XXXX 3      h*      H   0.410
O150    15.413579150   54.898710201   15.355118211 XXXX 3      o*      O  -0.820
H299    15.950175781   54.944002717   16.200352015 XXXX 3      h*      H   0.410
H300    16.081249024   54.547088384   14.742358022 XXXX 3      h*      H   0.410
O151    12.413813755   73.107741745   25.389027987 XXXX 3      o*      O  -0.820
H301    13.309309919   72.725883118   25.115719701 XXXX 3      h*      H   0.410
H302    11.987352871   72.285129028   25.744367296 XXXX 3      h*      H   0.410
O152    23.907145366   75.970960238   25.572303658 XXXX 3      o*      O  -0.820
O153    28.195735525   71.313328083   25.443966239 XXXX 3      o*      O  -0.820
H303    23.224101179   75.819957175   24.876906287 XXXX 3      h*      H   0.410
H304    28.740605047   71.847848808   24.857138028 XXXX 3      h*      H   0.410
H305    24.414514521   75.150612973   25.484542117 XXXX 3      h*      H   0.410
H306    27.839378605   70.583473770   24.854722542 XXXX 3      h*      H   0.410
O154    29.850950576   34.487852133   10.637816144 XXXX 3      o*      O  -0.820
H307    29.978026920   34.595870724    9.655479752 XXXX 3      h*      H   0.410
H308    30.340524475   33.583226293   10.595749627 XXXX 3      h*      H   0.410
O155    10.837664137   44.398946027   24.282985367 XXXX 3      o*      O  -0.820
H309    10.713435903   43.697946377   24.942028412 XXXX 3      h*      H   0.410
H310    11.041891411   43.873357538   23.457718487 XXXX 3      h*      H   0.410
O156    16.838905626   71.496242315   19.932648226 XXXX 3      o*      O  -0.820
H311    17.186083331   70.545879470   19.845260145 XXXX 3      h*      H   0.410
H312    17.010706773   71.648054756   20.844145741 XXXX 3      h*      H   0.410
O157    26.501496947   74.823595137   11.738578074 XXXX 3      o*      O  -0.820
H313    27.380654622   74.399432941   11.752321552 XXXX 3      h*      H   0.410
H314    26.819220094   75.594784450   11.232605887 XXXX 3      h*      H   0.410
O158     7.376428668   74.506345483   17.011339949 XXXX 3      o*      O  -0.820
H315     6.495446503   74.316754706   17.316079709 XXXX 3      h*      H   0.410
H316     7.816558264   73.615386870   17.036875785 XXXX 3      h*      H   0.410
O159     9.030226192   46.494617505   17.123249998 XXXX 3      o*      O  -0.820
H317     8.658443739   45.936886326   17.799794870 XXXX 3      h*      H   0.410
H318     8.194289745   46.910929376   16.793080490 XXXX 3      h*      H   0.410
O160    13.099449345   44.355707853    3.386662763 XXXX 3      o*      O  -0.820
H319    13.265826543   44.608890153    4.269142532 XXXX 3      h*      H   0.410
H320    12.637973819   43.450570392    3.566975434 XXXX 3      h*      H   0.410
O161     1.644639305   41.518608141   12.483789854 XXXX 3      o*      O  -0.820
H321     1.136935246   42.307239544   12.878384995 XXXX 3      h*      H   0.410
H322     1.503947363   41.671966058   11.528437903 XXXX 3      h*      H   0.410
O162     0.324411699   79.960918164   14.192910341 XXXX 3      o*      O  -0.820
H323     0.145374052   78.959777068   14.261820589 XXXX 3      h*      H   0.410
H324     1.293324474   79.847301403   14.469796263 XXXX 3      h*      H   0.410
O163    -1.000295186   57.081714418    7.454559527 XXXX 3      o*      O  -0.820
O164    17.682392369   36.551986038   25.674228463 XXXX 3      o*      O  -0.820
O165     5.501337548   54.093519957    1.149151740 XXXX 3      o*      O  -0.820
O166    -1.548011782   56.812361021   25.291224323 XXXX 3      o*      O  -0.820
O167    27.914038080   43.996205547   28.429716280 XXXX 3      o*      O  -0.820
O168     6.388166812   38.766073231   28.622184894 XXXX 3      o*      O  -0.820
H325    -0.147459656   57.397033269    7.882680133 XXXX 3      h*      H   0.410
H326    18.168605221   36.442430496   26.490575028 XXXX 3      h*      H   0.410
H327     5.581466097   53.409188946    0.457948574 XXXX 3      h*      H   0.410
H328    -1.772212242   56.237010319   24.522400399 XXXX 3      h*      H   0.410
H329    28.096121670   44.337426499   29.366888034 XXXX 3      h*      H   0.410
H330     5.937828857   38.901581033   29.458153279 XXXX 3      h*      H   0.410
H331    -1.367922698   58.002793547    7.537863508 XXXX 3      h*      H   0.410
H332    16.878890099   36.910936706   26.114582781 XXXX 3      h*      H   0.410
H333     6.450321978   54.283044314    1.074417124 XXXX 3      h*      H   0.410
H334    -0.898447066   56.201993851   25.705538360 XXXX 3      h*      H   0.410
H335    27.520441191   43.102700568   28.635564240 XXXX 3      h*      H   0.410
H336     6.997643922   39.564851115   28.689718973 XXXX 3      h*      H   0.410
O169    -1.116283760   42.780861504   17.772030873 XXXX 3      o*      O  -0.820
O170     0.396514065   58.420533387   16.206399931 XXXX 3      o*      O  -0.820
O171     8.436343557   55.251784877    5.489473842 XXXX 3      o*      O  -0.820
O172     6.666952697   79.397651242   15.063179695 XXXX 3      o*      O  -0.820
H337    -1.449540007   42.794373473   18.749970521 XXXX 3      h*      H   0.410
H338     1.046772180   57.773418947   16.576301036 XXXX 3      h*      H   0.410
H339     9.004472132   54.541710878    5.032779504 XXXX 3      h*      H   0.410
H340     7.639648994   79.664407742   15.140260592 XXXX 3      h*      H   0.410
H341    -0.291921194   42.364394463   17.847155661 XXXX 3      h*      H   0.410
H342    -0.268488075   57.767459585   15.951522653 XXXX 3      h*      H   0.410
H343     8.271818332   54.875509434    6.436317103 XXXX 3      h*      H   0.410
H344     6.852396411   78.801330160   14.269508042 XXXX 3      h*      H   0.410
O173     5.599591095   71.600859960   14.547979193 XXXX 3      o*      O  -0.820
H345     5.617772174   70.615277369   14.417988133 XXXX 3      h*      H   0.410
H346     4.636632202   71.665535012   14.372777346 XXXX 3      h*      H   0.410
O174    15.196884631   44.538586235   29.469475110 XXXX 3      o*      O  -0.820
H347    15.955786999   44.694091548   28.912112193 XXXX 3      h*      H   0.410
H348    15.033990376   43.609943189   29.339337129 XXXX 3      h*      H   0.410
O175     8.073260975   59.318033343    1.748524546 XXXX 3      o*      O  -0.820
H349     8.530021252   58.496613088    1.586245845 XXXX 3      h*      H   0.410
H350     8.365430161   59.393232704    2.653122962 XXXX 3      h*      H   0.410
O176    12.863235609   93.014937325   10.570497720 XXXX 3      o*      O  -0.820
O177     0.358758090   81.477845725   -2.655276510 XXXX 3      o*      O  -0.820
H351    13.038049684   93.683064131    9.889203592 XXXX 3      h*      H   0.410
H352    -0.060302364   81.007458817   -3.450017483 XXXX 3      h*      H   0.410
H353    12.652646724   92.172173533   10.004177899 XXXX 3      h*      H   0.410
H354     1.155281681   81.843721409   -3.031470425 XXXX 3      h*      H   0.410
O178    -1.993132845   69.866064889   20.466386052 XXXX 3      o*      O  -0.820
H355    -2.867962281   69.333328937   20.616522097 XXXX 3      h*      H   0.410
H356    -1.739937334   69.747125340   19.528576270 XXXX 3      h*      H   0.410
O179     9.001872304   57.568097569    3.818592998 XXXX 3      o*      O  -0.820
O180    24.126317728   36.605736292    3.349793376 XXXX 3      o*      O  -0.820
O181    16.257668362   84.223918548   15.226254576 XXXX 3      o*      O  -0.820
O182    12.735641949   38.233037829   14.995475737 XXXX 3      o*      O  -0.820
H357     9.897691588   57.426332208    3.361037757 XXXX 3      h*      H   0.410
H358    23.907237971   36.087751613    2.528140276 XXXX 3      h*      H   0.410
H359    16.588921423   84.350659673   16.140530776 XXXX 3      h*      H   0.410
H360    12.795099417   37.388179109   15.537062207 XXXX 3      h*      H   0.410
H361     8.989341325   56.982473109    4.621266347 XXXX 3      h*      H   0.410
H362    24.700344632   35.884746047    3.805703329 XXXX 3      h*      H   0.410
H363    16.419720188   83.299841485   14.908949354 XXXX 3      h*      H   0.410
H364    13.370579330   38.008978868   14.355728536 XXXX 3      h*      H   0.410
O183     7.595349829   33.547999034   18.151614397 XXXX 3      o*      O  -0.820
H365     6.934506769   34.293022742   18.214546583 XXXX 3      h*      H   0.410
H366     8.411932149   34.066292079   17.971982567 XXXX 3      h*      H   0.410
O184    23.257506966   52.436606281   -1.786711785 XXXX 3      o*      O  -0.820
O185    26.531204752   76.652150407   27.903137599 XXXX 3      o*      O  -0.820
O186    24.485873752   64.217531191   16.477854814 XXXX 3      o*      O  -0.820
O187    -0.848503672   77.291825280   13.791073957 XXXX 3      o*      O  -0.820
H367    22.930145778   51.541533608   -1.574497188 XXXX 3      h*      H   0.410
H368    27.201101925   76.420500342   27.289458394 XXXX 3      h*      H   0.410
H369    25.207580329   63.651062547   16.101657492 XXXX 3      h*      H   0.410
H370    -1.805523199   77.024616326   13.805121628 XXXX 3      h*      H   0.410
H371    22.444901407   52.948666376   -2.041996123 XXXX 3      h*      H   0.410
H372    26.313183339   75.824816909   28.262729134 XXXX 3      h*      H   0.410
H373    24.488892254   63.673146840   17.319517526 XXXX 3      h*      H   0.410
H374    -0.431622512   76.536378956   14.354038266 XXXX 3      h*      H   0.410
O188     8.448565294   82.702801218   18.989961312 XXXX 3      o*      O  -0.820
H375     8.093203036   82.763937992   19.914007881 XXXX 3      h*      H   0.410
H376     8.422923156   81.754046157   18.935997675 XXXX 3      h*      H   0.410
O189    13.958212807   45.821358931   10.301655441 XXXX 3      o*      O  -0.820
O190    11.196928041   59.394353061   11.955785300 XXXX 3      o*      O  -0.820
H377    14.218664631   44.888328306   10.624034714 XXXX 3      h*      H   0.410
H378    12.003452326   58.986011794   11.698895394 XXXX 3      h*      H   0.410
H379    14.618232470   46.361456289   10.823480548 XXXX 3      h*      H   0.410
H380    10.612419018   58.585742623   11.874325141 XXXX 3      h*      H   0.410
O191    16.175186556   39.005260112    0.067720227 XXXX 3      o*      O  -0.820
O192     3.339464986   64.714447124   28.824281574 XXXX 3      o*      O  -0.820
O193     4.881367585   71.224792810   18.688210120 XXXX 3      o*      O  -0.820
H381    16.855432309   39.152407345    0.743400099 XXXX 3      h*      H   0.410
H382     3.130693258   64.353090705   27.976871341 XXXX 3      h*      H   0.410
H383     4.078111720   71.195527686   19.267319099 XXXX 3      h*      H   0.410
H384    15.381656801   39.251664892    0.618890703 XXXX 3      h*      H   0.410
H385     2.571218956   65.320975250   29.012983745 XXXX 3      h*      H   0.410
H386     5.279964340   70.393624726   18.953241548 XXXX 3      h*      H   0.410
O194    11.724195523   74.306854379   18.339824982 XXXX 3      o*      O  -0.820
H387    11.367392610   74.690227088   17.522031287 XXXX 3      h*      H   0.410
H388    12.036148157   73.433511877   18.030412162 XXXX 3      h*      H   0.410
O195    24.087738338   67.955461561   22.750802088 XXXX 3      o*      O  -0.820
H389    24.271833124   68.766550899   22.216831087 XXXX 3      h*      H   0.410
H390    24.609364176   67.280339797   22.195707098 XXXX 3      h*      H   0.410
O196    27.029478354   37.356128375   18.665753971 XXXX 3      o*      O  -0.820
H391    26.111264769   37.032848266   18.643624128 XXXX 3      h*      H   0.410
H392    27.468067143   36.443740941   18.583132316 XXXX 3      h*      H   0.410
O197     4.344194863   68.098322701   28.573800019 XXXX 3      o*      O  -0.820
H393     5.107156311   67.717320891   28.068959081 XXXX 3      h*      H   0.410
H394     3.930493911   67.264377461   28.891382513 XXXX 3      h*      H   0.410
O198    17.258916607   59.659813430   16.778403870 XXXX 3      o*      O  -0.820
H395    16.289981973   59.728235077   16.502887474 XXXX 3      h*      H   0.410
H396    17.406235092   58.693998841   16.830653276 XXXX 3      h*      H   0.410
O199    27.855414765   36.171715708   27.737513899 XXXX 3      o*      O  -0.820
H397    27.350642871   35.315653422   27.563290047 XXXX 3      h*      H   0.410
H398    27.963281221   36.513294251   26.805011316 XXXX 3      h*      H   0.410
O200    21.674740365   78.629734970    2.759744026 XXXX 3      o*      O  -0.820
H399    20.741248936   78.381572880    2.586909962 XXXX 3      h*      H   0.410
H400    21.772366773   78.068280140    3.585201884 XXXX 3      h*      H   0.410
O201    14.399296307   37.825173377    7.099983073 XXXX 3      o*      O  -0.820
H401    14.050598154   38.361635099    6.309177840 XXXX 3      h*      H   0.410
H402    13.494897744   37.734660137    7.580295068 XXXX 3      h*      H   0.410
O202    14.787159703   67.104993235   28.306754325 XXXX 3      o*      O  -0.820
H403    14.976708054   66.345135893   27.754039751 XXXX 3      h*      H   0.410
H404    15.455420721   67.015860246   29.011809412 XXXX 3      h*      H   0.410
O203    25.471314476   52.295998910   12.892486030 XXXX 3      o*      O  -0.820
O204     1.940756022   48.368208325   26.535259532 XXXX 3      o*      O  -0.820
H405    25.390427261   52.187085410   11.935704386 XXXX 3      h*      H   0.410
H406     1.542462046   47.957959761   25.705030186 XXXX 3      h*      H   0.410
H407    26.263831592   51.772466238   13.025575995 XXXX 3      h*      H   0.410
H408     1.460923225   47.850989897   27.173590869 XXXX 3      h*      H   0.410
O205    26.150628338   65.089802834    9.200878901 XXXX 3      o*      O  -0.820
H409    26.719367214   65.609606933    9.887510460 XXXX 3      h*      H   0.410
H410    25.445644049   64.855303738    9.825669700 XXXX 3      h*      H   0.410
O206    26.898091544   35.246378302    8.358808691 XXXX 3      o*      O  -0.820
H411    26.915686205   34.676889998    9.197024854 XXXX 3      h*      H   0.410
H412    26.416102691   34.639205426    7.759013408 XXXX 3      h*      H   0.410
O207     8.601522984   86.043443671   13.336478409 XXXX 3      o*      O  -0.820
H413     9.290787210   85.335641834   13.437719673 XXXX 3      h*      H   0.410
H414     8.615459081   86.396163568   14.216192940 XXXX 3      h*      H   0.410
O208     1.122052239   59.923456302   18.977308938 XXXX 3      o*      O  -0.820
H415     2.039716393   59.820890592   18.663347709 XXXX 3      h*      H   0.410
H416     0.823158696   58.984629057   18.998042776 XXXX 3      h*      H   0.410
O209    21.312686781   40.306112806   28.539233114 XXXX 3      o*      O  -0.820
H417    21.231229003   39.437471405   28.003984935 XXXX 3      h*      H   0.410
H418    20.838512495   39.964172405   29.350406411 XXXX 3      h*      H   0.410
O210    10.120141114   31.698748449   18.847684514 XXXX 3      o*      O  -0.820
H419    10.663640312   30.830424134   18.937289746 XXXX 3      h*      H   0.410
H420     9.726388695   31.552135400   19.740860444 XXXX 3      h*      H   0.410
O211    14.828226435   84.258044769   29.072871578 XXXX 3      o*      O  -0.820
H421    13.927907276   84.368060057   29.313389320 XXXX 3      h*      H   0.410
H422    15.192834822   84.069858614   29.934477765 XXXX 3      h*      H   0.410
O212    27.406895696   85.619836884   23.354837856 XXXX 3      o*      O  -0.820
H423    26.529335050   86.007797556   23.051170103 XXXX 3      h*      H   0.410
H424    27.424264562   84.717858964   22.923920720 XXXX 3      h*      H   0.410
O213    24.877936451   81.287748649   27.893666055 XXXX 3      o*      O  -0.820
H425    25.381958759   80.406343496   27.917741362 XXXX 3      h*      H   0.410
H426    24.899662728   81.431330327   28.834887092 XXXX 3      h*      H   0.410
O214    16.573375891   45.678170997    6.878115665 XXXX 3      o*      O  -0.820
H427    16.455327647   45.359848113    7.799067664 XXXX 3      h*      H   0.410
H428    15.784571273   45.249143285    6.499007497 XXXX 3      h*      H   0.410
O215     4.974090049   40.376147901   23.410415843 XXXX 3      o*      O  -0.820
H429     4.689601889   39.877268632   22.609017445 XXXX 3      h*      H   0.410
H430     5.701553217   39.817432058   23.774759956 XXXX 3      h*      H   0.410
O216    18.428143966   53.777875857   15.195337482 XXXX 3      o*      O  -0.820
H431    18.154547844   52.864803835   15.343911938 XXXX 3      h*      H   0.410
H432    19.160364813   53.810966807   15.825576216 XXXX 3      h*      H   0.410
O217    10.683401538   88.873920045   14.147306622 XXXX 3      o*      O  -0.820
O218     2.128197883   91.075475628   27.309870490 XXXX 3      o*      O  -0.820
H433    10.730414213   88.763600577   15.125869775 XXXX 3      h*      H   0.410
H434     1.876604378   90.164992208   27.495279788 XXXX 3      h*      H   0.410
H435    11.389387805   88.129185798   14.003748026 XXXX 3      h*      H   0.410
H436     2.245717692   91.215516173   28.275768300 XXXX 3      h*      H   0.410
O219     2.263199983   77.921800946    8.263547732 XXXX 3      o*      O  -0.820
H437     2.556943252   77.061120668    7.902458861 XXXX 3      h*      H   0.410
H438     2.833655660   78.039001960    9.061829748 XXXX 3      h*      H   0.410
O220     8.700814705   46.213644026   29.937292255 XXXX 3      o*      O  -0.820
H439     8.794759182   45.473516920   30.576521910 XXXX 3      h*      H   0.410
H440     8.461253420   45.745181623   29.123809630 XXXX 3      h*      H   0.410
O221    15.844491472   40.407176391   18.097964201 XXXX 3      o*      O  -0.820
H441    16.021740646   39.675125262   17.523101433 XXXX 3      h*      H   0.410
H442    16.179479407   40.177116510   18.950374064 XXXX 3      h*      H   0.410
O222    14.784769450   87.188741964   20.531616867 XXXX 3      o*      O  -0.820
H443    15.683178726   87.636930644   20.435413039 XXXX 3      h*      H   0.410
H444    15.035241484   86.470159824   21.129295770 XXXX 3      h*      H   0.410
O223     3.433544732   65.971932032   17.345028483 XXXX 3      o*      O  -0.820
H445     2.824876909   65.752417671   18.117022962 XXXX 3      h*      H   0.410
H446     3.288429316   65.150633204   16.873329485 XXXX 3      h*      H   0.410
O224    27.896325259   44.877733649   20.390692907 XXXX 3      o*      O  -0.820
O225    20.629046367   48.944833677   16.070296869 XXXX 3      o*      O  -0.820
H447    26.962226950   44.689077769   20.610308672 XXXX 3      h*      H   0.410
H448    20.348059009   48.207978957   15.550487085 XXXX 3      h*      H   0.410
H449    28.422693009   44.593115827   21.202803769 XXXX 3      h*      H   0.410
H450    21.574124603   48.674318878   16.191704428 XXXX 3      h*      H   0.410
O226    14.853362894   64.706691256   20.025709583 XXXX 3      o*      O  -0.820
H451    14.044657395   64.193949463   20.415023135 XXXX 3      h*      H   0.410
H452    14.625826400   64.727225600   19.081026421 XXXX 3      h*      H   0.410
O227    17.385986764   32.424029028   18.681749314 XXXX 3      o*      O  -0.820
H453    16.565140803   31.935282298   18.825132506 XXXX 3      h*      H   0.410
H454    17.071060689   33.080387496   18.047980495 XXXX 3      h*      H   0.410
O228    10.225195058   66.096042540   29.305435522 XXXX 3      o*      O  -0.820
H455    10.229570628   65.468144172   30.087042967 XXXX 3      h*      H   0.410
H456    10.232866642   65.435938699   28.586681839 XXXX 3      h*      H   0.410
O229    -0.836044049   50.280119143    5.431666008 XXXX 3      o*      O  -0.820
O230    -1.046556424   40.365142469    6.566996418 XXXX 3      o*      O  -0.820
O231     0.865211999   86.811997741    7.982571499 XXXX 3      o*      O  -0.820
O232    22.465296185   83.501308887    8.987874112 XXXX 3      o*      O  -0.820
O233     9.772966875   40.933150598    9.234112777 XXXX 3      o*      O  -0.820
O234     2.150941830   52.617093269   -0.488309458 XXXX 3      o*      O  -0.820
H457    -1.305608895   49.970149922    4.579037072 XXXX 3      h*      H   0.410
H458    -0.423053115   39.887364617    5.985148537 XXXX 3      h*      H   0.410
H459     0.673096395   86.204446721    7.241115845 XXXX 3      h*      H   0.410
H460    22.292030634   83.717466835    9.899296240 XXXX 3      h*      H   0.410
H461    10.161021343   40.553960549    8.454093388 XXXX 3      h*      H   0.410
H462     1.986012316   51.897728010   -1.155486891 XXXX 3      h*      H   0.410
H463    -1.469943495   49.951557604    6.180613352 XXXX 3      h*      H   0.410
H464    -1.369897103   39.570755986    7.150311310 XXXX 3      h*      H   0.410
H465     0.537049893   87.545972958    7.495911437 XXXX 3      h*      H   0.410
H466    23.464634135   83.283460519    9.088714978 XXXX 3      h*      H   0.410
H467     8.761704998   41.005498913    8.978994609 XXXX 3      h*      H   0.410
H468     3.147349213   52.725046765   -0.542061244 XXXX 3      h*      H   0.410
O235    29.580885560   78.556735908   27.338806563 XXXX 3      o*      O  -0.820
O236    22.012651040   81.683163277   16.815457409 XXXX 3      o*      O  -0.820
O237    15.482522531   49.754313699   18.017968286 XXXX 3      o*      O  -0.820
O238    22.894237218   46.314108649    9.879007243 XXXX 3      o*      O  -0.820
H469    30.258798359   79.194533437   27.056643817 XXXX 3      h*      H   0.410
H470    21.064950729   81.776357125   16.966090107 XXXX 3      h*      H   0.410
H471    15.181567421   49.581396713   18.898720086 XXXX 3      h*      H   0.410
H472    23.187531568   45.514863604   10.415428131 XXXX 3      h*      H   0.410
H473    29.463874394   77.938595199   26.537638033 XXXX 3      h*      H   0.410
H474    21.918355562   81.242152677   15.974098652 XXXX 3      h*      H   0.410
H475    16.365116150   49.332152234   18.043308397 XXXX 3      h*      H   0.410
H476    22.224243512   45.839150438    9.311478893 XXXX 3      h*      H   0.410
O239     4.704331822   51.611249923   13.048000610 XXXX 3      o*      O  -0.820
O240    15.075563853   83.563321746    1.474448679 XXXX 3      o*      O  -0.820
H477     4.560243590   50.768501773   12.656421193 XXXX 3      h*      H   0.410
H478    14.502255545   82.787889103    1.156725275 XXXX 3      h*      H   0.410
H479     3.947392855   51.480622833   13.664331204 XXXX 3      h*      H   0.410
H480    15.858854578   82.979957191    1.677764972 XXXX 3      h*      H   0.410
O241    10.521268015   56.828868181    7.350241492 XXXX 3      o*      O  -0.820
H481    11.043951942   56.151616617    7.978964691 XXXX 3      h*      H   0.410
H482    10.490289746   56.188739940    6.596892692 XXXX 3      h*      H   0.410
O242    25.047272889   34.301760308   29.211722896 XXXX 3      o*      O  -0.820
O243    15.686295989   68.098651285   23.014677721 XXXX 3      o*      O  -0.820
O244     3.317444872   88.135408388   16.864895617 XXXX 3      o*      O  -0.820
H483    25.584079247   33.481440775   29.015729164 XXXX 3      h*      H   0.410
H484    16.441107999   67.507550724   22.823143084 XXXX 3      h*      H   0.410
H485     3.285214411   87.233522709   16.594763476 XXXX 3      h*      H   0.410
H486    24.948358013   34.756603473   28.372551429 XXXX 3      h*      H   0.410
H487    16.053907464   68.903371811   23.452445726 XXXX 3      h*      H   0.410
H488     2.609736163   88.471637118   16.243061438 XXXX 3      h*      H   0.410
O245    31.749391344   76.710707983   17.418706737 XXXX 3      o*      O  -0.820
H489    32.379805161   76.567188826   16.713865644 XXXX 3      h*      H   0.410
H490    31.116548496   75.980535984   17.178325108 XXXX 3      h*      H   0.410
O246    10.082066465   40.920930237   23.908187963 XXXX 3      o*      O  -0.820
O247    15.859971248   66.807104739    0.429100785 XXXX 3      o*      O  -0.820
O248    18.852668166   41.387396163   26.876997150 XXXX 3      o*      O  -0.820
O249    19.705990085   46.298230000   19.573828699 XXXX 3      o*      O  -0.820
O250    13.920712565   47.196270647   14.967595930 XXXX 3      o*      O  -0.820
O251    12.938443828   91.471686669   30.813046562 XXXX 3      o*      O  -0.820
H491    10.110671660   41.013499337   22.893087071 XXXX 3      h*      H   0.410
H492    16.703264603   66.266628856    0.557725632 XXXX 3      h*      H   0.410
H493    19.619303016   40.869179179   26.576272839 XXXX 3      h*      H   0.410
H494    19.930864656   45.337164435   19.699845551 XXXX 3      h*      H   0.410
H495    12.970471679   47.441182074   14.986370456 XXXX 3      h*      H   0.410
H496    13.528108979   91.286733593   31.603773197 XXXX 3      h*      H   0.410
H497    10.526354913   40.065453656   23.909950616 XXXX 3      h*      H   0.410
H498    15.155998373   66.242102114    0.866604547 XXXX 3      h*      H   0.410
H499    18.355711846   40.661795268   27.272688279 XXXX 3      h*      H   0.410
H500    20.573851055   46.800468534   19.624694151 XXXX 3      h*      H   0.410
H501    14.362541797   47.807683024   14.300054017 XXXX 3      h*      H   0.410
H502    12.511076625   90.608350999   30.634902439 XXXX 3      h*      H   0.410
O252    24.886204800   60.761269822   26.117571640 XXXX 3      o*      O  -0.820
H503    24.373629305   59.941233754   26.242587855 XXXX 3      h*      H   0.410
H504    25.724006836   60.440389202   25.683018599 XXXX 3      h*      H   0.410
O253    25.760822646   73.917313029   25.194004405 XXXX 3      o*      O  -0.820
O254    29.753011705   49.294766641   18.746914154 XXXX 3      o*      O  -0.820
O255    15.372176550   66.666514939    8.719770962 XXXX 3      o*      O  -0.820
O256    25.252198881   55.938758473    6.342978654 XXXX 3      o*      O  -0.820
O257    28.051105181   82.569789975   10.535860347 XXXX 3      o*      O  -0.820
O258    30.685692069   86.601603709    3.485883427 XXXX 3      o*      O  -0.820
H505    25.363234840   72.978959267   25.006002439 XXXX 3      h*      H   0.410
H506    28.921050388   48.907781110   18.454115436 XXXX 3      h*      H   0.410
H507    15.741863623   66.964223116    9.561790315 XXXX 3      h*      H   0.410
H508    24.706622973   55.093942815    6.404614821 XXXX 3      h*      H   0.410
H509    27.998740412   82.348953411    9.548081051 XXXX 3      h*      H   0.410
H510    29.916847090   86.152460794    4.003472599 XXXX 3      h*      H   0.410
H511    26.725393318   73.610665233   25.360435786 XXXX 3      h*      H   0.410
H512    29.896191533   48.632448701   19.392643252 XXXX 3      h*      H   0.410
H513    16.052719340   65.976428349    8.492244430 XXXX 3      h*      H   0.410
H514    24.928918024   56.315032411    5.492199161 XXXX 3      h*      H   0.410
H515    28.954898151   82.822576803   10.733756916 XXXX 3      h*      H   0.410
H516    31.187384193   85.793528009    3.231473240 XXXX 3      h*      H   0.410
O259    29.249482449   37.292141115   16.386219616 XXXX 3      o*      O  -0.820
O260    31.221929092   62.628664143   19.471033539 XXXX 3      o*      O  -0.820
O261    20.629366928   79.044734177   27.816056455 XXXX 3      o*      O  -0.820
O262    23.672149429   41.389550925   21.403104638 XXXX 3      o*      O  -0.820
O263    28.758421136   77.113124925   25.093872644 XXXX 3      o*      O  -0.820
H517    29.078297399   36.592216334   17.067945933 XXXX 3      h*      H   0.410
H518    31.007044272   61.641317640   19.476811712 XXXX 3      h*      H   0.410
H519    21.405148481   79.079180123   28.423220432 XXXX 3      h*      H   0.410
H520    22.940581612   41.276785149   20.712858890 XXXX 3      h*      H   0.410
H521    28.212652172   77.571547777   24.501258911 XXXX 3      h*      H   0.410
H522    29.406725224   38.179852821   16.904526287 XXXX 3      h*      H   0.410
H523    32.162817664   62.731304983   19.579510230 XXXX 3      h*      H   0.410
H524    20.935947740   78.400300009   27.151492611 XXXX 3      h*      H   0.410
H525    23.176002053   40.821922203   22.025630679 XXXX 3      h*      H   0.410
H526    28.552941779   76.268492893   24.785811082 XXXX 3      h*      H   0.410
O264    -0.462695013   80.598115253   25.274553447 XXXX 3      o*      O  -0.820
H527     0.134535121   80.011435453   24.709792072 XXXX 3      h*      H   0.410
H528    -1.342058331   80.609184632   24.798868236 XXXX 3      h*      H   0.410
O265    10.962565839   39.334397885    1.536285244 XXXX 3      o*      O  -0.820
H529    10.070812755   38.980033028    1.289552125 XXXX 3      h*      H   0.410
H530    11.523809279   38.969947866    0.781870095 XXXX 3      h*      H   0.410
O266     2.976636797   42.568400274   25.074012648 XXXX 3      o*      O  -0.820
H531     3.228178871   42.042020618   25.854346615 XXXX 3      h*      H   0.410
H532     3.397248212   43.443772493   25.335700849 XXXX 3      h*      H   0.410
O267    14.353003242   79.856873960   28.399171428 XXXX 3      o*      O  -0.820
H533    13.438842196   79.505424217   28.480886115 XXXX 3      h*      H   0.410
H534    14.182563242   80.349614739   27.549726618 XXXX 3      h*      H   0.410
O268     5.986455970   68.807922991   23.986125655 XXXX 3      o*      O  -0.820
H535     6.720560825   69.314107780   23.505701097 XXXX 3      h*      H   0.410
H536     5.733349564   69.446321259   24.670731189 XXXX 3      h*      H   0.410
O269     5.563754619   47.588197615    6.919526977 XXXX 3      o*      O  -0.820
H537     4.766707247   47.232946790    6.383498784 XXXX 3      h*      H   0.410
H538     5.457744689   46.918368947    7.633206740 XXXX 3      h*      H   0.410
O270    16.108102832   85.058931489   22.420671034 XXXX 3      o*      O  -0.820
H539    15.461180047   85.065871643   23.117182116 XXXX 3      h*      H   0.410
H540    16.778871955   84.403244282   22.800549201 XXXX 3      h*      H   0.410
O271    18.721224548   82.090498601   30.108721862 XXXX 3      o*      O  -0.820
H541    19.302912889   81.921797087   29.316219115 XXXX 3      h*      H   0.410
H542    18.544996866   81.121320213   30.301618968 XXXX 3      h*      H   0.410
O272    18.260025211   61.941631111   18.166254730 XXXX 3      o*      O  -0.820
H543    18.914496913   61.335353006   18.605322424 XXXX 3      h*      H   0.410
H544    17.886835484   61.351723897   17.460298510 XXXX 3      h*      H   0.410
O273     5.629121130   38.840053906   32.786117665 XXXX 3      o*      O  -0.820
H545     4.685115007   38.895489453   32.379042818 XXXX 3      h*      H   0.410
H546     5.979471629   37.977547115   32.459373635 XXXX 3      h*      H   0.410
O274    16.162984003   62.837600469    9.376124700 XXXX 3      o*      O  -0.820
H547    16.556114052   63.752356963    9.299750967 XXXX 3      h*      H   0.410
H548    15.923952600   62.786350559   10.351527317 XXXX 3      h*      H   0.410
O275    15.985322427   45.721374031   23.984945613 XXXX 3      o*      O  -0.820
H549    15.094571521   45.465067303   23.654891719 XXXX 3      h*      H   0.410
H550    16.090415724   45.040689423   24.696703814 XXXX 3      h*      H   0.410
O276     8.640279085   57.667425450   25.629853843 XXXX 3      o*      O  -0.820
H551     8.984574824   58.443263512   25.066065104 XXXX 3      h*      H   0.410
H552     8.069921556   58.313956536   26.064531645 XXXX 3      h*      H   0.410
O277    18.250758311   69.172365513    0.690707214 XXXX 3      o*      O  -0.820
H553    19.036620586   68.568149350    0.722042639 XXXX 3      h*      H   0.410
H554    17.516732541   68.701390497    1.171979776 XXXX 3      h*      H   0.410
O278     0.398152191   84.461998010    6.677548604 XXXX 3      o*      O  -0.820
H555     0.740980290   83.621696051    7.014385432 XXXX 3      h*      H   0.410
H556     1.011862924   84.503925422    5.896762218 XXXX 3      h*      H   0.410
O279     8.392616172   40.646358990    4.585277084 XXXX 3      o*      O  -0.820
H557     9.203137001   40.100002727    4.700726018 XXXX 3      h*      H   0.410
H558     7.715892627   40.003110323    4.820538822 XXXX 3      h*      H   0.410
O280     9.376798128   83.470397020    5.182366490 XXXX 3      o*      O  -0.820
H559     9.937142778   82.683299621    5.461691948 XXXX 3      h*      H   0.410
H560     9.617939985   83.650814312    4.275467321 XXXX 3      h*      H   0.410
O281    16.204914173   48.573134289   -0.499538728 XXXX 3      o*      O  -0.820
H561    15.345550155   48.277032522   -0.894571899 XXXX 3      h*      H   0.410
H562    15.798657326   49.315195354   -0.008262179 XXXX 3      h*      H   0.410
O282    17.467850182   80.063968160   10.714545466 XXXX 3      o*      O  -0.820
H563    17.979615079   79.777589614    9.970585343 XXXX 3      h*      H   0.410
H564    16.971449522   79.307466677   11.084214489 XXXX 3      h*      H   0.410
O283    20.877147785   60.341314978   27.025932680 XXXX 3      o*      O  -0.820
H565    21.005463428   60.884309485   27.863519784 XXXX 3      h*      H   0.410
H566    20.132111015   59.768347433   27.300383193 XXXX 3      h*      H   0.410
O284     9.903319701   73.024594542   33.079557915 XXXX 3      o*      O  -0.820
O285    14.326397148   58.951247688   11.958420372 XXXX 3      o*      O  -0.820
H567     9.207688200   72.536616631   32.645549665 XXXX 3      h*      H   0.410
H568    14.480586397   58.042998244   12.233688413 XXXX 3      h*      H   0.410
H569    10.410301587   72.284650313   33.428897602 XXXX 3      h*      H   0.410
H570    15.123859851   58.958895400   11.369910759 XXXX 3      h*      H   0.410
O286    17.121183639   56.905477639   23.021936438 XXXX 3      o*      O  -0.820
H571    17.805620175   56.151281762   23.266694339 XXXX 3      h*      H   0.410
H572    16.363678907   56.256381532   22.823129199 XXXX 3      h*      H   0.410
O287     9.951163668   55.403530383   22.784050424 XXXX 3      o*      O  -0.820
H573    10.314773538   54.509982458   23.072769856 XXXX 3      h*      H   0.410
H574    10.632794508   55.731283585   22.216938218 XXXX 3      h*      H   0.410
O288    26.610009533   49.238691877   24.289314182 XXXX 3      o*      O  -0.820
H575    25.652453992   49.387162013   24.249803729 XXXX 3      h*      H   0.410
H576    26.678739652   48.418333939   23.803125094 XXXX 3      h*      H   0.410
O289    22.177303483   75.856947442   31.494225840 XXXX 3      o*      O  -0.820
H577    23.035664022   76.193831976   31.814520667 XXXX 3      h*      H   0.410
H578    22.376749666   74.866441141   31.409094764 XXXX 3      h*      H   0.410
O290    27.268920322   70.099337453   31.880534912 XXXX 3      o*      O  -0.820
H579    26.450396297   70.571040012   31.923313269 XXXX 3      h*      H   0.410
H580    27.787126033   70.911250586   31.844625230 XXXX 3      h*      H   0.410
O291     5.893176768   91.185941969   23.086353569 XXXX 3      o*      O  -0.820
O292    15.706081422   69.335504675   17.485631587 XXXX 3      o*      O  -0.820
H581     6.092479484   90.948944052   22.095316581 XXXX 3      h*      H   0.410
H582    15.609466942   69.019376479   18.440499850 XXXX 3      h*      H   0.410
H583     5.087239873   90.682534542   23.163950459 XXXX 3      h*      H   0.410
H584    15.848389679   68.479922484   17.111484482 XXXX 3      h*      H   0.410
O293    20.488929283   93.142195757   27.466148209 XXXX 3      o*      O  -0.820
H585    20.203705667   92.437079602   28.145676993 XXXX 3      h*      H   0.410
H586    20.968319736   93.802259075   28.006201960 XXXX 3      h*      H   0.410
O294     6.657413569   86.821587116   24.415288583 XXXX 3      o*      O  -0.820
H587     6.791893412   86.176908955   25.116402532 XXXX 3      h*      H   0.410
H588     7.524073850   86.756193782   24.020150477 XXXX 3      h*      H   0.410
O295     7.165694937   60.351050909   12.970270383 XXXX 3      o*      O  -0.820
O296     9.655363126   85.839686141    6.684942238 XXXX 3      o*      O  -0.820
H589     7.502755385   60.220314032   12.051425927 XXXX 3      h*      H   0.410
H590     9.610318261   85.001062480    6.143029212 XXXX 3      h*      H   0.410
H591     6.383724089   59.807552893   12.962721053 XXXX 3      h*      H   0.410
H592     9.438748179   85.428297815    7.507584183 XXXX 3      h*      H   0.410
O297    23.968868794   39.168549941   18.667440276 XXXX 3      o*      O  -0.820
H593    24.497215014   39.675574508   17.951080160 XXXX 3      h*      H   0.410
H594    24.673740564   39.236432997   19.334080909 XXXX 3      h*      H   0.410
O298    11.776922699   74.495819467   14.040354327 XXXX 3      o*      O  -0.820
H595    12.045241099   73.710636312   13.496822441 XXXX 3      h*      H   0.410
H596    12.525986434   74.586418211   14.646461786 XXXX 3      h*      H   0.410
O299    13.645907036   52.494416950   23.173359553 XXXX 3      o*      O  -0.820
O300    27.934757647   38.910338835   29.589164327 XXXX 3      o*      O  -0.820
O301    17.272947414   77.612172487    2.839095956 XXXX 3      o*      O  -0.820
O302    30.275681758   64.001533269   17.360410528 XXXX 3      o*      O  -0.820
O303     7.367093350   76.600397926   26.898752678 XXXX 3      o*      O  -0.820
O304    14.139074493   72.083029316    9.643615003 XXXX 3      o*      O  -0.820
O305     7.253170155   64.451648784   25.717035354 XXXX 3      o*      O  -0.820
H597    13.992552952   52.454818645   24.129327114 XXXX 3      h*      H   0.410
H598    27.527877982   38.110348133   29.209127885 XXXX 3      h*      H   0.410
H599    18.162585161   77.789465255    2.483143383 XXXX 3      h*      H   0.410
H600    30.574890771   63.540184308   16.522519870 XXXX 3      h*      H   0.410
H601     8.071896387   76.020530548   27.298884672 XXXX 3      h*      H   0.410
H602    15.142963991   71.893591540    9.470411873 XXXX 3      h*      H   0.410
H603     7.640948114   63.596062461   25.973312372 XXXX 3      h*      H   0.410
H604    13.167618987   51.647377141   23.116811155 XXXX 3      h*      H   0.410
H605    28.792373859   38.760418993   29.193479421 XXXX 3      h*      H   0.410
H606    17.055382231   76.650555389    2.807579510 XXXX 3      h*      H   0.410
H607    30.531470869   63.379767400   18.084377461 XXXX 3      h*      H   0.410
H608     7.380119046   76.152094552   26.033073979 XXXX 3      h*      H   0.410
H609    13.659011630   71.526059406    8.980827395 XXXX 3      h*      H   0.410
H610     8.084438034   64.845082665   25.400368728 XXXX 3      h*      H   0.410
O306    -0.033914442   73.247208014   23.797628775 XXXX 3      o*      O  -0.820
O307    27.481027120   54.422258368   26.185555076 XXXX 3      o*      O  -0.820
H611    -0.789374482   73.108674977   23.124918614 XXXX 3      h*      H   0.410
H612    27.167936076   55.175430221   25.705829466 XXXX 3      h*      H   0.410
H613     0.646175123   72.981658993   23.144772804 XXXX 3      h*      H   0.410
H614    26.610530901   53.922217141   26.283065905 XXXX 3      h*      H   0.410
O308    15.058028062   34.693575373   19.311597504 XXXX 3      o*      O  -0.820
O309    14.389986995   88.139858764   28.354621730 XXXX 3      o*      O  -0.820
O310    14.491857313   40.606104820   25.853279975 XXXX 3      o*      O  -0.820
H615    15.276010968   34.398752719   20.230651097 XXXX 3      h*      H   0.410
H616    14.171265615   87.656266634   29.196265016 XXXX 3      h*      H   0.410
H617    14.437408470   40.663270181   24.905535479 XXXX 3      h*      H   0.410
H618    14.758428402   33.884288355   18.876515014 XXXX 3      h*      H   0.410
H619    13.943634321   87.634971126   27.656549095 XXXX 3      h*      H   0.410
H620    15.240112713   40.009181227   25.806984281 XXXX 3      h*      H   0.410
O311    24.723890036   73.657922195   28.008940074 XXXX 3      o*      O  -0.820
O312    14.928713623   79.468236786    2.685985512 XXXX 3      o*      O  -0.820
O313    12.282308706   52.022206443   12.286552359 XXXX 3      o*      O  -0.820
H621    25.382777815   73.869785328   27.318309110 XXXX 3      h*      H   0.410
H622    15.721650502   79.237817673    2.165205727 XXXX 3      h*      H   0.410
H623    11.284511220   51.809705520   12.240650862 XXXX 3      h*      H   0.410
H624    25.373771280   73.425218286   28.745203022 XXXX 3      h*      H   0.410
H625    14.942613968   78.740227185    3.339153004 XXXX 3      h*      H   0.410
H626    12.526001776   51.069036316   12.367290598 XXXX 3      h*      H   0.410
O314    23.326471131   74.349539731   18.471691792 XXXX 3      o*      O  -0.820
O315    10.931437510   76.915363132   -1.472640033 XXXX 3      o*      O  -0.820
H627    22.844425644   75.121920352   18.762384752 XXXX 3      h*      H   0.410
H628    10.932441250   76.563573372   -2.429880645 XXXX 3      h*      H   0.410
H629    23.153407366   73.810741513   19.224274607 XXXX 3      h*      H   0.410
H630     9.950231123   76.946315785   -1.259303381 XXXX 3      h*      H   0.410
O316    14.624239913   70.422122369   15.129816976 XXXX 3      o*      O  -0.820
O317    26.546702793   79.107061188    2.365193128 XXXX 3      o*      O  -0.820
O318    27.267138557   46.532112158    9.368032426 XXXX 3      o*      O  -0.820
O319    27.702155645   47.918285037   11.934725104 XXXX 3      o*      O  -0.820
O320    23.292099263   58.589212409   21.465093002 XXXX 3      o*      O  -0.820
O321    19.870923674   76.557509943   22.704460267 XXXX 3      o*      O  -0.820
H631    14.335170179   69.457737716   15.036019875 XXXX 3      h*      H   0.410
H632    26.837409785   78.360753267    3.014932859 XXXX 3      h*      H   0.410
H633    27.408567745   45.591177585    9.079735895 XXXX 3      h*      H   0.410
H634    28.557826436   47.433978419   12.153589718 XXXX 3      h*      H   0.410
H635    22.822013761   59.256260167   22.017073444 XXXX 3      h*      H   0.410
H636    19.596643184   76.196870312   21.862516183 XXXX 3      h*      H   0.410
H637    14.936010299   70.420312663   16.086429594 XXXX 3      h*      H   0.410
H638    26.603127137   79.931081847    2.894466914 XXXX 3      h*      H   0.410
H639    28.060508433   46.964076785    9.108221251 XXXX 3      h*      H   0.410
H640    27.328852572   47.188226538   11.401229166 XXXX 3      h*      H   0.410
H641    22.706607862   58.465349053   20.689257164 XXXX 3      h*      H   0.410
H642    19.008851840   76.857162548   23.075821827 XXXX 3      h*      H   0.410
O322    23.114556946   71.243846960    5.904243447 XXXX 3      o*      O  -0.820
H643    22.673339784   71.172218902    5.003058363 XXXX 3      h*      H   0.410
H644    23.046898531   70.321735543    6.187604104 XXXX 3      h*      H   0.410
O323     6.537922513   34.291528006   30.023964227 XXXX 3      o*      O  -0.820
O324    13.400409146   89.383851463    2.211266859 XXXX 3      o*      O  -0.820
O325    29.295267751   74.462390106   10.459827250 XXXX 3      o*      O  -0.820
O326    16.634287760   56.880364960   11.029172803 XXXX 3      o*      O  -0.820
O327    10.666913184   55.636237777   25.519989673 XXXX 3      o*      O  -0.820
O328    14.502714142   73.113951784   21.335865050 XXXX 3      o*      O  -0.820
H645     6.162270517   35.124333810   29.561204670 XXXX 3      h*      H   0.410
H646    12.522416984   89.722924306    2.485710279 XXXX 3      h*      H   0.410
H647    30.300897663   74.366567635   10.517201893 XXXX 3      h*      H   0.410
H648    17.192869110   56.133665685   11.268360062 XXXX 3      h*      H   0.410
H649    10.196413425   54.789585970   25.674818428 XXXX 3      h*      H   0.410
H650    13.963055353   72.714060610   22.003556431 XXXX 3      h*      H   0.410
H651     5.666341077   33.852373188   30.249540755 XXXX 3      h*      H   0.410
H652    13.854390424   90.204004019    2.485997925 XXXX 3      h*      H   0.410
H653    29.063281450   74.221463898    9.509330879 XXXX 3      h*      H   0.410
H654    15.779137081   56.413754263   10.937723289 XXXX 3      h*      H   0.410
H655     9.878577332   56.258545573   25.519053335 XXXX 3      h*      H   0.410
H656    15.361643077   72.684032633   21.584869186 XXXX 3      h*      H   0.410
O329     5.095726166   36.075539734    3.653300417 XXXX 3      o*      O  -0.820
H657     4.155254459   36.009806825    3.525664874 XXXX 3      h*      H   0.410
H658     5.325486993   36.345682939    2.728614102 XXXX 3      h*      H   0.410
O330    19.204928136   87.745733930    6.620811441 XXXX 3      o*      O  -0.820
O331     2.277361863   63.385819189   26.287110504 XXXX 3      o*      O  -0.820
O332    21.233253690   47.573147886   12.329659655 XXXX 3      o*      O  -0.820
O333    31.704553600   84.017149851    3.780384360 XXXX 3      o*      O  -0.820
H659    19.378184900   86.805475817    6.875086156 XXXX 3      h*      H   0.410
H660     2.322331580   62.481576966   26.416598353 XXXX 3      h*      H   0.410
H661    20.724913295   46.881211543   11.856403819 XXXX 3      h*      H   0.410
H662    32.449721324   83.516989833    3.378589305 XXXX 3      h*      H   0.410
H663    18.231461609   87.583696989    6.731488183 XXXX 3      h*      H   0.410
H664     3.049121980   63.550767913   25.642740561 XXXX 3      h*      H   0.410
H665    21.896092912   46.961195922   12.666189602 XXXX 3      h*      H   0.410
H666    31.100146620   83.254078835    3.908956737 XXXX 3      h*      H   0.410
O334    24.158529813   52.906164155   19.367392950 XXXX 3      o*      O  -0.820
O335    25.421451683   89.010779059   12.312912868 XXXX 3      o*      O  -0.820
O336    -0.865720137   71.333325878   17.737544595 XXXX 3      o*      O  -0.820
O337     2.145774749   88.734387747    5.258139614 XXXX 3      o*      O  -0.820
O338    19.345162003   71.041988696    9.584257112 XXXX 3      o*      O  -0.820
H667    23.460967197   52.762371227   18.643371032 XXXX 3      h*      H   0.410
H668    24.831305173   89.078873898   13.159545220 XXXX 3      h*      H   0.410
H669    -0.670814025   70.364183943   17.751836730 XXXX 3      h*      H   0.410
H670     2.812718933   89.330580005    4.788465942 XXXX 3      h*      H   0.410
H671    19.306612387   70.141772686    9.992892534 XXXX 3      h*      H   0.410
H672    23.835709626   52.289611491   19.999581278 XXXX 3      h*      H   0.410
H673    26.234753196   88.753974925   12.828973495 XXXX 3      h*      H   0.410
H674    -1.492673579   71.302656523   17.006042181 XXXX 3      h*      H   0.410
H675     2.005144642   88.086819570    4.469189009 XXXX 3      h*      H   0.410
H676    20.070321404   70.749595931    9.009100462 XXXX 3      h*      H   0.410
O339     0.986427338   83.306868890   16.556175581 XXXX 3      o*      O  -0.820
H677     0.825502403   83.144040482   17.528409312 XXXX 3      h*      H   0.410
H678     0.983386054   82.451429989   16.178062847 XXXX 3      h*      H   0.410
O340    23.807734625   43.010849002    9.116134256 XXXX 3      o*      O  -0.820
H679    23.962844587   42.152668254    8.635837432 XXXX 3      h*      H   0.410
H680    24.611977877   43.523580462    8.757639419 XXXX 3      h*      H   0.410
O341    24.223327009   84.379634173   19.859983520 XXXX 3      o*      O  -0.820
H681    24.304705444   83.414413376   20.218102550 XXXX 3      h*      H   0.410
H682    23.534980178   84.673100266   20.435428408 XXXX 3      h*      H   0.410
O342    22.976680515   68.132980720    5.679726985 XXXX 3      o*      O  -0.820
H683    23.239939237   67.192349707    5.813175222 XXXX 3      h*      H   0.410
H684    22.092442593   67.984660236    6.065688543 XXXX 3      h*      H   0.410
O343     7.328487924   50.050088151    4.200878664 XXXX 3      o*      O  -0.820
H685     7.361484790   49.099841797    4.008842666 XXXX 3      h*      H   0.410
H686     6.425313346   50.180834815    4.536344701 XXXX 3      h*      H   0.410
O344    24.926957952   77.257126534    0.691673832 XXXX 3      o*      O  -0.820
H687    25.412759374   77.767489487    1.295887949 XXXX 3      h*      H   0.410
H688    25.587599534   76.642459007    0.280414710 XXXX 3      h*      H   0.410
O345    29.621464818   77.854099174   22.289777812 XXXX 3      o*      O  -0.820
H689    29.600510369   77.241230879   21.493593882 XXXX 3      h*      H   0.410
H690    30.117253354   77.328688091   23.024458387 XXXX 3      h*      H   0.410
O346     9.441120713   61.017190344    7.581065581 XXXX 3      o*      O  -0.820
H691    10.230920106   60.621827791    7.976339232 XXXX 3      h*      H   0.410
H692     9.601996419   60.681896642    6.638736123 XXXX 3      h*      H   0.410
O347    24.301794080   81.140861022   19.341555693 XXXX 3      o*      O  -0.820
H693    24.937336795   80.438963783   19.404499034 XXXX 3      h*      H   0.410
H694    23.465019205   80.739216518   19.731697899 XXXX 3      h*      H   0.410
O348    25.841888108   66.385513849   13.503218451 XXXX 3      o*      O  -0.820
H695    26.371382696   66.012447634   14.238309974 XXXX 3      h*      H   0.410
H696    24.934812537   66.166372021   13.812959719 XXXX 3      h*      H   0.410
O349    21.957990350   74.798331377   14.701614383 XXXX 3      o*      O  -0.820
H697    22.593620994   74.692226813   13.957716491 XXXX 3      h*      H   0.410
H698    21.923635585   73.854583539   14.912231937 XXXX 3      h*      H   0.410
O350     6.133462912   64.577332504   28.444366325 XXXX 3      o*      O  -0.820
H699     6.593503296   64.023358944   27.733454311 XXXX 3      h*      H   0.410
H700     5.357903875   63.978078332   28.630057183 XXXX 3      h*      H   0.410
O351     0.704228693   43.182917401   28.889627606 XXXX 3      o*      O  -0.820
H701     0.268446462   42.780969814   28.069821862 XXXX 3      h*      H   0.410
H702     0.039550191   42.970323422   29.568844952 XXXX 3      h*      H   0.410
O352    10.709832749   70.804820000   26.403226204 XXXX 3      o*      O  -0.820
H703    11.125132210   69.967842227   26.103481694 XXXX 3      h*      H   0.410
H704     9.903897770   70.852095698   25.805002619 XXXX 3      h*      H   0.410
O353     2.820912126   83.283650851    9.372304480 XXXX 3      o*      O  -0.820
O354    26.768908825   40.370076509    9.667176120 XXXX 3      o*      O  -0.820
O355    31.130039383   54.639105491   25.280288401 XXXX 3      o*      O  -0.820
H705     3.652236419   83.323530785    9.864894207 XXXX 3      h*      H   0.410
H706    26.033621807   40.312061654   10.356662988 XXXX 3      h*      H   0.410
H707    31.454288240   54.201239293   26.047544429 XXXX 3      h*      H   0.410
H708     2.364894039   82.829144726   10.105760277 XXXX 3      h*      H   0.410
H709    27.440785505   40.731395850   10.239853571 XXXX 3      h*      H   0.410
H710    31.343768152   54.029667983   24.576473203 XXXX 3      h*      H   0.410
O356     7.803050038   58.524020615    7.114342166 XXXX 3      o*      O  -0.820
H711     8.210807163   59.195712265    7.757501340 XXXX 3      h*      H   0.410
H712     8.418074626   57.780453485    7.239357076 XXXX 3      h*      H   0.410
O357    30.606321943   72.224550056   14.196187817 XXXX 3      o*      O  -0.820
H713    30.287424599   72.462811995   13.259265185 XXXX 3      h*      H   0.410
H714    31.110957418   71.455211634   13.968561251 XXXX 3      h*      H   0.410
O358    13.692510451   84.105915804    9.906939900 XXXX 3      o*      O  -0.820
H715    14.007915752   83.426998804   10.553693383 XXXX 3      h*      H   0.410
H716    13.823769813   83.503167581    9.121591034 XXXX 3      h*      H   0.410
O359    18.474998054   76.523993587    6.067387539 XXXX 3      o*      O  -0.820
O360    16.911432951   72.495565232    9.193747796 XXXX 3      o*      O  -0.820
H717    19.098266412   75.836477485    5.945179529 XXXX 3      h*      H   0.410
H718    17.257913310   72.486091125    8.293492880 XXXX 3      h*      H   0.410
H719    18.409155295   76.575133181    7.048223448 XXXX 3      h*      H   0.410
H720    17.611501589   71.868630877    9.476030912 XXXX 3      h*      H   0.410
O361     4.784258916   75.663522266   23.690785320 XXXX 3      o*      O  -0.820
O362    19.962201167   81.696095289    4.051582146 XXXX 3      o*      O  -0.820
O363    26.660292281   80.512777615    8.099053045 XXXX 3      o*      O  -0.820
O364    21.556514109   64.606994326   16.532584431 XXXX 3      o*      O  -0.820
O365     3.794958392   80.164840343   28.948231496 XXXX 3      o*      O  -0.820
H721     4.618897380   74.750520327   23.383936078 XXXX 3      h*      H   0.410
H722    19.767955312   80.854927891    4.542484616 XXXX 3      h*      H   0.410
H723    26.205899219   79.721567370    8.473306198 XXXX 3      h*      H   0.410
H724    21.031852536   63.782884813   16.514926636 XXXX 3      h*      H   0.410
H725     3.220130297   79.675829659   28.339516536 XXXX 3      h*      H   0.410
H726     4.495993861   75.437264707   24.588511856 XXXX 3      h*      H   0.410
H727    21.025483849   81.796499891    4.224113322 XXXX 3      h*      H   0.410
H728    27.234625214   80.059094698    7.444623292 XXXX 3      h*      H   0.410
H729    22.404378246   64.262248138   16.738757711 XXXX 3      h*      H   0.410
H730     4.618872638   79.651125545   28.756082392 XXXX 3      h*      H   0.410
O366    21.604637766   36.112900357    7.909277207 XXXX 3      o*      O  -0.820
H731    22.553236988   36.221268714    7.627170106 XXXX 3      h*      H   0.410
H732    21.095732270   36.701164474    7.263577018 XXXX 3      h*      H   0.410
O367    18.344439898   36.296940061    1.368114150 XXXX 3      o*      O  -0.820
O368     8.001594998   87.162147498   15.641468371 XXXX 3      o*      O  -0.820
H733    18.819751816   36.776776980    2.146321834 XXXX 3      h*      H   0.410
H734     8.262833394   87.991194379   16.131711320 XXXX 3      h*      H   0.410
H735    18.715067050   35.370602344    1.419917852 XXXX 3      h*      H   0.410
H736     7.670641255   86.488339815   16.413036036 XXXX 3      h*      H   0.410
O369     4.069015714   64.341210856    1.123283057 XXXX 3      o*      O  -0.820
O370    33.248954224   61.098511769    4.912906463 XXXX 3      o*      O  -0.820
H737     4.368341711   65.155490824    0.574508255 XXXX 3      h*      H   0.410
H738    32.288562178   60.817737030    4.758655780 XXXX 3      h*      H   0.410
H739     4.410776944   63.683650686    0.536827453 XXXX 3      h*      H   0.410
H740    33.797353858   60.321037528    4.688432115 XXXX 3      h*      H   0.410
O371    21.375023752   45.394537588   26.433132919 XXXX 3      o*      O  -0.820
H741    20.820960524   45.186293812   25.566454729 XXXX 3      h*      H   0.410
H742    21.416463754   44.525656435   26.889071451 XXXX 3      h*      H   0.410
O372    11.510606296   57.372323975   -0.854082875 XXXX 3      o*      O  -0.820
H743    10.561414813   57.518675270   -0.729450292 XXXX 3      h*      H   0.410
H744    11.636593016   56.591213980   -0.297147700 XXXX 3      h*      H   0.410
O373    22.348086499   89.080995130    0.114996629 XXXX 3      o*      O  -0.820
H745    22.097999520   88.377247229   -0.510954134 XXXX 3      h*      H   0.410
H746    23.223111602   88.870746026    0.515789567 XXXX 3      h*      H   0.410
O374    13.257382524   54.239414388   26.222540017 XXXX 3      o*      O  -0.820
O375    22.513520896   61.134990190   13.948647682 XXXX 3      o*      O  -0.820
H747    12.795644332   53.439877602   26.556706067 XXXX 3      h*      H   0.410
H748    22.312913425   60.295344885   14.510496102 XXXX 3      h*      H   0.410
H749    12.450703680   54.790689586   25.866881874 XXXX 3      h*      H   0.410
H750    22.444735138   60.699590098   13.084162085 XXXX 3      h*      H   0.410
O376     8.307775560   56.100045096   -2.199490520 XXXX 3      o*      O  -0.820
H751     8.039832098   56.859580481   -2.746108862 XXXX 3      h*      H   0.410
H752     7.480550604   55.525581285   -2.210072422 XXXX 3      h*      H   0.410
O377    19.078879628   45.723868339    5.453636429 XXXX 3      o*      O  -0.820
H753    18.176399976   45.789973887    5.874979589 XXXX 3      h*      H   0.410
H754    19.108418388   45.291718109    4.594099252 XXXX 3      h*      H   0.410
O378    19.260994084   62.438579807   21.641070364 XXXX 3      o*      O  -0.820
H755    19.257285966   62.017749652   22.511977290 XXXX 3      h*      H   0.410
H756    18.283119631   62.520736430   21.398043003 XXXX 3      h*      H   0.410
O379    23.171118236   79.731330410    7.340633493 XXXX 3      o*      O  -0.820
H757    23.471740810   79.256536474    8.190908999 XXXX 3      h*      H   0.410
H758    22.791219106   80.438496349    7.894808003 XXXX 3      h*      H   0.410
O380     5.006542301   90.307881679   12.022345949 XXXX 3      o*      O  -0.820
H759     5.070621362   89.346598278   12.020880410 XXXX 3      h*      H   0.410
H760     5.094362578   90.500721617   13.015542995 XXXX 3      h*      H   0.410
O381    16.537073960   86.872558278   31.484186571 XXXX 3      o*      O  -0.820
H761    15.589895108   86.741215779   31.203721656 XXXX 3      h*      H   0.410
H762    16.544132861   86.195397260   32.182279090 XXXX 3      h*      H   0.410
O382    16.274847236   53.559810819    3.848243086 XXXX 3      o*      O  -0.820
H763    16.255801456   52.800786726    4.520406949 XXXX 3      h*      H   0.410
H764    17.050670114   53.225547057    3.270116146 XXXX 3      h*      H   0.410
O383    27.824256658   66.253715048   11.065275894 XXXX 3      o*      O  -0.820
H765    27.644362855   65.328463016   11.336647257 XXXX 3      h*      H   0.410
H766    27.426942165   66.733605077   11.861752503 XXXX 3      h*      H   0.410
O384    13.644530068   66.408154596   17.336909094 XXXX 3      o*      O  -0.820
H767    14.472626752   66.283782246   16.775052164 XXXX 3      h*      H   0.410
H768    13.330176717   65.503294290   17.312991456 XXXX 3      h*      H   0.410
O385    22.872087942   53.366730456   14.106258399 XXXX 3      o*      O  -0.820
H769    23.093495737   52.835058777   14.887096477 XXXX 3      h*      H   0.410
H770    23.615813626   53.021969703   13.556370598 XXXX 3      h*      H   0.410
O386     2.851442299   55.321123167   21.479614928 XXXX 3      o*      O  -0.820
H771     3.244461393   54.901941162   20.718869793 XXXX 3      h*      H   0.410
H772     2.603534468   54.582353955   22.016824252 XXXX 3      h*      H   0.410
O387    16.359305780   52.501237387   25.147296331 XXXX 3      o*      O  -0.820
H773    16.770700855   52.704170176   26.042629323 XXXX 3      h*      H   0.410
H774    17.193689658   52.530390639   24.600830320 XXXX 3      h*      H   0.410
O388     2.828401136   34.037519982   25.138512504 XXXX 3      o*      O  -0.820
H775     2.848349704   33.627340428   24.202490542 XXXX 3      h*      H   0.410
H776     3.199692441   33.253644774   25.633334208 XXXX 3      h*      H   0.410
O389     6.684019958   50.368687255   22.347843850 XXXX 3      o*      O  -0.820
O390     2.442673577   35.251686334   10.644986326 XXXX 3      o*      O  -0.820
H777     7.569985075   50.857657113   22.164253609 XXXX 3      h*      H   0.410
H778     2.982710848   34.592792038   11.165191851 XXXX 3      h*      H   0.410
H779     6.886140634   50.060592114   23.206779034 XXXX 3      h*      H   0.410
H780     2.206704531   35.861983431   11.397705888 XXXX 3      h*      H   0.410
O391    31.305665104   61.294087685   16.133519836 XXXX 3      o*      O  -0.820
H781    30.920528665   60.881241686   15.282458828 XXXX 3      h*      H   0.410
H782    31.236342199   60.403688145   16.610142204 XXXX 3      h*      H   0.410
O392    15.696087277   55.335750129    5.861204265 XXXX 3      o*      O  -0.820
H783    16.317499112   55.437170434    5.102755006 XXXX 3      h*      H   0.410
H784    15.382488520   54.435374544    5.731122294 XXXX 3      h*      H   0.410
O393    29.890698301   41.867882706   26.594562232 XXXX 3      o*      O  -0.820
H785    30.239201508   41.809923343   25.704111814 XXXX 3      h*      H   0.410
H786    29.095199448   41.282742081   26.529918367 XXXX 3      h*      H   0.410
O394    30.925232851   48.880199803    2.588886566 XXXX 3      o*      O  -0.820
H787    30.375377757   49.724774794    2.822503682 XXXX 3      h*      H   0.410
H788    31.371509894   49.286656000    1.872118836 XXXX 3      h*      H   0.410
O395    15.945299310   75.576389712   -1.771345381 XXXX 3      o*      O  -0.820
H789    16.849432133   75.795821735   -1.460204813 XXXX 3      h*      H   0.410
H790    16.048391368   74.610654826   -1.473463846 XXXX 3      h*      H   0.410
O396    28.010193195   75.115138185   17.068299900 XXXX 3      o*      O  -0.820
O397     8.505143693   37.945850015    1.076437159 XXXX 3      o*      O  -0.820
O398     6.652433496   47.882966056    0.707682398 XXXX 3      o*      O  -0.820
H791    27.894875720   74.589400098   17.876108570 XXXX 3      h*      H   0.410
H792     8.881990464   37.086702883    1.416780819 XXXX 3      h*      H   0.410
H793     7.301970519   47.159662956    0.460968207 XXXX 3      h*      H   0.410
H794    27.169974477   75.020288908   16.645432493 XXXX 3      h*      H   0.410
H795     7.603390750   37.698360480    1.360171656 XXXX 3      h*      H   0.410
H796     6.326774273   47.662321464    1.618597071 XXXX 3      h*      H   0.410
O399    23.088598020   40.716490606    6.086770630 XXXX 3      o*      O  -0.820
H797    22.431747634   40.541194983    6.830889519 XXXX 3      h*      H   0.410
H798    22.765344379   40.059210456    5.472339559 XXXX 3      h*      H   0.410
O400     3.550686551   63.654167476    4.608651800 XXXX 3      o*      O  -0.820
O401    20.398664265   48.196215434   30.477533303 XXXX 3      o*      O  -0.820
O402    17.725461086   58.918702250   12.919303036 XXXX 3      o*      O  -0.820
O403    10.830467764   86.290205996    1.133340137 XXXX 3      o*      O  -0.820
H799     3.160986772   62.813881219    4.842995173 XXXX 3      h*      H   0.410
H800    21.175002941   47.722685060   30.881067819 XXXX 3      h*      H   0.410
H801    17.443519665   58.190917758   12.342362471 XXXX 3      h*      H   0.410
H802    10.529530386   85.549160840    1.682292124 XXXX 3      h*      H   0.410
H803     3.151044584   63.617969663    3.740466808 XXXX 3      h*      H   0.410
H804    20.362564532   47.707835784   29.614343137 XXXX 3      h*      H   0.410
H805    18.555033903   58.457992602   13.311332697 XXXX 3      h*      H   0.410
H806    10.633275359   87.083354702    1.694415431 XXXX 3      h*      H   0.410
O404     6.155327972   52.435702445    9.138262783 XXXX 3      o*      O  -0.820
O405    20.507531083   83.166030570   23.964216004 XXXX 3      o*      O  -0.820
H807     6.049655893   51.422144541    9.166119602 XXXX 3      h*      H   0.410
H808    20.085526549   82.478031626   23.329091904 XXXX 3      h*      H   0.410
H809     5.398126854   52.617987486    8.455654559 XXXX 3      h*      H   0.410
H810    19.684446010   83.542122427   24.334322327 XXXX 3      h*      H   0.410
O406    23.266035919   42.784142787   18.289247146 XXXX 3      o*      O  -0.820
H811    22.335941892   42.380700339   18.485208964 XXXX 3      h*      H   0.410
H812    23.121367526   43.097037042   17.320000759 XXXX 3      h*      H   0.410
O407    29.212784195   60.955375360   27.256541551 XXXX 3      o*      O  -0.820
O408    16.274351774   62.710398692   21.939591357 XXXX 3      o*      O  -0.820
H813    29.472732392   60.070126453   27.622146583 XXXX 3      h*      H   0.410
H814    15.902009457   62.255010020   22.755479390 XXXX 3      h*      H   0.410
H815    28.583269626   60.655172445   26.622001680 XXXX 3      h*      H   0.410
H816    15.548359112   62.755078352   21.265007293 XXXX 3      h*      H   0.410
O409    16.385825539   63.213843170   15.304106976 XXXX 3      o*      O  -0.820
O410    -1.561153053   45.091510280    4.146436677 XXXX 3      o*      O  -0.820
H817    15.978679442   62.466939604   15.739455534 XXXX 3      h*      H   0.410
H818    -2.259912823   45.173758194    3.456552388 XXXX 3      h*      H   0.410
H819    17.106680425   62.774123960   14.790984274 XXXX 3      h*      H   0.410
H820    -1.875413159   45.920144202    4.580403534 XXXX 3      h*      H   0.410
O411     6.479036198   66.146141865   19.737825899 XXXX 3      o*      O  -0.820
H821     6.565534073   65.322331266   19.184359817 XXXX 3      h*      H   0.410
H822     7.073787982   66.029604492   20.464493313 XXXX 3      h*      H   0.410
O412    30.799624844   76.412708032    6.624792615 XXXX 3      o*      O  -0.820
O413    18.721128323   52.187846274   23.269473206 XXXX 3      o*      O  -0.820
H823    31.497927050   75.713795891    6.687669458 XXXX 3      h*      H   0.410
H824    18.742202727   52.262996211   22.290170981 XXXX 3      h*      H   0.410
H825    30.059297065   75.923538496    6.273269179 XXXX 3      h*      H   0.410
H826    18.821359212   51.214388315   23.420049740 XXXX 3      h*      H   0.410
O414     2.777337807   77.298396269   11.345074214 XXXX 3      o*      O  -0.820
O415    29.217518897   41.172390832   11.126755783 XXXX 3      o*      O  -0.820
O416     5.437465107   55.363000280   13.109635349 XXXX 3      o*      O  -0.820
O417    21.013498201   42.892078947    6.210273619 XXXX 3      o*      O  -0.820
O418    19.923625318   76.257856112    2.779417115 XXXX 3      o*      O  -0.820
H827     2.843887372   76.636614145   12.082880673 XXXX 3      h*      H   0.410
H828    29.585124950   41.465918936   10.248841373 XXXX 3      h*      H   0.410
H829     6.066086645   54.748867762   12.653883709 XXXX 3      h*      H   0.410
H830    21.084629640   41.900746765    6.147345097 XXXX 3      h*      H   0.410
H831    19.778390286   75.353187996    3.136640747 XXXX 3      h*      H   0.410
H832     3.716110431   77.504504886   11.255081957 XXXX 3      h*      H   0.410
H833    29.943890920   40.390589550   11.245457738 XXXX 3      h*      H   0.410
H834     5.244087348   54.848345424   13.901442680 XXXX 3      h*      H   0.410
H835    20.027394524   42.906033267    6.293179558 XXXX 3      h*      H   0.410
H836    20.630480464   76.125198712    2.132487582 XXXX 3      h*      H   0.410
O419    22.304532402   52.438395024    4.357936945 XXXX 3      o*      O  -0.820
H837    22.166014345   51.580081922    4.819741241 XXXX 3      h*      H   0.410
H838    21.869156928   52.226007401    3.486402382 XXXX 3      h*      H   0.410
O420    10.405239343   70.981141698   15.044555843 XXXX 3      o*      O  -0.820
O421     8.724598299   40.982193091   13.655792572 XXXX 3      o*      O  -0.820
O422     4.581671504   73.816635471   17.478270375 XXXX 3      o*      O  -0.820
O423    13.392482833   81.650446559    6.760408638 XXXX 3      o*      O  -0.820
O424    13.440148007   63.204738405   13.961137790 XXXX 3      o*      O  -0.820
O425    16.227164519   64.721537066    4.005803584 XXXX 3      o*      O  -0.820
H839    10.973507494   70.170073268   14.807165460 XXXX 3      h*      H   0.410
H840     9.263373352   40.193962494   13.249997115 XXXX 3      h*      H   0.410
H841     5.002873487   73.041320283   17.980218964 XXXX 3      h*      H   0.410
H842    13.101696119   80.751650842    6.895479303 XXXX 3      h*      H   0.410
H843    12.862320637   62.397531541   14.033669992 XXXX 3      h*      H   0.410
H844    15.640791359   64.620742464    3.237152723 XXXX 3      h*      H   0.410
H845    10.803380273   71.072171193   15.908561791 XXXX 3      h*      H   0.410
H846     9.492668192   41.439641232   14.057365556 XXXX 3      h*      H   0.410
H847     3.787427848   73.441123932   17.252265019 XXXX 3      h*      H   0.410
H848    13.831294917   81.653736449    5.887582143 XXXX 3      h*      H   0.410
H849    14.268806317   62.993609401   14.416041044 XXXX 3      h*      H   0.410
H850    15.911741570   64.011478890    4.656107274 XXXX 3      h*      H   0.410
O426    17.159707782   59.489967059   36.017815683 XXXX 3      o*      O  -0.820
O427    14.029448132   56.646192091    7.844061084 XXXX 3      o*      O  -0.820
O428    24.409267167   40.728930870   31.071461255 XXXX 3      o*      O  -0.820
O429    22.523220021   54.321841067   21.485630399 XXXX 3      o*      O  -0.820
O430     3.912647596   39.460945240   20.781233420 XXXX 3      o*      O  -0.820
H851    16.512755709   58.853585462   35.570922187 XXXX 3      h*      H   0.410
H852    13.312378546   55.959556197    8.029138393 XXXX 3      h*      H   0.410
H853    24.019407761   39.864790046   31.172078885 XXXX 3      h*      H   0.410
H854    22.772467058   54.154033160   22.394086466 XXXX 3      h*      H   0.410
H855     3.383780197   38.635258535   20.548819797 XXXX 3      h*      H   0.410
H856    17.140063710   58.976852248   36.830918402 XXXX 3      h*      H   0.410
H857    14.609682026   56.028056241    7.367218764 XXXX 3      h*      H   0.410
H858    24.808490046   40.992993180   32.016991936 XXXX 3      h*      H   0.410
H859    23.397235000   54.290208539   21.027742285 XXXX 3      h*      H   0.410
H860     4.600409624   39.297200077   20.065827154 XXXX 3      h*      H   0.410
O431    20.142183445   67.762291487   23.591696284 XXXX 3      o*      O  -0.820
H861    19.805597061   67.019244731   23.021991869 XXXX 3      h*      H   0.410
H862    20.002180104   67.386812969   24.501575626 XXXX 3      h*      H   0.410
O432     6.447926071   59.143644482   26.002682217 XXXX 3      o*      O  -0.820
O433    17.789238093   65.090545600   12.401718243 XXXX 3      o*      O  -0.820
O434     7.125085570   59.044980324   10.214581701 XXXX 3      o*      O  -0.820
H863     6.014587183   59.079253508   26.831285886 XXXX 3      h*      H   0.410
H864    17.435243311   64.369877142   12.947840791 XXXX 3      h*      H   0.410
H865     6.272648655   58.761850741    9.738842315 XXXX 3      h*      H   0.410
H866     5.688310061   58.889507386   25.339870852 XXXX 3      h*      H   0.410
H867    17.852195577   64.597289859   11.572809828 XXXX 3      h*      H   0.410
H868     7.549698643   58.171974606   10.155957751 XXXX 3      h*      H   0.410
O435     8.940559624   56.858052792    0.408909320 XXXX 3      o*      O  -0.820
O436    11.610116846   45.432265141   16.238342561 XXXX 3      o*      O  -0.820
O437     1.728396728   42.087623541   18.751984924 XXXX 3      o*      O  -0.820
H869     8.730864749   55.934734231    0.693132514 XXXX 3      h*      H   0.410
H870    10.660077410   45.677006206   16.273824626 XXXX 3      h*      H   0.410
H871     2.305178760   41.770284801   19.509545196 XXXX 3      h*      H   0.410
H872     8.798063830   56.769055595   -0.582557022 XXXX 3      h*      H   0.410
H873    11.817570931   45.579958526   17.237771391 XXXX 3      h*      H   0.410
H874     0.904888235   41.556784344   19.120979267 XXXX 3      h*      H   0.410
O438    24.891647604   88.641100917   28.654316432 XXXX 3      o*      O  -0.820
H875    25.825535313   88.376374574   28.787424299 XXXX 3      h*      H   0.410
H876    24.541082602   87.844946959   28.133060034 XXXX 3      h*      H   0.410
O439     5.734045945   55.491725251    6.439873158 XXXX 3      o*      O  -0.820
H877     5.699932127   54.509776416    6.489078713 XXXX 3      h*      H   0.410
H878     6.379763590   55.579457212    5.740876014 XXXX 3      h*      H   0.410
O440     3.135044084   82.350059916   23.438114206 XXXX 3      o*      O  -0.820
H879     3.432579502   83.044429124   24.082117699 XXXX 3      h*      H   0.410
H880     2.194752795   82.609648113   23.432894502 XXXX 3      h*      H   0.410
O441    25.289247085   50.467338305   17.727511762 XXXX 3      o*      O  -0.820
O442     3.863316727   56.280487692   18.873729685 XXXX 3      o*      O  -0.820
H881    24.776979241   51.174810738   18.227618327 XXXX 3      h*      H   0.410
H882     4.662399698   56.173107660   18.373649856 XXXX 3      h*      H   0.410
H883    24.750799572   50.647247524   16.914794200 XXXX 3      h*      H   0.410
H884     4.337124152   56.530008839   19.684265811 XXXX 3      h*      H   0.410
O443    -2.553515109   60.968358755   19.471836703 XXXX 3      o*      O  -0.820
H885    -1.956543507   60.222225711   19.228989631 XXXX 3      h*      H   0.410
H886    -3.397040701   60.432995983   19.308983455 XXXX 3      h*      H   0.410
O444    11.418292569   85.778713748   21.356916595 XXXX 3      o*      O  -0.820
O445    23.062026028   65.104272918   25.285764612 XXXX 3      o*      O  -0.820
H887    12.027256002   85.039013905   21.172054765 XXXX 3      h*      H   0.410
H888    23.194213134   66.031918563   25.050628256 XXXX 3      h*      H   0.410
H889    12.091501204   86.489375367   21.560667747 XXXX 3      h*      H   0.410
H890    23.989454723   64.790608920   25.505292758 XXXX 3      h*      H   0.410
O446    18.043414596   47.701293021   14.799464270 XXXX 3      o*      O  -0.820
H891    18.035443602   47.726879092   15.768124410 XXXX 3      h*      H   0.410
H892    18.473031390   46.844018935   14.647328172 XXXX 3      h*      H   0.410
O447    10.354101356   37.889028105    4.889035799 XXXX 3      o*      O  -0.820
H893     9.610916165   37.361875552    4.510665217 XXXX 3      h*      H   0.410
H894    11.002609402   37.556310488    4.333472445 XXXX 3      h*      H   0.410
O448     9.765829771   47.957958699   10.071421318 XXXX 3      o*      O  -0.820
H895     8.778878506   47.702510881    9.967031694 XXXX 3      h*      H   0.410
H896    10.083366627   47.069593934   10.268013532 XXXX 3      h*      H   0.410
O449    24.684186518   65.851532533   20.302555925 XXXX 3      o*      O  -0.820
H897    24.792133116   64.957225749   19.807415785 XXXX 3      h*      H   0.410
H898    23.804545454   65.651733433   20.655410165 XXXX 3      h*      H   0.410
O450    15.720406552   49.252517634   13.632084935 XXXX 3      o*      O  -0.820
H899    15.327816769   50.065019434   14.042440854 XXXX 3      h*      H   0.410
H900    16.472887480   49.613431201   13.178443338 XXXX 3      h*      H   0.410
O451    21.395435896   74.255150805   24.840418908 XXXX 3      o*      O  -0.820
H901    20.876807565   75.059990530   25.030247630 XXXX 3      h*      H   0.410
H902    21.471236440   73.795971192   25.717987121 XXXX 3      h*      H   0.410
O452    31.914321316   40.532447759   21.688364561 XXXX 3      o*      O  -0.820
H903    31.346027269   40.367283360   20.916444139 XXXX 3      h*      H   0.410
H904    32.641842906   39.857405771   21.499103342 XXXX 3      h*      H   0.410
O453     5.772008070   87.275880253   13.171008881 XXXX 3      o*      O  -0.820
H905     5.193671838   86.448742885   13.061142910 XXXX 3      h*      H   0.410
H906     6.620704483   86.835641250   12.886603820 XXXX 3      h*      H   0.410
O454     3.361996902   82.065570956   20.336567660 XXXX 3      o*      O  -0.820
H907     4.354809910   81.840129972   20.397176610 XXXX 3      h*      H   0.410
H908     3.208083505   82.142576317   21.306269424 XXXX 3      h*      H   0.410
O455     6.249134566   66.411865565   31.013507125 XXXX 3      o*      O  -0.820
O456    29.795533424   36.360428626   30.107640815 XXXX 3      o*      O  -0.820
H909     6.695117677   65.925708657   31.727041288 XXXX 3      h*      H   0.410
H910    29.547197709   35.423784261   30.200208287 XXXX 3      h*      H   0.410
H911     6.596887545   65.974135128   30.198038037 XXXX 3      h*      H   0.410
H912    29.464507542   36.593896770   29.226670806 XXXX 3      h*      H   0.410
O457    16.533422825   74.781814811    2.137605433 XXXX 3      o*      O  -0.820
H913    16.687942573   74.197983705    2.899107383 XXXX 3      h*      H   0.410
H914    16.452469217   74.186829124    1.311474441 XXXX 3      h*      H   0.410
O458     7.673225850   41.396198700   28.061280439 XXXX 3      o*      O  -0.820
H915     7.429695576   41.200795208   27.127533473 XXXX 3      h*      H   0.410
H916     8.408735595   42.030402045   27.989676390 XXXX 3      h*      H   0.410
O459    10.300903174   50.405186098   30.928759594 XXXX 3      o*      O  -0.820
H917    11.189377290   49.985852112   30.805792092 XXXX 3      h*      H   0.410
H918     9.933760118   49.749671630   31.655535939 XXXX 3      h*      H   0.410
O460     9.064623203   89.448971992   17.074443034 XXXX 3      o*      O  -0.820
H919     8.327931616   90.079449563   17.362071247 XXXX 3      h*      H   0.410
H920     9.721511902   89.665939514   17.758453157 XXXX 3      h*      H   0.410
O461    22.007263163   66.559330428   10.973466891 XXXX 3      o*      O  -0.820
H921    21.700923083   67.495517654   11.072424522 XXXX 3      h*      H   0.410
H922    21.884175567   66.198673451   11.874276381 XXXX 3      h*      H   0.410
O462     5.331034325   84.863321722    2.333158015 XXXX 3      o*      O  -0.820
H923     5.762584074   83.962983943    2.257792679 XXXX 3      h*      H   0.410
H924     5.967300829   85.278239323    2.949397028 XXXX 3      h*      H   0.410
O463     0.802723168   54.095222722    1.833982373 XXXX 3      o*      O  -0.820
H925     1.201682572   53.538815753    2.556593325 XXXX 3      h*      H   0.410
H926     1.322402149   53.854849089    0.972797066 XXXX 3      h*      H   0.410
O464    20.011415597   32.778337924   17.755751009 XXXX 3      o*      O  -0.820
H927    20.164912252   31.798664392   17.531838709 XXXX 3      h*      H   0.410
H928    19.048435244   32.796343669   17.905007447 XXXX 3      h*      H   0.410
O465    16.944281646   70.207986676   12.300763726 XXXX 3      o*      O  -0.820
H929    17.727942004   70.010210727   12.876652999 XXXX 3      h*      H   0.410
H930    16.886589668   69.290344541   11.815388805 XXXX 3      h*      H   0.410
O466    19.301489908   87.069158747   19.311722986 XXXX 3      o*      O  -0.820
H931    18.316303334   86.788067677   19.464837605 XXXX 3      h*      H   0.410
H932    19.181159344   88.052072952   19.166620348 XXXX 3      h*      H   0.410
O467    -2.033501604   51.455815643   24.266701399 XXXX 3      o*      O  -0.820
H933    -2.697927770   50.825313573   24.640207450 XXXX 3      h*      H   0.410
H934    -2.350856568   51.545361575   23.346149202 XXXX 3      h*      H   0.410
O468    15.684529910   78.725958411   22.405396105 XXXX 3      o*      O  -0.820
H935    15.587276459   78.706923531   21.453922733 XXXX 3      h*      H   0.410
H936    15.912160979   79.695141312   22.590053055 XXXX 3      h*      H   0.410
O469    24.666514875   86.855536907   22.142086107 XXXX 3      o*      O  -0.820
H937    25.151366261   87.286936557   21.430660674 XXXX 3      h*      H   0.410
H938    23.759473259   86.831148010   21.769938789 XXXX 3      h*      H   0.410
O470    20.571232828   72.180920289   14.586690359 XXXX 3      o*      O  -0.820
O471     6.138511103   51.060825497    1.626307398 XXXX 3      o*      O  -0.820
H939    20.114665837   72.043723743   13.724332857 XXXX 3      h*      H   0.410
H940     6.809989950   51.585963439    1.163547022 XXXX 3      h*      H   0.410
H941    20.555135099   71.217768383   14.780185799 XXXX 3      h*      H   0.410
H942     6.718414171   50.499960353    2.185711730 XXXX 3      h*      H   0.410
O472    19.603880960   61.502495978   24.546597751 XXXX 3      o*      O  -0.820
H943    18.748064399   61.107560060   24.763622031 XXXX 3      h*      H   0.410
H944    20.119538025   61.431398680   25.427573822 XXXX 3      h*      H   0.410
O473    28.545622526   60.778120134   11.125581398 XXXX 3      o*      O  -0.820
O474     4.870144253   84.566783235   29.399886565 XXXX 3      o*      O  -0.820
H945    28.787758023   61.261653385   10.316601411 XXXX 3      h*      H   0.410
H946     3.964326419   84.402743227   29.174868360 XXXX 3      h*      H   0.410
H947    28.750742035   59.858983851   10.847821297 XXXX 3      h*      H   0.410
H948     4.893418270   84.261357453   30.362343972 XXXX 3      h*      H   0.410
O475    26.867588090   62.423055646   16.610193722 XXXX 3      o*      O  -0.820
O476    26.007837571   47.831932587   15.134277785 XXXX 3      o*      O  -0.820
H949    26.775816176   61.568566634   17.088642915 XXXX 3      h*      H   0.410
H950    25.666596037   47.200194082   15.802158377 XXXX 3      h*      H   0.410
H951    27.695238164   62.679934586   17.098865720 XXXX 3      h*      H   0.410
H952    26.232654444   47.169245535   14.446088919 XXXX 3      h*      H   0.410
O477     5.991610029   66.670290555   16.409593775 XXXX 3      o*      O  -0.820
H953     5.273326894   66.211048802   16.910826512 XXXX 3      h*      H   0.410
H954     6.227221787   65.928302799   15.746718728 XXXX 3      h*      H   0.410
O478     0.933886703   50.437135037   16.883921563 XXXX 3      o*      O  -0.820
H955     0.368522950   50.063198903   17.572032535 XXXX 3      h*      H   0.410
H956     1.225727551   49.557892708   16.551303732 XXXX 3      h*      H   0.410
O479    18.427950102   41.286007217   15.060071396 XXXX 3      o*      O  -0.820
H957    18.342130710   41.672854350   14.151817268 XXXX 3      h*      H   0.410
H958    18.240645439   40.380520559   14.761376369 XXXX 3      h*      H   0.410
O480     2.263226544   51.974851389    3.002039900 XXXX 3      o*      O  -0.820
O481    17.715284751   51.675692170    2.194876547 XXXX 3      o*      O  -0.820
H959     3.010072448   51.531048546    2.546659309 XXXX 3      h*      H   0.410
H960    17.922824185   50.661575222    2.305057876 XXXX 3      h*      H   0.410
H961     2.238680336   51.462081567    3.814057726 XXXX 3      h*      H   0.410
H962    17.455935732   51.670394828    1.275393118 XXXX 3      h*      H   0.410
O482    14.388918959   64.555458650    1.692351110 XXXX 3      o*      O  -0.820
O483     4.737208450   50.214775260   19.739484285 XXXX 3      o*      O  -0.820
O484    12.640398913   78.233514024    0.774171908 XXXX 3      o*      O  -0.820
H963    13.575076764   64.415797261    2.137177493 XXXX 3      h*      H   0.410
H964     5.257748764   50.007002733   20.594567858 XXXX 3      h*      H   0.410
H965    12.283978188   77.509627965    0.217527621 XXXX 3      h*      H   0.410
H966    14.530284195   63.689472711    1.165120403 XXXX 3      h*      H   0.410
H967     4.039934874   49.553019520   19.683912637 XXXX 3      h*      H   0.410
H968    13.573442847   77.912806284    1.000483461 XXXX 3      h*      H   0.410
O485    16.931950518   61.177736274   28.176914011 XXXX 3      o*      O  -0.820
O486    32.353405994   38.561873460   18.545115757 XXXX 3      o*      O  -0.820
O487    15.113808510   32.806902249   13.207588407 XXXX 3      o*      O  -0.820
O488    27.997824454   92.872649875   26.058532356 XXXX 3      o*      O  -0.820
O489     6.402949359   47.237873060   10.225739955 XXXX 3      o*      O  -0.820
H969    17.694205012   61.779175724   27.909678097 XXXX 3      h*      H   0.410
H970    31.850079326   39.338928718   19.030672273 XXXX 3      h*      H   0.410
H971    15.186635484   32.214421681   12.391798586 XXXX 3      h*      H   0.410
H972    27.967702158   92.475906906   25.100974885 XXXX 3      h*      H   0.410
H973     6.312644604   46.968202317   11.171613149 XXXX 3      h*      H   0.410
H974    17.569122822   60.461585774   28.405094015 XXXX 3      h*      H   0.410
H975    31.679961998   37.875673755   18.809338971 XXXX 3      h*      H   0.410
H976    14.825637147   32.060271393   13.825365218 XXXX 3      h*      H   0.410
H977    28.753395407   93.501338939   25.870395034 XXXX 3      h*      H   0.410
H978     5.844911379   46.522080056    9.824383246 XXXX 3      h*      H   0.410
O490    21.722714323   70.320838094    3.548442271 XXXX 3      o*      O  -0.820
H979    21.254547378   69.480658224    3.778840749 XXXX 3      h*      H   0.410
H980    21.699832216   70.299652178    2.550944140 XXXX 3      h*      H   0.410
O491     6.138174186   76.864757580    8.200515181 XXXX 3      o*      O  -0.820
O492    24.783228093   69.485165043   27.398940269 XXXX 3      o*      O  -0.820
O493     1.701454836   73.395443247   21.691591277 XXXX 3      o*      O  -0.820
O494    28.230095948   90.284581168    9.749087757 XXXX 3      o*      O  -0.820
H981     6.938042243   76.372571271    8.429726425 XXXX 3      h*      H   0.410
H982    25.539546544   70.038638249   27.672468157 XXXX 3      h*      H   0.410
H983     2.426338232   73.986060604   21.437372210 XXXX 3      h*      H   0.410
H984    28.149277349   89.296692712    9.648291908 XXXX 3      h*      H   0.410
H985     5.452254256   76.112077483    8.134079590 XXXX 3      h*      H   0.410
H986    24.607125239   69.826737934   26.502916077 XXXX 3      h*      H   0.410
H987     1.217812177   73.412997849   20.856031442 XXXX 3      h*      H   0.410
H988    28.065649533   90.527788695    8.797238382 XXXX 3      h*      H   0.410
O495    17.852380666   53.076179689   29.712578951 XXXX 3      o*      O  -0.820
H989    17.192614618   53.110463526   28.993872284 XXXX 3      h*      H   0.410
H990    17.508160185   52.408547833   30.336804595 XXXX 3      h*      H   0.410
O496    17.822571060   61.998754553   32.541340108 XXXX 3      o*      O  -0.820
H991    17.485858790   61.102535005   32.596749103 XXXX 3      h*      H   0.410
H992    17.149854309   62.477391268   32.088132726 XXXX 3      h*      H   0.410
O497    14.732963609   76.513319374    0.830268895 XXXX 3      o*      O  -0.820
O498    19.696124690   86.665091367   12.537391781 XXXX 3      o*      O  -0.820
O499    25.238329031   56.313658637   20.618601821 XXXX 3      o*      O  -0.820
O500    26.890247514   67.420460401   -0.198684723 XXXX 3      o*      O  -0.820
O501    14.844410102   75.984118388   20.419439013 XXXX 3      o*      O  -0.820
H993    14.847716781   75.932610197    1.575912541 XXXX 3      h*      H   0.410
H994    19.554694313   87.383318942   13.065616068 XXXX 3      h*      H   0.410
H995    24.718830452   57.157646551   20.726348128 XXXX 3      h*      H   0.410
H996    27.527202638   68.083469949    0.183892094 XXXX 3      h*      H   0.410
H997    14.243383310   75.273350004   20.731740391 XXXX 3      h*      H   0.410
H998    14.483767434   75.884478424    0.108234344 XXXX 3      h*      H   0.410
H999    20.692100244   86.672658038   12.573026069 XXXX 3      h*      H   0.410
H1000   25.131540135   56.100336300   19.633875023 XXXX 3      h*      H   0.410
H1001   27.286372003   66.613701432    0.300968423 XXXX 3      h*      H   0.410
H1002   15.595411065   75.744063144   21.035134632 XXXX 3      h*      H   0.410
O502    27.575143030   74.971838345   21.561357106 XXXX 3      o*      O  -0.820
H1003   27.604254765   74.465158901   20.746785321 XXXX 3      h*      H   0.410
H1004   27.825385560   74.340054044   22.317391654 XXXX 3      h*      H   0.410
O503    17.533632090   80.116657919   25.639390998 XXXX 3      o*      O  -0.820
O504     3.884171942   70.676190705    0.839238361 XXXX 3      o*      O  -0.820
H1005   17.567048514   79.123072234   25.669996565 XXXX 3      h*      H   0.410
H1006    4.700426689   70.199032787    0.679040941 XXXX 3      h*      H   0.410
H1007   16.550792119   80.288528495   25.566290371 XXXX 3      h*      H   0.410
H1008    3.806978879   70.502316594    1.790511282 XXXX 3      h*      H   0.410
O505    11.260256369   50.981196048    3.595710735 XXXX 3      o*      O  -0.820
O506    19.941973977   62.110473229   -0.711496816 XXXX 3      o*      O  -0.820
O507    16.640367629   67.249781702   11.475804080 XXXX 3      o*      O  -0.820
O508    24.422577786   85.492556964   17.202105915 XXXX 3      o*      O  -0.820
H1009   11.852336334   50.476918920    4.129309989 XXXX 3      h*      H   0.410
H1010   20.809499393   61.759818708   -0.443690180 XXXX 3      h*      H   0.410
H1011   15.752340935   66.976871625   11.896396210 XXXX 3      h*      H   0.410
H1012   24.299160524   85.319716522   18.150723705 XXXX 3      h*      H   0.410
H1013   10.470298536   50.429800097    3.415393353 XXXX 3      h*      H   0.410
H1014   19.520813226   62.211682876    0.172870695 XXXX 3      h*      H   0.410
H1015   17.268722192   66.618535885   11.927437008 XXXX 3      h*      H   0.410
H1016   24.599156453   84.594478504   16.939586994 XXXX 3      h*      H   0.410
O509    23.836400217   80.212864289   32.118402960 XXXX 3      o*      O  -0.820
O510    26.461521926   82.042250252    3.684291366 XXXX 3      o*      O  -0.820
O511    30.324069814   61.648470636    6.596960176 XXXX 3      o*      O  -0.820
O512    14.301200538   41.349139811   14.596581591 XXXX 3      o*      O  -0.820
O513    28.351375746   42.901411522   13.036697304 XXXX 3      o*      O  -0.820
O514    10.836339340   71.248325404    7.966078912 XXXX 3      o*      O  -0.820
O515     3.707989414   75.570825253    8.088872163 XXXX 3      o*      O  -0.820
H1017   23.200808342   79.785239938   32.804958386 XXXX 3      h*      H   0.410
H1018   26.094590768   82.927418151    3.985513163 XXXX 3      h*      H   0.410
H1019   30.580283202   60.962847322    5.955931952 XXXX 3      h*      H   0.410
H1020   15.226288588   41.627610869   14.589839755 XXXX 3      h*      H   0.410
H1021   28.828268121   42.394877734   12.359714502 XXXX 3      h*      H   0.410
H1022   11.118358899   70.506326373    7.384688662 XXXX 3      h*      H   0.410
H1023    4.277901785   75.038839894    7.513729622 XXXX 3      h*      H   0.410
H1024   24.663782985   80.078647280   32.541328848 XXXX 3      h*      H   0.410
H1025   26.067887661   81.488095148    4.360311713 XXXX 3      h*      H   0.410
H1026   29.489850603   61.920476262    6.086412528 XXXX 3      h*      H   0.410
H1027   13.918185923   41.994994105   15.220105451 XXXX 3      h*      H   0.410
H1028   27.996453599   42.137269582   13.578223310 XXXX 3      h*      H   0.410
H1029   10.014657599   70.903136874    8.425532401 XXXX 3      h*      H   0.410
H1030    3.683378601   74.977107785    8.804995495 XXXX 3      h*      H   0.410
O516    23.269623673   45.527975027   12.943274067 XXXX 3      o*      O  -0.820
O517    -0.585104926   57.306505998    4.551726355 XXXX 3      o*      O  -0.820
O518    31.668673602   76.153972633   26.295655532 XXXX 3      o*      O  -0.820
O519    15.847976128   79.391521280   19.147026552 XXXX 3      o*      O  -0.820
H1031   24.078887866   45.891477456   12.678131088 XXXX 3      h*      H   0.410
H1032   -0.937707241   56.642772511    3.971666597 XXXX 3      h*      H   0.410
H1033   31.745125122   76.117188001   25.291240495 XXXX 3      h*      H   0.410
H1034   16.395602863   78.921877794   18.498083195 XXXX 3      h*      H   0.410
H1035   23.581146636   44.876208466   13.587148449 XXXX 3      h*      H   0.410
H1036   -0.441594483   56.726522636    5.280473038 XXXX 3      h*      H   0.410
H1037   32.516471076   75.746283703   26.515609169 XXXX 3      h*      H   0.410
H1038   15.087238316   79.684440981   18.587585342 XXXX 3      h*      H   0.410
O520    27.499435978   68.798428592   23.856914731 XXXX 3      o*      O  -0.820
O521     1.843561500   74.509959993    3.485518858 XXXX 3      o*      O  -0.820
O522    20.185068054   57.535013186   17.603339236 XXXX 3      o*      O  -0.820
H1039   27.117534637   68.153676798   24.504453872 XXXX 3      h*      H   0.410
H1040    1.898433235   73.745947288    2.876940752 XXXX 3      h*      H   0.410
H1041   19.331570153   57.678306289   17.094727561 XXXX 3      h*      H   0.410
H1042   27.402860438   68.275168634   23.051542412 XXXX 3      h*      H   0.410
H1043    0.841331716   74.621142811    3.443043635 XXXX 3      h*      H   0.410
H1044   20.637831473   58.325542972   17.342039325 XXXX 3      h*      H   0.410
O523    24.528529995   47.878775718   21.633654628 XXXX 3      o*      O  -0.820
H1045   25.001042015   47.304114920   22.268487313 XXXX 3      h*      H   0.410
H1046   24.746614143   47.530754204   20.754445476 XXXX 3      h*      H   0.410
O524     5.078988622   73.248434245   -0.485298572 XXXX 3      o*      O  -0.820
H1047    4.616483119   72.474491376   -0.047146548 XXXX 3      h*      H   0.410
H1048    5.437050886   73.799742483    0.282567310 XXXX 3      h*      H   0.410
O525    29.666714869   63.584853034   13.991437595 XXXX 3      o*      O  -0.820
H1049   28.902385945   63.091515442   13.640497074 XXXX 3      h*      H   0.410
H1050   30.391144210   63.222971758   13.421436839 XXXX 3      h*      H   0.410
O526    19.620376795   73.630366217   16.953088073 XXXX 3      o*      O  -0.820
H1051   19.590621801   73.443946902   16.005056622 XXXX 3      h*      H   0.410
H1052   19.998615395   72.791329504   17.251514411 XXXX 3      h*      H   0.410
O527     8.552666478   71.659698145   19.237832214 XXXX 3      o*      O  -0.820
H1053    7.967441624   72.299215529   19.739917969 XXXX 3      h*      H   0.410
H1054    8.053594894   71.672679127   18.360796242 XXXX 3      h*      H   0.410
O528    13.115358212   49.414396994    5.076390810 XXXX 3      o*      O  -0.820
H1055   13.773935185   48.650387103    5.094194614 XXXX 3      h*      H   0.410
H1056   12.637261393   48.981894063    5.794985856 XXXX 3      h*      H   0.410
O529    23.364520113   48.048662413   16.336652632 XXXX 3      o*      O  -0.820
H1057   23.973960202   47.427275514   16.796340847 XXXX 3      h*      H   0.410
H1058   24.016365953   48.719535938   16.115529328 XXXX 3      h*      H   0.410
O530    17.442168245   55.648628460   28.773771301 XXXX 3      o*      O  -0.820
H1059   16.674967837   55.082766491   28.853784542 XXXX 3      h*      H   0.410
H1060   16.964989722   56.497352188   28.424317906 XXXX 3      h*      H   0.410
O531    -1.934253247   45.581860786   17.963474803 XXXX 3      o*      O  -0.820
H1061   -2.127577221   45.600953637   18.893758790 XXXX 3      h*      H   0.410
H1062   -1.198342011   44.949641776   17.912273784 XXXX 3      h*      H   0.410
O532    15.296027702   82.397300907    8.356316802 XXXX 3      o*      O  -0.820
H1063   16.063638017   81.799693772    8.063976514 XXXX 3      h*      H   0.410
H1064   14.660605271   82.135550395    7.688613711 XXXX 3      h*      H   0.410
O533    30.847049395   65.896356010   27.137366677 XXXX 3      o*      O  -0.820
H1065   29.876664160   65.839893944   26.777855258 XXXX 3      h*      H   0.410
H1066   31.145588378   64.974670894   27.158699701 XXXX 3      h*      H   0.410
O534    14.074735702   41.235303138    6.490068805 XXXX 3      o*      O  -0.820
H1067   13.702228102   40.444075420    5.985924222 XXXX 3      h*      H   0.410
H1068   14.962512615   40.880016389    6.733009183 XXXX 3      h*      H   0.410
O535    18.384800174   46.184552111   22.427191565 XXXX 3      o*      O  -0.820
H1069   18.471687141   46.236374521   21.463536158 XXXX 3      h*      H   0.410
H1070   17.444510959   45.858781957   22.565172590 XXXX 3      h*      H   0.410
O536    27.208275232   49.963662414    7.796372522 XXXX 3      o*      O  -0.820
H1071   27.253063319   49.447501563    6.943693730 XXXX 3      h*      H   0.410
H1072   26.282386368   50.050268228    7.859633849 XXXX 3      h*      H   0.410
O537     3.235426206   68.472924181   12.945254858 XXXX 3      o*      O  -0.820
H1073    2.407804703   67.973980019   12.941954228 XXXX 3      h*      H   0.410
H1074    3.790796308   67.835904416   13.399544477 XXXX 3      h*      H   0.410
O538     6.302305538   59.198213123   17.424300931 XXXX 3      o*      O  -0.820
H1075    6.338757792   58.313807588   16.938271371 XXXX 3      h*      H   0.410
H1076    6.822736706   59.616893506   16.713240717 XXXX 3      h*      H   0.410
O539     9.326042131   48.605337412    2.373006916 XXXX 3      o*      O  -0.820
H1077    9.662636310   48.308058990    3.222115995 XXXX 3      h*      H   0.410
H1078    9.298258021   47.753866867    1.873182397 XXXX 3      h*      H   0.410
O540    27.442745256   40.590624618   26.198847986 XXXX 3      o*      O  -0.820
H1079   26.829769721   40.851294633   26.906870691 XXXX 3      h*      H   0.410
H1080   26.914935282   40.939986262   25.424580286 XXXX 3      h*      H   0.410
O541    29.784556342   67.766583216    9.831825741 XXXX 3      o*      O  -0.820
H1081   29.138038652   67.544484839    9.132249142 XXXX 3      h*      H   0.410
H1082   29.406030761   67.110309840   10.438773351 XXXX 3      h*      H   0.410
O542    12.098556321   68.717753935   17.798835309 XXXX 3      o*      O  -0.820
H1083   12.776164730   67.991701296   17.724856915 XXXX 3      h*      H   0.410
H1084   11.673508321   68.479697658   18.716327605 XXXX 3      h*      H   0.410
O543     8.602984583   45.245525301   32.780537831 XXXX 3      o*      O  -0.820
H1085    8.250857785   45.381769140   33.724356893 XXXX 3      h*      H   0.410
H1086    9.117494691   44.384769775   33.003955866 XXXX 3      h*      H   0.410
O544     3.761390166   57.462637653    6.696979536 XXXX 3      o*      O  -0.820
H1087    4.651858407   57.094054882    6.849412370 XXXX 3      h*      H   0.410
H1088    3.862220746   57.923455354    5.834104731 XXXX 3      h*      H   0.410
O545    30.778499866   46.360108844    7.101313759 XXXX 3      o*      O  -0.820
H1089   30.221355533   47.021669920    7.613077613 XXXX 3      h*      H   0.410
H1090   30.053359671   45.870062363    6.594893575 XXXX 3      h*      H   0.410
O546     3.751476751   49.310732946   22.469718943 XXXX 3      o*      O  -0.820
H1091    3.573383669   48.359836781   22.289083532 XXXX 3      h*      H   0.410
H1092    4.597128920   49.194648413   22.989114652 XXXX 3      h*      H   0.410
O547     4.818386908   43.708818996   27.001591805 XXXX 3      o*      O  -0.820
H1093    4.774351872   43.973845827   27.922205233 XXXX 3      h*      H   0.410
H1094    4.836775516   42.740012055   27.039077176 XXXX 3      h*      H   0.410
O548    12.044471182   60.467483484   29.966961258 XXXX 3      o*      O  -0.820
H1095   12.311413329   59.513337098   29.918942201 XXXX 3      h*      H   0.410
H1096   12.453086582   60.821504147   29.189965569 XXXX 3      h*      H   0.410
O549    30.931658860   60.195337994   13.411483612 XXXX 3      o*      O  -0.820
H1097   30.654621011   59.231386547   13.357593264 XXXX 3      h*      H   0.410
H1098   30.854605330   60.448995737   12.476815586 XXXX 3      h*      H   0.410
O550     9.037852779   55.169590536   14.771804870 XXXX 3      o*      O  -0.820
H1099    9.671848058   54.711936760   15.431143773 XXXX 3      h*      H   0.410
H1100    8.519198493   55.796431066   15.219904076 XXXX 3      h*      H   0.410
O551    25.581068888   59.698634983   18.401114374 XXXX 3      o*      O  -0.820
O552    14.234214646   44.121905917    6.623905780 XXXX 3      o*      O  -0.820
O553     6.872883627   91.720101903   10.071400119 XXXX 3      o*      O  -0.820
O554    13.582971157   70.542694734    7.032979474 XXXX 3      o*      O  -0.820
H1101   26.214525643   59.361652525   17.754540421 XXXX 3      h*      H   0.410
H1102   13.708714358   44.245353333    7.472897600 XXXX 3      h*      H   0.410
H1103    6.888796362   91.645425878   11.067658203 XXXX 3      h*      H   0.410
H1104   14.539982259   70.670398022    7.045687509 XXXX 3      h*      H   0.410
H1105   25.001407478   58.910783324   18.465363810 XXXX 3      h*      H   0.410
H1106   14.104790681   43.152779824    6.567264105 XXXX 3      h*      H   0.410
H1107    6.350421724   90.880287986    9.910337032 XXXX 3      h*      H   0.410
H1108   13.475848278   69.606389128    7.455017383 XXXX 3      h*      H   0.410
O555     9.179315648   46.754957001   24.399573824 XXXX 3      o*      O  -0.820
H1109    9.933682933   46.371605258   23.963397303 XXXX 3      h*      H   0.410
H1110    8.949012934   46.019053621   24.977216612 XXXX 3      h*      H   0.410
O556    26.095025521   44.856836209   14.535211037 XXXX 3      o*      O  -0.820
O557    20.759691227   62.101626881   15.862341044 XXXX 3      o*      O  -0.820
O558    17.390028904   45.339706761   16.848122005 XXXX 3      o*      O  -0.820
O559     3.205742840   55.957217415   31.457805922 XXXX 3      o*      O  -0.820
H1111   25.265548897   44.366904877   14.782794867 XXXX 3      h*      H   0.410
H1112   21.336754433   61.791634597   15.103225752 XXXX 3      h*      H   0.410
H1113   17.270870389   44.498207102   17.299579150 XXXX 3      h*      H   0.410
H1114    3.955129611   55.282049285   31.472269918 XXXX 3      h*      H   0.410
H1115   26.750061286   44.367924018   15.085499191 XXXX 3      h*      H   0.410
H1116   21.102014962   61.408358124   16.466374603 XXXX 3      h*      H   0.410
H1117   17.784110127   44.913270727   16.024750582 XXXX 3      h*      H   0.410
H1118    3.295358508   56.142452865   30.504301461 XXXX 3      h*      H   0.410
O560    17.899396996   45.853592230    0.388415329 XXXX 3      o*      O  -0.820
O561    20.824888345   53.696507028    1.100396640 XXXX 3      o*      O  -0.820
H1119   17.389388967   46.372903190   -0.262721121 XXXX 3      h*      H   0.410
H1120   20.934771055   53.351272233    0.188260683 XXXX 3      h*      H   0.410
H1121   17.203774753   45.521428458    0.997979368 XXXX 3      h*      H   0.410
H1122   20.815882463   52.825171803    1.554453429 XXXX 3      h*      H   0.410
O562    17.462156585   47.798088491   18.179824338 XXXX 3      o*      O  -0.820
H1123   17.280818503   46.968050293   17.683000426 XXXX 3      h*      H   0.410
H1124   17.962819454   47.353075506   18.949840857 XXXX 3      h*      H   0.410
O563    18.663553381   40.089018237   18.198107380 XXXX 3      o*      O  -0.820
H1125   17.902493350   39.526278175   17.839002920 XXXX 3      h*      H   0.410
H1126   19.407426981   39.589737257   17.799372209 XXXX 3      h*      H   0.410
O564    12.894856346   63.368943669   21.525205922 XXXX 3      o*      O  -0.820
O565    21.529058706   56.350340311   25.825400438 XXXX 3      o*      O  -0.820
O566    22.891000580   76.535487369   22.617916759 XXXX 3      o*      O  -0.820
H1127   12.851087438   63.573816577   22.553469238 XXXX 3      h*      H   0.410
H1128   21.794702995   55.602657736   25.225738560 XXXX 3      h*      H   0.410
H1129   21.960838829   76.295024227   22.401010031 XXXX 3      h*      H   0.410
H1130   13.155119142   62.430752329   21.566990530 XXXX 3      h*      H   0.410
H1131   20.862011903   55.793982736   26.304783798 XXXX 3      h*      H   0.410
H1132   23.303835970   75.871179316   21.976425570 XXXX 3      h*      H   0.410
O567    23.467747811   58.240854586   26.021555333 XXXX 3      o*      O  -0.820
H1133   22.655387044   57.737109060   26.320419579 XXXX 3      h*      H   0.410
H1134   23.932477077   57.629856373   25.451281711 XXXX 3      h*      H   0.410
O568    12.054781365   40.500583568   27.213695509 XXXX 3      o*      O  -0.820
O569    21.535435233   36.079887395   31.767642462 XXXX 3      o*      O  -0.820
O570    18.432075559   76.948978172   30.239120203 XXXX 3      o*      O  -0.820
H1135   12.869246843   40.419341570   26.630368260 XXXX 3      h*      H   0.410
H1136   22.366030096   35.557684961   31.964235876 XXXX 3      h*      H   0.410
H1137   18.739715527   76.632589634   31.115002679 XXXX 3      h*      H   0.410
H1138   11.476491463   39.737633694   26.925188478 XXXX 3      h*      H   0.410
H1139   21.282514614   35.337046892   31.145862756 XXXX 3      h*      H   0.410
H1140   18.261121632   77.880399973   30.473742433 XXXX 3      h*      H   0.410
O571    21.383199610   50.857132496   25.886724169 XXXX 3      o*      O  -0.820
H1141   20.868249750   50.291626025   25.259192082 XXXX 3      h*      H   0.410
H1142   20.693308368   51.160199669   26.455016231 XXXX 3      h*      H   0.410
O572    33.490081225   46.974865852    6.461009372 XXXX 3      o*      O  -0.820
O573    19.284757864   56.527813109    7.032764201 XXXX 3      o*      O  -0.820
O574    10.393571430   74.713353360   22.235434916 XXXX 3      o*      O  -0.820
O575    -2.156276570   51.644977114    2.865843773 XXXX 3      o*      O  -0.820
O576    30.144903227   41.092707973   23.802070857 XXXX 3      o*      O  -0.820
O577    23.979578487   46.336952691    3.389769527 XXXX 3      o*      O  -0.820
H1143   32.642067918   47.284317563    6.953108764 XXXX 3      h*      H   0.410
H1144   20.028335256   57.127753266    7.279537037 XXXX 3      h*      H   0.410
H1145   11.113397596   75.102262751   22.777558076 XXXX 3      h*      H   0.410
H1146   -1.479817555   52.026065591    2.258908710 XXXX 3      h*      H   0.410
H1147   29.494161292   40.547995187   23.295699265 XXXX 3      h*      H   0.410
H1148   23.847891417   46.595873663    4.343214699 XXXX 3      h*      H   0.410
H1149   33.139687322   47.005808273    5.561786883 XXXX 3      h*      H   0.410
H1150   19.722653717   55.688204754    6.651191098 XXXX 3      h*      H   0.410
H1151   10.897883732   73.886660566   22.092092276 XXXX 3      h*      H   0.410
H1152   -2.599506127   51.091119445    2.162757805 XXXX 3      h*      H   0.410
H1153   30.877376546   40.999603764   23.136508422 XXXX 3      h*      H   0.410
H1154   24.842931013   45.924943935    3.506586592 XXXX 3      h*      H   0.410
O578     9.966555918   63.873540662    4.647738173 XXXX 3      o*      O  -0.820
O579    15.360573311   32.485066780   21.307980157 XXXX 3      o*      O  -0.820
O580     7.111175504   38.259280678    4.697010938 XXXX 3      o*      O  -0.820
H1155    9.392646780   64.402526196    5.276458142 XXXX 3      h*      H   0.410
H1156   15.950034667   33.080751318   21.846923731 XXXX 3      h*      H   0.410
H1157    6.576818047   38.494198591    3.926944777 XXXX 3      h*      H   0.410
H1158    9.525650064   62.990325209    4.832850478 XXXX 3      h*      H   0.410
H1159   14.607341173   32.416792577   21.995154081 XXXX 3      h*      H   0.410
H1160    7.713111826   37.619293882    4.188261035 XXXX 3      h*      H   0.410
O581    24.997285548   80.041568998    5.121682082 XXXX 3      o*      O  -0.820
H1161   24.392555503   79.982124869    5.877105887 XXXX 3      h*      H   0.410
H1162   25.214474109   79.085450222    5.095330818 XXXX 3      h*      H   0.410
O582    14.514275700   56.301341596   12.903516693 XXXX 3      o*      O  -0.820
O583    -2.873455708   47.955279924   26.506821138 XXXX 3      o*      O  -0.820
O584     8.921611115   68.837264839   26.966148134 XXXX 3      o*      O  -0.820
H1163   14.915591468   55.942464464   13.703474964 XXXX 3      h*      H   0.410
H1164   -3.715731010   47.439916260   26.436211599 XXXX 3      h*      H   0.410
H1165    8.750324499   69.618574681   27.534779492 XXXX 3      h*      H   0.410
H1166   13.912467764   55.565211739   12.815703301 XXXX 3      h*      H   0.410
H1167   -3.046466677   48.736716211   25.973607531 XXXX 3      h*      H   0.410
H1168    8.176054378   68.310739793   27.241203132 XXXX 3      h*      H   0.410
O585     7.417235553   86.751585105    9.885937820 XXXX 3      o*      O  -0.820
O586    11.329168761   79.948638370   29.050656317 XXXX 3      o*      O  -0.820
H1169    7.490008604   86.268413435    8.982448657 XXXX 3      h*      H   0.410
H1170   10.718067315   79.234840336   28.795048236 XXXX 3      h*      H   0.410
H1171    6.429374248   86.826734097    9.843885708 XXXX 3      h*      H   0.410
H1172   11.298723569   79.826739655   30.020664717 XXXX 3      h*      H   0.410
O587    21.929295674   39.682467778    8.355537005 XXXX 3      o*      O  -0.820
O588     5.603086582   49.660720039    9.043588842 XXXX 3      o*      O  -0.820
O589     2.328546883   72.474105212   16.465964502 XXXX 3      o*      O  -0.820
H1173   21.512528172   38.877159781    8.693614021 XXXX 3      h*      H   0.410
H1174    5.814870250   49.182493321    8.178153886 XXXX 3      h*      H   0.410
H1175    2.436480841   72.438510181   15.494931660 XXXX 3      h*      H   0.410
H1176   22.389447246   39.989893576    9.125082532 XXXX 3      h*      H   0.410
H1177    5.710668665   48.811271928    9.606457921 XXXX 3      h*      H   0.410
H1178    2.190201752   71.533804205   16.573111642 XXXX 3      h*      H   0.410
O590    18.782481241   57.514152419   26.519847220 XXXX 3      o*      O  -0.820
H1179   18.369480502   56.654437044   26.488746647 XXXX 3      h*      H   0.410
H1180   18.454549182   57.945289636   25.704470565 XXXX 3      h*      H   0.410
O591    10.493506769   82.501576717   10.543289022 XXXX 3      o*      O  -0.820
H1181   10.743760705   82.556437494    9.620290356 XXXX 3      h*      H   0.410
H1182    9.877329065   81.667442458   10.540071330 XXXX 3      h*      H   0.410
O592     7.989352705   79.946336220   22.874706961 XXXX 3      o*      O  -0.820
O593    10.763842758   75.435881630   26.662301193 XXXX 3      o*      O  -0.820
O594    11.364737990   68.151240135    5.724066931 XXXX 3      o*      O  -0.820
H1183    8.164560800   78.962975271   22.994965458 XXXX 3      h*      H   0.410
H1184   11.052825355   75.179581322   25.785257458 XXXX 3      h*      H   0.410
H1185   11.833369198   67.431046155    5.225096421 XXXX 3      h*      H   0.410
H1186    8.867580282   80.393757717   23.138375361 XXXX 3      h*      H   0.410
H1187   10.626523328   74.483455928   26.986723124 XXXX 3      h*      H   0.410
H1188   11.786851767   68.089568216    6.652824832 XXXX 3      h*      H   0.410
O595    14.780648072   50.354221511   25.285063857 XXXX 3      o*      O  -0.820
H1189   15.294676262   51.199363682   25.442530358 XXXX 3      h*      H   0.410
H1190   15.398021321   49.912520770   24.672813615 XXXX 3      h*      H   0.410
O596    27.643750651   32.080640648    7.602729403 XXXX 3      o*      O  -0.820
H1191   27.082748596   32.656033188    8.135326999 XXXX 3      h*      H   0.410
H1192   27.506493765   32.524405031    6.756133581 XXXX 3      h*      H   0.410
O597    15.474305697   45.569802113    2.766144996 XXXX 3      o*      O  -0.820
O598    22.888868540   51.069913310   16.534608973 XXXX 3      o*      O  -0.820
H1193   14.521241882   45.379730704    2.869969392 XXXX 3      h*      H   0.410
H1194   22.082360003   51.182063133   17.042566527 XXXX 3      h*      H   0.410
H1195   15.827443291   44.698262698    2.481046681 XXXX 3      h*      H   0.410
H1196   22.492081221   50.599425953   15.779663836 XXXX 3      h*      H   0.410
O599    14.990755047   58.136894253    4.638747081 XXXX 3      o*      O  -0.820
H1197   14.427006525   57.910066993    5.417269053 XXXX 3      h*      H   0.410
H1198   14.853990141   57.417437541    3.995499858 XXXX 3      h*      H   0.410
O600     0.753395145   33.728608481    3.014028167 XXXX 3      o*      O  -0.820
H1199    1.716861437   33.503320460    3.290657526 XXXX 3      h*      H   0.410
H1200    0.413485074   32.822318423    2.801868224 XXXX 3      h*      H   0.410
O601    14.692935563   43.674006745   12.215527096 XXXX 3      o*      O  -0.820
H1201   14.745327763   44.151943462   13.100101149 XXXX 3      h*      H   0.410
H1202   15.685542688   43.560693794   11.920877490 XXXX 3      h*      H   0.410
O602    32.009349138   66.643367953   29.742008097 XXXX 3      o*      O  -0.820
O603    -3.607647430   58.600938551   24.838659300 XXXX 3      o*      O  -0.820
H1203   31.582694328   66.842179938   28.919715635 XXXX 3      h*      H   0.410
H1204   -2.905427719   58.257239156   24.287936216 XXXX 3      h*      H   0.410
H1205   31.558804239   67.315730323   30.404793114 XXXX 3      h*      H   0.410
H1206   -4.014196037   57.705146266   25.117771390 XXXX 3      h*      H   0.410
O604    18.801862225   74.916205404   20.274498855 XXXX 3      o*      O  -0.820
H1207   18.124883164   74.696178150   19.631796959 XXXX 3      h*      H   0.410
H1208   19.111116889   74.037320677   20.544090605 XXXX 3      h*      H   0.410
O605    20.823950651   62.265907357    6.523446780 XXXX 3      o*      O  -0.820
H1209   20.935770659   62.118368107    7.525986637 XXXX 3      h*      H   0.410
H1210   19.920062940   62.545378014    6.525926600 XXXX 3      h*      H   0.410
O606    12.236407647   45.451611388   19.167839750 XXXX 3      o*      O  -0.820
O607     9.924456774   55.086304026   17.467986379 XXXX 3      o*      O  -0.820
H1211   12.524346388   45.067666065   20.014410622 XXXX 3      h*      H   0.410
H1212    9.372420001   55.264198705   18.231555351 XXXX 3      h*      H   0.410
H1213   12.835074373   46.209310617   19.025151098 XXXX 3      h*      H   0.410
H1214   10.723299643   55.114529916   18.061556843 XXXX 3      h*      H   0.410
O608    -3.389205304   80.246399398   25.345771133 XXXX 3      o*      O  -0.820
H1215   -3.719235504   79.312215919   25.294353496 XXXX 3      h*      H   0.410
H1216   -3.929275818   80.626485307   26.108732084 XXXX 3      h*      H   0.410
O609    23.400229461   43.021329018    3.067878851 XXXX 3      o*      O  -0.820
H1217   24.079008694   42.379841445    3.394296558 XXXX 3      h*      H   0.410
H1218   23.964452305   43.597788833    2.521340948 XXXX 3      h*      H   0.410
O610     7.481419665   57.315014745   23.036065603 XXXX 3      o*      O  -0.820
H1219    7.463819112   57.810754825   23.879658313 XXXX 3      h*      H   0.410
H1220    8.372410496   56.845799603   23.085259511 XXXX 3      h*      H   0.410
O611    24.050156330   49.700169578   32.341959775 XXXX 3      o*      O  -0.820
H1221   25.108206403   49.576469332   32.162836829 XXXX 3      h*      H   0.410
H1222   23.731751946   49.089037605   31.672013973 XXXX 3      h*      H   0.410
O612     0.238389653   37.007983037    8.640616910 XXXX 3      o*      O  -0.820
H1223    1.039560930   37.261159441    8.128255584 XXXX 3      h*      H   0.410
H1224    0.161050832   36.015075086    8.355558966 XXXX 3      h*      H   0.410
O613    10.215909774   67.456602428   23.177667716 XXXX 3      o*      O  -0.820
O614    14.938233561   75.375200150    9.521444592 XXXX 3      o*      O  -0.820
H1225   10.002140046   67.133669996   22.255926174 XXXX 3      h*      H   0.410
H1226   15.299547178   74.458896088    9.432552351 XXXX 3      h*      H   0.410
H1227   11.149517213   67.089382788   23.138739269 XXXX 3      h*      H   0.410
H1228   14.789379205   75.352812213   10.507712658 XXXX 3      h*      H   0.410
O615    17.549604611   32.070160668    4.778911996 XXXX 3      o*      O  -0.820
H1229   18.514473729   32.301323870    4.960260356 XXXX 3      h*      H   0.410
H1230   17.530806461   31.139313234    5.030567003 XXXX 3      h*      H   0.410
O616    21.591124287   48.376022423   33.283428339 XXXX 3      o*      O  -0.820
H1231   22.558946395   48.513923298   33.429653430 XXXX 3      h*      H   0.410
H1232   21.715603853   47.635598237   32.608373527 XXXX 3      h*      H   0.410
O617    28.837826186   51.026505860   10.561485268 XXXX 3      o*      O  -0.820
H1233   28.295671461   50.298123778   10.895176709 XXXX 3      h*      H   0.410
H1234   29.787145538   50.643911970   10.794502998 XXXX 3      h*      H   0.410
O618    19.065889415   76.103526847   26.756423515 XXXX 3      o*      O  -0.820
H1235   19.662210768   75.702187324   27.435864904 XXXX 3      h*      H   0.410
H1236   19.008459811   77.064211780   27.046891675 XXXX 3      h*      H   0.410
O619    12.885263271   50.572983514   19.563707233 XXXX 3      o*      O  -0.820
H1237   12.311238603   50.205561681   18.939976721 XXXX 3      h*      H   0.410
H1238   13.219833583   49.691487825   19.910891035 XXXX 3      h*      H   0.410
O620    25.562325308   71.899136074    9.282300678 XXXX 3      o*      O  -0.820
H1239   24.873857490   71.495770598    9.865049986 XXXX 3      h*      H   0.410
H1240   26.342106888   71.423524159    9.587867019 XXXX 3      h*      H   0.410
O621    26.504462700   79.467464584   19.515851924 XXXX 3      o*      O  -0.820
H1241   27.263467443   79.134481819   19.032761502 XXXX 3      h*      H   0.410
H1242   26.277434658   78.625556637   19.980082591 XXXX 3      h*      H   0.410
O622    18.008302370   43.532925450   -1.816032298 XXXX 3      o*      O  -0.820
H1243   18.168077015   42.784996816   -2.430261263 XXXX 3      h*      H   0.410
H1244   17.449487705   43.063620349   -1.116345689 XXXX 3      h*      H   0.410
O623    26.007757691   55.039673955   18.066673599 XXXX 3      o*      O  -0.820
H1245   25.449017105   54.236830451   18.113236352 XXXX 3      h*      H   0.410
H1246   26.770517381   54.855174635   18.648372445 XXXX 3      h*      H   0.410
O624    26.990167573   54.573844971   14.568626047 XXXX 3      o*      O  -0.820
O625    11.444639147   59.158525496    8.653386243 XXXX 3      o*      O  -0.820
H1247   26.334341577   53.923282441   14.265220116 XXXX 3      h*      H   0.410
H1248   11.170301451   58.195183879    8.499390608 XXXX 3      h*      H   0.410
H1249   27.399271396   53.852617141   15.183401427 XXXX 3      h*      H   0.410
H1250   12.281031242   59.102558051    9.176110592 XXXX 3      h*      H   0.410
O626    11.602649502   45.729678900    5.438546823 XXXX 3      o*      O  -0.820
H1251   11.973276404   45.867878823    6.382022438 XXXX 3      h*      H   0.410
H1252   11.380543664   44.771206503    5.653860954 XXXX 3      h*      H   0.410
O627     1.609616887   63.967636092    2.383524281 XXXX 3      o*      O  -0.820
H1253    1.133487088   64.839050618    2.427295355 XXXX 3      h*      H   0.410
H1254    2.370659715   64.328037287    1.865028057 XXXX 3      h*      H   0.410
O628    22.021336104   70.232217063   28.908652356 XXXX 3      o*      O  -0.820
H1255   22.563798125   69.397613516   28.761346815 XXXX 3      h*      H   0.410
H1256   21.193743435   69.730425629   28.502534750 XXXX 3      h*      H   0.410
O629    12.009855293   68.321930450   15.077329212 XXXX 3      o*      O  -0.820
H1257   11.941127106   68.493161538   16.015229009 XXXX 3      h*      H   0.410
H1258   12.132778322   67.321177043   15.167344708 XXXX 3      h*      H   0.410
O630    26.825598342   85.860440089   20.009421570 XXXX 3      o*      O  -0.820
H1259   27.139364340   85.343868776   20.729545696 XXXX 3      h*      H   0.410
H1260   25.931366774   85.443177938   19.953051072 XXXX 3      h*      H   0.410
O631    20.369866713   54.568825601    5.289283178 XXXX 3      o*      O  -0.820
H1261   21.035411902   53.900935004    5.127606681 XXXX 3      h*      H   0.410
H1262   19.564533687   53.944953466    5.182557819 XXXX 3      h*      H   0.410
O632    18.420761567   50.110110693   29.425162530 XXXX 3      o*      O  -0.820
O633    17.522770214   92.203038396    7.518714268 XXXX 3      o*      O  -0.820
H1263   17.842966900   49.385193838   29.659849438 XXXX 3      h*      H   0.410
H1264   17.267878028   91.370242213    7.050314921 XXXX 3      h*      H   0.410
H1265   19.332515703   49.758493828   29.580774400 XXXX 3      h*      H   0.410
H1266   18.178807848   91.731540578    8.141289480 XXXX 3      h*      H   0.410
O634    24.375423477   36.150014542    6.806608477 XXXX 3      o*      O  -0.820
O635    25.328150489   71.597421378   21.931398504 XXXX 3      o*      O  -0.820
H1267   24.280501333   37.122767449    6.866372171 XXXX 3      h*      H   0.410
H1268   24.636589445   71.215459096   21.332473084 XXXX 3      h*      H   0.410
H1269   25.239041695   36.131283570    7.320189273 XXXX 3      h*      H   0.410
H1270   24.819992915   72.191886449   22.502598114 XXXX 3      h*      H   0.410
O636    31.794850474   64.736827457    6.214307455 XXXX 3      o*      O  -0.820
H1271   32.406292390   65.485882291    6.143985323 XXXX 3      h*      H   0.410
H1272   31.732018615   64.636907787    5.265733297 XXXX 3      h*      H   0.410
O637    17.213627040   68.958548699    7.338296840 XXXX 3      o*      O  -0.820
H1273   16.657039582   68.439131115    7.878628856 XXXX 3      h*      H   0.410
H1274   17.101405392   68.607973671    6.463531529 XXXX 3      h*      H   0.410
O638    22.117846487   88.703877265    4.274913763 XXXX 3      o*      O  -0.820
H1275   23.048103300   88.491922352    4.410964877 XXXX 3      h*      H   0.410
H1276   22.153461147   89.665443256    4.423475081 XXXX 3      h*      H   0.410
O639    21.776163132   87.972527088    9.165868936 XXXX 3      o*      O  -0.820
O640    28.325245561   47.656523466   20.772133795 XXXX 3      o*      O  -0.820
H1277   22.424901022   87.397920317    9.593051033 XXXX 3      h*      H   0.410
H1278   28.289564448   46.706574608   20.551128014 XXXX 3      h*      H   0.410
H1279   21.074413602   87.329666975    9.040583456 XXXX 3      h*      H   0.410
H1280   27.721887027   48.060021957   20.058687963 XXXX 3      h*      H   0.410
O641    22.695426304   45.330899842   29.395678950 XXXX 3      o*      O  -0.820
H1281   22.730926331   44.561083331   28.732104967 XXXX 3      h*      H   0.410
H1282   22.014485298   45.042352502   30.040766776 XXXX 3      h*      H   0.410
O642    18.542143894   55.138789994   12.127180858 XXXX 3      o*      O  -0.820
H1283   19.172189468   54.394853236   11.868580458 XXXX 3      h*      H   0.410
H1284   18.409633977   54.963382015   13.114859203 XXXX 3      h*      H   0.410
O643    27.108065568   52.252478668    5.188074964 XXXX 3      o*      O  -0.820
H1285   27.661734620   52.394421903    4.407020456 XXXX 3      h*      H   0.410
H1286   26.523658272   51.531047756    4.793341315 XXXX 3      h*      H   0.410
O644    20.119306044   38.830978281   26.632086862 XXXX 3      o*      O  -0.820
O645    17.034035434   63.127328493   25.359368925 XXXX 3      o*      O  -0.820
H1287   20.136410456   38.445052957   25.722165992 XXXX 3      h*      H   0.410
H1288   17.546292584   63.421716308   26.153968873 XXXX 3      h*      H   0.410
H1289   19.626116843   38.075150189   27.046307248 XXXX 3      h*      H   0.410
H1290   16.154752740   62.810437912   25.781670742 XXXX 3      h*      H   0.410
O646     9.955250685   87.319223216   10.775099946 XXXX 3      o*      O  -0.820
O647    30.222875052   68.684349829   17.759621604 XXXX 3      o*      O  -0.820
H1291    9.140719589   86.869039016   10.510746028 XXXX 3      h*      H   0.410
H1292   29.848756564   67.900184756   18.329169143 XXXX 3      h*      H   0.410
H1293   10.270601069   86.714939382   11.484401840 XXXX 3      h*      H   0.410
H1294   30.186623390   68.140215034   16.953759025 XXXX 3      h*      H   0.410
O648     4.752749160   78.060033528    5.741238211 XXXX 3      o*      O  -0.820
O649     8.814132974   67.506158084   16.305897974 XXXX 3      o*      O  -0.820
H1295    4.813604096   77.256245151    6.320226437 XXXX 3      h*      H   0.410
H1296    8.873041618   67.748713150   15.314071671 XXXX 3      h*      H   0.410
H1297    4.507765078   77.668005138    4.923804640 XXXX 3      h*      H   0.410
H1298    7.823091893   67.548575567   16.406922536 XXXX 3      h*      H   0.410
O650    13.824512709   51.414619959    9.319320512 XXXX 3      o*      O  -0.820
H1299   14.423735247   50.854003505    9.818497962 XXXX 3      h*      H   0.410
H1300   13.113118605   50.739221144    9.232738414 XXXX 3      h*      H   0.410
O651    15.254674017   81.626544725    4.513159290 XXXX 3      o*      O  -0.820
H1301   15.862572091   82.231399743    4.112094991 XXXX 3      h*      H   0.410
H1302   15.405648314   80.845865771    3.947534912 XXXX 3      h*      H   0.410
O652     7.719097654   74.394948943   24.471364718 XXXX 3      o*      O  -0.820
O653    27.900944189   54.063646034   29.070856593 XXXX 3      o*      O  -0.820
H1303    8.615024570   74.369397417   24.090693437 XXXX 3      h*      H   0.410
H1304   27.042502414   54.465374824   29.087606339 XXXX 3      h*      H   0.410
H1305    7.369018910   73.501502105   24.262777461 XXXX 3      h*      H   0.410
H1306   28.076305287   54.196747883   28.060582475 XXXX 3      h*      H   0.410
O654    27.713581115   88.817875636   29.219924821 XXXX 3      o*      O  -0.820
H1307   27.898237466   89.127504850   30.131345230 XXXX 3      h*      H   0.410
H1308   28.300324203   88.073927070   29.208169840 XXXX 3      h*      H   0.410
O655    15.155399166   51.509445861   -0.024995413 XXXX 3      o*      O  -0.820
O656     5.468445231   78.139270063   10.679593904 XXXX 3      o*      O  -0.820
O657     8.481582688   48.131798164    7.186590075 XXXX 3      o*      O  -0.820
O658    14.606614259   80.178327090   25.320603829 XXXX 3      o*      O  -0.820
O659    13.170197527   37.084875065   30.652100540 XXXX 3      o*      O  -0.820
H1309   14.535449035   50.922309243   -0.510032273 XXXX 3      h*      H   0.410
H1310    5.637416514   77.688323834    9.877529895 XXXX 3      h*      H   0.410
H1311    7.488629158   48.086398619    6.971417809 XXXX 3      h*      H   0.410
H1312   13.933562230   79.507975329   25.210809038 XXXX 3      h*      H   0.410
H1313   13.961376794   36.681247571   31.078193906 XXXX 3      h*      H   0.410
H1314   14.785331604   51.595006542    0.897892605 XXXX 3      h*      H   0.410
H1315    5.123001255   78.965333891   10.239383597 XXXX 3      h*      H   0.410
H1316    8.733462618   47.142509797    7.210392563 XXXX 3      h*      H   0.410
H1317   14.327938254   80.922589319   24.727025719 XXXX 3      h*      H   0.410
H1318   13.288719931   37.888335025   31.284290448 XXXX 3      h*      H   0.410
O660    18.800125062   78.386495871   16.338072902 XXXX 3      o*      O  -0.820
H1319   17.844457622   78.000524182   16.249238328 XXXX 3      h*      H   0.410
H1320   19.324135729   77.553857178   16.343073438 XXXX 3      h*      H   0.410
O661    21.699733830   71.336638773   17.474747842 XXXX 3      o*      O  -0.820
O662    20.654333359   64.356865924    8.753714641 XXXX 3      o*      O  -0.820
O663    18.536987586   61.790624326    7.686475970 XXXX 3      o*      O  -0.820
O664    19.642596866   85.561905376   16.392146938 XXXX 3      o*      O  -0.820
H1321   22.372341041   71.723310419   16.817866939 XXXX 3      h*      H   0.410
H1322   21.585946511   63.948403976    8.890634981 XXXX 3      h*      H   0.410
H1323   17.718846502   62.049276667    8.164121420 XXXX 3      h*      H   0.410
H1324   19.355485855   84.787270253   17.022269382 XXXX 3      h*      H   0.410
H1325   21.491670555   70.541236760   16.935739709 XXXX 3      h*      H   0.410
H1326   20.112992177   64.233937533    9.626117318 XXXX 3      h*      H   0.410
H1327   18.954572814   61.321055343    8.468701836 XXXX 3      h*      H   0.410
H1328   19.654796329   85.072919017   15.508148602 XXXX 3      h*      H   0.410
O665    19.093487447   55.061717610   23.490032437 XXXX 3      o*      O  -0.820
O666     4.938726718   40.643558158   -3.532694614 XXXX 3      o*      O  -0.820
H1329   19.642651730   55.139675061   24.301165668 XXXX 3      h*      H   0.410
H1330    5.490155766   40.015689339   -4.068799856 XXXX 3      h*      H   0.410
H1331   18.913666047   54.098262811   23.555110524 XXXX 3      h*      H   0.410
H1332    5.109492442   40.285477629   -2.605496844 XXXX 3      h*      H   0.410
O667    18.305149891   42.502894597    5.545822553 XXXX 3      o*      O  -0.820
H1333   18.398933982   41.559941003    5.726440186 XXXX 3      h*      H   0.410
H1334   17.460011387   42.670369252    6.043993336 XXXX 3      h*      H   0.410
O668     7.122782779   83.227951799   21.457585409 XXXX 3      o*      O  -0.820
O669    27.217833110   57.167430057   -2.671480874 XXXX 3      o*      O  -0.820
O670    27.887840746   59.586779786    7.855818281 XXXX 3      o*      O  -0.820
H1335    6.836751540   84.174588080   21.584220923 XXXX 3      h*      H   0.410
H1336   27.485424777   57.016193394   -3.612469183 XXXX 3      h*      H   0.410
H1337   27.446699583   59.153568759    7.076946645 XXXX 3      h*      H   0.410
H1338    6.694148112   82.968831844   22.324563212 XXXX 3      h*      H   0.410
H1339   26.559985291   56.444317737   -2.554170749 XXXX 3      h*      H   0.410
H1340   28.005387967   60.583085857    7.519459430 XXXX 3      h*      H   0.410
O671     9.506885505   42.556798240    2.268997424 XXXX 3      o*      O  -0.820
H1341   10.312076959   42.441557301    2.920322927 XXXX 3      h*      H   0.410
H1342    8.981266008   41.757080554    2.523969472 XXXX 3      h*      H   0.410
O672    25.852044353   45.490502968   27.033008606 XXXX 3      o*      O  -0.820
H1343   26.723520832   45.206917448   27.500128878 XXXX 3      h*      H   0.410
H1344   25.369972733   44.640974224   27.163883483 XXXX 3      h*      H   0.410
O673    19.590827454   79.889286112   18.665834099 XXXX 3      o*      O  -0.820
H1345   19.315153117   79.842321748   17.691626061 XXXX 3      h*      H   0.410
H1346   19.443239332   79.011613806   19.022712181 XXXX 3      h*      H   0.410
O674    12.065411914   39.006615357   22.986096339 XXXX 3      o*      O  -0.820
H1347   12.611292496   39.482132532   22.243239761 XXXX 3      h*      H   0.410
H1348   12.784058977   38.526796548   23.450007579 XXXX 3      h*      H   0.410
O675    22.351572482   39.561440504   23.091642463 XXXX 3      o*      O  -0.820
H1349   22.905523303   38.775703763   23.141816740 XXXX 3      h*      H   0.410
H1350   21.606415106   39.255512300   23.656439722 XXXX 3      h*      H   0.410
O676     6.996588547   64.375833612    2.617912488 XXXX 3      o*      O  -0.820
H1351    7.433433096   63.596839935    2.987391085 XXXX 3      h*      H   0.410
H1352    6.162401825   64.010239022    2.272254453 XXXX 3      h*      H   0.410
O677     6.554301787   63.446142658   11.898745654 XXXX 3      o*      O  -0.820
H1353    6.314242294   62.503500022   11.834597218 XXXX 3      h*      H   0.410
H1354    6.318878951   63.760021955   10.968062783 XXXX 3      h*      H   0.410
O678     7.864354317   66.221578406   10.651605504 XXXX 3      o*      O  -0.820
H1355    7.653588891   65.326430575   10.315980469 XXXX 3      h*      H   0.410
H1356    8.644248529   66.437261669   10.078668677 XXXX 3      h*      H   0.410
O679    17.308081910   80.567173973    7.274637688 XXXX 3      o*      O  -0.820
O680    25.044674137   89.608655835    9.032662230 XXXX 3      o*      O  -0.820
H1357   18.096402088   80.329701702    6.763880523 XXXX 3      h*      H   0.410
H1358   24.905879502   90.455502018    8.470852552 XXXX 3      h*      H   0.410
H1359   16.715152137   79.891223675    6.891546086 XXXX 3      h*      H   0.410
H1360   25.610372351   89.207476775    8.327499430 XXXX 3      h*      H   0.410
O681    18.298263850   71.609832505    6.492683329 XXXX 3      o*      O  -0.820
H1361   18.198525012   70.700234303    6.915919475 XXXX 3      h*      H   0.410
H1362   17.873359305   71.378546476    5.636149918 XXXX 3      h*      H   0.410
O682    25.246034624   37.545080429   21.491812187 XXXX 3      o*      O  -0.820
O683    17.444385509   90.922913400   12.581739597 XXXX 3      o*      O  -0.820
H1363   25.084825810   36.810298703   20.885547975 XXXX 3      h*      H   0.410
H1364   17.405553235   89.912351740   12.509032272 XXXX 3      h*      H   0.410
H1365   25.440333971   38.347110024   20.892704046 XXXX 3      h*      H   0.410
H1366   17.522799853   91.024849024   13.536591089 XXXX 3      h*      H   0.410
O684    10.906713416   33.965445246    7.864818559 XXXX 3      o*      O  -0.820
H1367   10.747247996   34.041864126    6.906116127 XXXX 3      h*      H   0.410
H1368   10.725838814   33.012779569    7.850400973 XXXX 3      h*      H   0.410
O685    24.108186732   64.887551803   -1.698911001 XXXX 3      o*      O  -0.820
H1369   24.935443295   64.420147404   -1.681122842 XXXX 3      h*      H   0.410
H1370   23.543618436   64.145641272   -2.170095763 XXXX 3      h*      H   0.410
O686     2.395666849   51.174134692    8.912357127 XXXX 3      o*      O  -0.820
O687     7.678240828   80.511153024   26.494357294 XXXX 3      o*      O  -0.820
O688    28.897818399   51.606702243   29.343483337 XXXX 3      o*      O  -0.820
O689     8.281101244   43.774391856   21.641102848 XXXX 3      o*      O  -0.820
O690    21.240428045   58.548876269    7.602050009 XXXX 3      o*      O  -0.820
O691     5.301244815   65.977494167    4.769133002 XXXX 3      o*      O  -0.820
O692     0.203079336   89.300034018   17.192099552 XXXX 3      o*      O  -0.820
O693     8.582894360   56.632655650   19.441231324 XXXX 3      o*      O  -0.820
O694    -0.750048558   52.833174645   -3.729576361 XXXX 3      o*      O  -0.820
O695    24.133362978   34.811208296   16.859215174 XXXX 3      o*      O  -0.820
O696     4.498104722   55.948024382   23.621706199 XXXX 3      o*      O  -0.820
H1371    2.563976418   52.114938672    8.572974278 XXXX 3      h*      H   0.410
H1372    7.001797027   80.010860617   25.875241918 XXXX 3      h*      H   0.410
H1373   29.368482839   51.683183250   28.437630905 XXXX 3      h*      H   0.410
H1374    7.822489792   43.628336503   22.518574360 XXXX 3      h*      H   0.410
H1375   20.783470633   58.990626812    6.825850106 XXXX 3      h*      H   0.410
H1376    4.817987890   65.070071268    4.631085322 XXXX 3      h*      H   0.410
H1377    0.882292865   89.495205414   17.854237726 XXXX 3      h*      H   0.410
H1378    8.823417517   57.536280207   19.768835679 XXXX 3      h*      H   0.410
H1379   -0.852908008   52.664924569   -4.691634268 XXXX 3      h*      H   0.410
H1380   23.350527752   34.768247772   17.440248539 XXXX 3      h*      H   0.410
H1381    5.320573083   56.402774372   23.247124755 XXXX 3      h*      H   0.410
H1382    2.942550926   51.206711317    9.719691466 XXXX 3      h*      H   0.410
H1383    7.127063733   81.079769935   26.973461842 XXXX 3      h*      H   0.410
H1384   28.567386409   52.502525591   29.400972097 XXXX 3      h*      H   0.410
H1385    8.965867845   43.125224149   21.843428372 XXXX 3      h*      H   0.410
H1386   21.476909018   59.343472662    8.108481904 XXXX 3      h*      H   0.410
H1387    4.456891971   66.424612024    5.108260076 XXXX 3      h*      H   0.410
H1388   -0.157755570   90.251709236   16.982492190 XXXX 3      h*      H   0.410
H1389    7.608524188   56.677322678   19.598486655 XXXX 3      h*      H   0.410
H1390   -1.222388961   53.652098804   -3.772452805 XXXX 3      h*      H   0.410
H1391   24.464882423   35.663554482   17.106811905 XXXX 3      h*      H   0.410
H1392    4.045994292   55.497934573   22.877710799 XXXX 3      h*      H   0.410
O697    17.794806179   34.131767781    7.094108763 XXXX 3      o*      O  -0.820
H1393   17.739090961   33.207180299    7.367792301 XXXX 3      h*      H   0.410
H1394   17.642284465   34.445876794    7.965905899 XXXX 3      h*      H   0.410
O698     7.726439783   89.200372966   20.934763779 XXXX 3      o*      O  -0.820
O699     1.949238976   78.840584376   26.079231444 XXXX 3      o*      O  -0.820
O700    25.248677140   88.763032575    1.662381414 XXXX 3      o*      O  -0.820
O701    20.914625632   57.375726087   10.423713099 XXXX 3      o*      O  -0.820
O702    10.134645741   82.287198522   27.128228620 XXXX 3      o*      O  -0.820
O703    28.758611187   36.781789928    6.172091108 XXXX 3      o*      O  -0.820
O704    26.994778199   41.867497657   22.562026486 XXXX 3      o*      O  -0.820
H1395    7.388883889   90.086801480   20.581914662 XXXX 3      h*      H   0.410
H1396    1.428469543   78.007160300   26.069514123 XXXX 3      h*      H   0.410
H1397   26.030285154   89.234487210    1.350111184 XXXX 3      h*      H   0.410
H1398   20.967905735   57.466706711    9.435196909 XXXX 3      h*      H   0.410
H1399   10.597935282   81.919133878   27.922204803 XXXX 3      h*      H   0.410
H1400   28.495907928   36.562320123    7.092609861 XXXX 3      h*      H   0.410
H1401   26.495729494   41.042742458   22.695604819 XXXX 3      h*      H   0.410
H1402    6.860237313   88.891296863   21.316250568 XXXX 3      h*      H   0.410
H1403    2.063634826   78.989966290   25.155912047 XXXX 3      h*      H   0.410
H1404   25.267077814   89.087287701    2.602691090 XXXX 3      h*      H   0.410
H1405   20.786688046   56.419395335   10.681916156 XXXX 3      h*      H   0.410
H1406    9.592253190   81.586552607   26.679844741 XXXX 3      h*      H   0.410
H1407   28.800064733   35.816369944    5.879204306 XXXX 3      h*      H   0.410
H1408   27.507427844   41.773231263   21.733739406 XXXX 3      h*      H   0.410
O705     5.719883894   37.303376712   10.474948672 XXXX 3      o*      O  -0.820
O706     4.713701276   43.806726853    4.452924976 XXXX 3      o*      O  -0.820
H1409    4.755988722   37.475149974   10.236535707 XXXX 3      h*      H   0.410
H1410    4.084275640   43.992440831    5.265128063 XXXX 3      h*      H   0.410
H1411    5.421095283   36.722385244   11.236594275 XXXX 3      h*      H   0.410
H1412    4.838412905   42.779914049    4.423084457 XXXX 3      h*      H   0.410
O707    17.410736861   86.714945713   28.807971678 XXXX 3      o*      O  -0.820
O708    20.516614537   83.519912675   31.575003555 XXXX 3      o*      O  -0.820
O709    26.023230840   52.080645127   10.025143852 XXXX 3      o*      O  -0.820
O710    -1.387040716   73.481528981    7.709995561 XXXX 3      o*      O  -0.820
H1413   17.165554201   86.807147153   29.735541437 XXXX 3      h*      H   0.410
H1414   20.144171341   82.793825109   31.037407889 XXXX 3      h*      H   0.410
H1415   26.988806447   52.116878607   10.092974664 XXXX 3      h*      H   0.410
H1416   -1.828476181   72.870928037    7.058844565 XXXX 3      h*      H   0.410
H1417   18.138793685   86.149555195   29.031443768 XXXX 3      h*      H   0.410
H1418   20.039229685   83.311153575   32.390855063 XXXX 3      h*      H   0.410
H1419   25.842924902   52.318661564    9.112375396 XXXX 3      h*      H   0.410
H1420   -0.591283479   73.753249016    7.158106480 XXXX 3      h*      H   0.410
O711     7.540628799   91.628074149   13.064308575 XXXX 3      o*      O  -0.820
O712    23.658467543   91.095308255   28.266532526 XXXX 3      o*      O  -0.820
O713    11.036570224   76.766494250    6.755061524 XXXX 3      o*      O  -0.820
O714    -0.914469143   44.753590926   26.344194430 XXXX 3      o*      O  -0.820
O715     6.779784999   43.640686732   31.188739916 XXXX 3      o*      O  -0.820
O716    28.144424841   47.315805798    0.207359025 XXXX 3      o*      O  -0.820
O717    23.349087836   50.476052652    7.592718986 XXXX 3      o*      O  -0.820
H1421    7.573299156   90.638543542   13.183016854 XXXX 3      h*      H   0.410
H1422   23.880099574   90.185749963   28.589994115 XXXX 3      h*      H   0.410
H1423   10.461161925   76.202453521    7.288311251 XXXX 3      h*      H   0.410
H1424   -1.561321661   44.517436758   27.058891642 XXXX 3      h*      H   0.410
H1425    6.810171522   42.681674059   31.481622150 XXXX 3      h*      H   0.410
H1426   28.361596289   47.876556388   -0.574401989 XXXX 3      h*      H   0.410
H1427   23.670692417   49.615150832    7.302205937 XXXX 3      h*      H   0.410
H1428    6.576881333   91.767173475   13.234492030 XXXX 3      h*      H   0.410
H1429   23.473791587   90.895053646   27.272035248 XXXX 3      h*      H   0.410
H1430   11.906824867   76.331164537    6.945289174 XXXX 3      h*      H   0.410
H1431   -0.373496102   43.918247521   26.297985191 XXXX 3      h*      H   0.410
H1432    7.619003720   43.883906977   31.624468291 XXXX 3      h*      H   0.410
H1433   28.607882668   46.484625092   -0.133943584 XXXX 3      h*      H   0.410
H1434   22.404300336   50.342247990    7.396236790 XXXX 3      h*      H   0.410
O718    14.280045574   46.988498413   27.815754253 XXXX 3      o*      O  -0.820
O719    12.939837757   55.061866551   17.883755609 XXXX 3      o*      O  -0.820
O720     3.199031851   59.480859641   28.148920775 XXXX 3      o*      O  -0.820
O721    28.020570323   71.585392261   12.887069991 XXXX 3      o*      O  -0.820
O722     7.093777873   44.935011277   25.535763409 XXXX 3      o*      O  -0.820
H1435   15.051082053   46.511333386   27.467419636 XXXX 3      h*      H   0.410
H1436   13.766181264   55.441895494   18.009969599 XXXX 3      h*      H   0.410
H1437    2.741250306   60.310600155   28.485737720 XXXX 3      h*      H   0.410
H1438   28.082762381   71.167778165   13.745468513 XXXX 3      h*      H   0.410
H1439    6.406589340   45.150424778   26.245630591 XXXX 3      h*      H   0.410
H1440   14.075948590   46.523164633   28.651951715 XXXX 3      h*      H   0.410
H1441   13.003364357   54.775146644   16.958817118 XXXX 3      h*      H   0.410
H1442    3.048405146   59.662124511   27.197350331 XXXX 3      h*      H   0.410
H1443   28.555275350   70.918044979   12.392327923 XXXX 3      h*      H   0.410
H1444    6.616357344   44.139418530   25.150976357 XXXX 3      h*      H   0.410
O723     6.595391643   48.280507698   18.260538094 XXXX 3      o*      O  -0.820
O724     9.066800951   80.428435674   11.665597192 XXXX 3      o*      O  -0.820
O725     3.380155276   74.755160464   19.841777924 XXXX 3      o*      O  -0.820
O726    23.865383329   54.812119337   10.489059049 XXXX 3      o*      O  -0.820
O727    15.848558792   88.894662434    9.899673138 XXXX 3      o*      O  -0.820
O728    13.089231631   35.424079401    5.361396369 XXXX 3      o*      O  -0.820
O729    17.280643264   77.700772099   11.859157909 XXXX 3      o*      O  -0.820
O730     9.996077178   43.859981862   -0.229366825 XXXX 3      o*      O  -0.820
O731     9.862076588   91.262155479   11.008411878 XXXX 3      o*      O  -0.820
O732    29.870975568   36.947445582   20.049904311 XXXX 3      o*      O  -0.820
O733    21.070203437   42.465575956   15.056197276 XXXX 3      o*      O  -0.820
O734    17.703712684   42.692105368   22.414879509 XXXX 3      o*      O  -0.820
O735    13.202262244   66.383983180   23.514189185 XXXX 3      o*      O  -0.820
H1445    6.477744058   49.119652585   18.717136564 XXXX 3      h*      H   0.410
H1446    8.769528273   79.490121455   11.917601784 XXXX 3      h*      H   0.410
H1447    3.417402638   74.283017976   18.994633591 XXXX 3      h*      H   0.410
H1448   23.246219676   54.628244213    9.706581447 XXXX 3      h*      H   0.410
H1449   15.488763887   88.066553420   10.368453389 XXXX 3      h*      H   0.410
H1450   12.119983318   35.234584628    5.561550773 XXXX 3      h*      H   0.410
H1451   16.512987832   77.405954474   12.345145213 XXXX 3      h*      H   0.410
H1452   10.251935533   43.276072077   -0.969149542 XXXX 3      h*      H   0.410
H1453    9.776085543   91.203870898   10.052747147 XXXX 3      h*      H   0.410
H1454   30.712526782   36.434668706   20.247911161 XXXX 3      h*      H   0.410
H1455   20.550608709   41.843893929   15.574282669 XXXX 3      h*      H   0.410
H1456   17.406825967   41.772861907   22.489587614 XXXX 3      h*      H   0.410
H1457   12.941221294   66.314734395   22.565665157 XXXX 3      h*      H   0.410
H1458    6.613016421   48.416676308   17.293660112 XXXX 3      h*      H   0.410
H1459    9.480221263   80.770281540   12.506812762 XXXX 3      h*      H   0.410
H1460    3.686879794   75.596971506   19.711634355 XXXX 3      h*      H   0.410
H1461   23.713152683   53.904429870   10.877985130 XXXX 3      h*      H   0.410
H1462   16.715303915   88.491221923    9.653297775 XXXX 3      h*      H   0.410
H1463   13.441834095   34.523702296    5.356339752 XXXX 3      h*      H   0.410
H1464   17.907957520   76.959461654   12.029481934 XXXX 3      h*      H   0.410
H1465    9.797667666   43.178966292    0.500765352 XXXX 3      h*      H   0.410
H1466    9.636486881   90.322755570   11.238568515 XXXX 3      h*      H   0.410
H1467   29.306356415   36.230980224   19.661474961 XXXX 3      h*      H   0.410
H1468   21.089837682   41.820028167   14.300174286 XXXX 3      h*      H   0.410
H1469   16.848474424   43.145309403   22.315350579 XXXX 3      h*      H   0.410
H1470   14.153439986   66.667843542   23.411135012 XXXX 3      h*      H   0.410
O736     4.589860162   60.921891324   23.587447558 XXXX 3      o*      O  -0.820
H1471    4.320932313   60.011030957   23.948537085 XXXX 3      h*      H   0.410
H1472    4.300633274   61.470259003   24.423658220 XXXX 3      h*      H   0.410
O737    23.839437259   69.488951815   19.662405226 XXXX 3      o*      O  -0.820
O738    27.792390188   90.310405495    1.232491205 XXXX 3      o*      O  -0.820
H1473   24.445098185   70.152151747   19.292951870 XXXX 3      h*      H   0.410
H1474   28.560420186   90.552297300    1.830598448 XXXX 3      h*      H   0.410
H1475   23.672379173   68.853127947   18.925326375 XXXX 3      h*      H   0.410
H1476   27.149595777   90.840412324    1.801552313 XXXX 3      h*      H   0.410
O739    24.329521956   60.936026711   23.174005640 XXXX 3      o*      O  -0.820
O740    32.327174948   53.737332429    7.869233052 XXXX 3      o*      O  -0.820
H1477   24.348657882   59.975813402   23.046562400 XXXX 3      h*      H   0.410
H1478   32.306581164   54.151096019    7.006302642 XXXX 3      h*      H   0.410
H1479   23.677159544   60.960540062   23.932506702 XXXX 3      h*      H   0.410
H1480   31.410489814   53.788217759    8.091024118 XXXX 3      h*      H   0.410
O741    29.204503003   81.656298619    5.718943916 XXXX 3      o*      O  -0.820
O742    14.734465149   86.459491767   10.681539965 XXXX 3      o*      O  -0.820
H1481   29.639083780   81.430470656    4.901784443 XXXX 3      h*      H   0.410
H1482   14.235361170   85.714617113   10.331453723 XXXX 3      h*      H   0.410
H1483   28.432616306   81.086780638    5.611342940 XXXX 3      h*      H   0.410
H1484   15.536395076   85.919445600   10.932523783 XXXX 3      h*      H   0.410
O743     7.252055984   60.241630799   29.248478471 XXXX 3      o*      O  -0.820
O744    13.364558009   53.524803512   33.624564276 XXXX 3      o*      O  -0.820
O745     8.745997407   64.258245583   14.011249361 XXXX 3      o*      O  -0.820
O746     6.658228922   42.671993742   23.900125959 XXXX 3      o*      O  -0.820
O747    26.268083016   44.309697434    3.129821024 XXXX 3      o*      O  -0.820
O748     7.533598446   37.148817653   12.740653932 XXXX 3      o*      O  -0.820
O749    24.237148539   62.779352955    6.903827445 XXXX 3      o*      O  -0.820
O750    25.451536304   38.680037013    7.724189861 XXXX 3      o*      O  -0.820
O751    28.843094682   47.415188548   15.756404454 XXXX 3      o*      O  -0.820
O752    23.085621397   42.664915240   11.764666470 XXXX 3      o*      O  -0.820
O753    27.196236439   73.703665262   29.946444698 XXXX 3      o*      O  -0.820
O754    13.460527122   34.098579930    8.341705575 XXXX 3      o*      O  -0.820
O755     2.739485782   88.511429376   19.492640211 XXXX 3      o*      O  -0.820
O756    14.883062795   78.916773475    9.078752379 XXXX 3      o*      O  -0.820
O757     9.088607621   43.690677376   15.816736954 XXXX 3      o*      O  -0.820
H1485    6.791411800   59.375676635   29.290719655 XXXX 3      h*      H   0.410
H1486   13.224979486   52.569763419   33.689658164 XXXX 3      h*      H   0.410
H1487    8.137259905   64.084108274   13.301112928 XXXX 3      h*      H   0.410
H1488    7.147188984   41.874230587   24.125467214 XXXX 3      h*      H   0.410
H1489   25.928629186   43.362435959    3.191163783 XXXX 3      h*      H   0.410
H1490    8.126631052   37.663951895   12.119496111 XXXX 3      h*      H   0.410
H1491   24.237729793   62.531090274    7.850676448 XXXX 3      h*      H   0.410
H1492   25.863498370   38.639810658    6.795110772 XXXX 3      h*      H   0.410
H1493   28.559713131   46.779988923   16.494730158 XXXX 3      h*      H   0.410
H1494   23.921770999   43.000242198   12.035333522 XXXX 3      h*      H   0.410
H1495   27.478945733   73.138959705   30.720716757 XXXX 3      h*      H   0.410
H1496   13.820995502   33.432821135    7.741881098 XXXX 3      h*      H   0.410
H1497    2.715951896   88.259443535   18.598796867 XXXX 3      h*      H   0.410
H1498   14.669749650   78.687877656    8.119456904 XXXX 3      h*      H   0.410
H1499    9.006722656   44.150136120   16.681354234 XXXX 3      h*      H   0.410
H1500    7.722905685   60.201618237   30.143361777 XXXX 3      h*      H   0.410
H1501   14.334269261   53.548233904   33.802037049 XXXX 3      h*      H   0.410
H1502    9.637277125   64.150466217   13.600764769 XXXX 3      h*      H   0.410
H1503    5.689206160   42.276862696   23.945861921 XXXX 3      h*      H   0.410
H1504   26.026899088   44.511019939    2.220985591 XXXX 3      h*      H   0.410
H1505    6.876087621   36.693332771   12.210171120 XXXX 3      h*      H   0.410
H1506   24.594172444   61.921620173    6.650858132 XXXX 3      h*      H   0.410
H1507   25.950446076   39.293549635    8.287425292 XXXX 3      h*      H   0.410
H1508   27.990125485   47.801141880   15.577927515 XXXX 3      h*      H   0.410
H1509   23.179700125   42.833318679   10.777835937 XXXX 3      h*      H   0.410
H1510   27.588298056   74.555170253   30.227967393 XXXX 3      h*      H   0.410
H1511   12.501156978   33.850934975    8.296552056 XXXX 3      h*      H   0.410
H1512    3.172974546   89.440451783   19.430038267 XXXX 3      h*      H   0.410
H1513   13.984966191   79.222367836    9.369759145 XXXX 3      h*      H   0.410
H1514    8.512788284   42.898557316   16.002985293 XXXX 3      h*      H   0.410
O758    14.834168601   48.969210538   20.918600442 XXXX 3      o*      O  -0.820
H1515   15.461976523   48.659864347   21.621434724 XXXX 3      h*      H   0.410
H1516   14.057803676   48.335336521   21.131866009 XXXX 3      h*      H   0.410
O759     0.919941488   66.751965098   13.502203758 XXXX 3      o*      O  -0.820
O760    20.174024631   79.579677253   31.185477930 XXXX 3      o*      O  -0.820
H1517    0.345976160   66.167023730   13.988892191 XXXX 3      h*      H   0.410
H1518   20.661969069   79.947089823   31.905997553 XXXX 3      h*      H   0.410
H1519    0.765796329   66.323303467   12.621465419 XXXX 3      h*      H   0.410
H1520   20.872484918   79.212430537   30.647703937 XXXX 3      h*      H   0.410
O761    20.049783891   90.165633441   27.138679127 XXXX 3      o*      O  -0.820
O762    24.256395891   58.124896321    8.142533693 XXXX 3      o*      O  -0.820
O763    10.360782274   88.418132380   20.382367067 XXXX 3      o*      O  -0.820
O764     9.570763248   67.708227584   13.064978692 XXXX 3      o*      O  -0.820
O765    -0.361081710   42.219773338    1.545095579 XXXX 3      o*      O  -0.820
O766     1.759843831   79.256455016    5.504198754 XXXX 3      o*      O  -0.820
O767    -0.120700326   62.168906898    1.308399393 XXXX 3      o*      O  -0.820
O768    22.946085692   50.618762184   21.372131169 XXXX 3      o*      O  -0.820
O769    21.125890688   63.548672412   26.449220783 XXXX 3      o*      O  -0.820
O770     2.771116425   87.872854045   11.517485716 XXXX 3      o*      O  -0.820
O771    15.990952709   71.394252754   26.686026829 XXXX 3      o*      O  -0.820
O772     4.143445639   91.398848179   25.314339457 XXXX 3      o*      O  -0.820
O773    24.407155440   35.085866238   26.416448891 XXXX 3      o*      O  -0.820
H1521   20.583540072   89.343181934   27.109748986 XXXX 3      h*      H   0.410
H1522   24.428978583   57.192273288    7.763068775 XXXX 3      h*      H   0.410
H1523    9.391616938   88.653979204   20.500948255 XXXX 3      h*      H   0.410
H1524    9.103244305   66.886634069   12.946968804 XXXX 3      h*      H   0.410
H1525   -0.765301547   41.684705826    2.280821649 XXXX 3      h*      H   0.410
H1526    1.249748230   78.614059144    6.142566342 XXXX 3      h*      H   0.410
H1527    0.485994800   62.869718819    1.693039023 XXXX 3      h*      H   0.410
H1528   22.158896143   50.025793566   21.298081881 XXXX 3      h*      H   0.410
H1529   21.751502414   64.118883264   25.964812476 XXXX 3      h*      H   0.410
H1530    2.673386645   88.608416279   12.154844035 XXXX 3      h*      H   0.410
H1531   16.630671997   71.896688968   27.244307708 XXXX 3      h*      H   0.410
H1532    3.449582764   91.009592590   25.855002286 XXXX 3      h*      H   0.410
H1533   24.810946909   34.774933447   25.578196984 XXXX 3      h*      H   0.410
H1534   20.146147376   90.512035019   28.097083520 XXXX 3      h*      H   0.410
H1535   23.352329013   58.021374931    8.396338427 XXXX 3      h*      H   0.410
H1536   10.741906265   89.070480724   19.710236699 XXXX 3      h*      H   0.410
H1537   10.312469877   67.416138249   13.581751734 XXXX 3      h*      H   0.410
H1538    0.599291938   42.058476290    1.572681953 XXXX 3      h*      H   0.410
H1539    2.483671294   78.639252198    5.391155888 XXXX 3      h*      H   0.410
H1540   -0.441707894   62.580840629    0.404523346 XXXX 3      h*      H   0.410
H1541   23.570654892   49.871253236   21.530919893 XXXX 3      h*      H   0.410
H1542   21.773562984   63.031256915   26.988587057 XXXX 3      h*      H   0.410
H1543    3.395067543   87.319841928   12.004574186 XXXX 3      h*      H   0.410
H1544   15.758525142   70.806365177   27.403053559 XXXX 3      h*      H   0.410
H1545    4.774911171   90.626353381   25.442439319 XXXX 3      h*      H   0.410
H1546   23.433538837   34.937348687   26.177954886 XXXX 3      h*      H   0.410
O774    14.770505674   44.641617341   14.911759581 XXXX 3      o*      O  -0.820
O775    11.503313583   57.464304552    2.628746257 XXXX 3      o*      O  -0.820
O776    18.037560320   52.234097297   20.497911571 XXXX 3      o*      O  -0.820
O777    12.903494793   53.587186453   15.394424116 XXXX 3      o*      O  -0.820
O778    25.935273066   88.792610726   16.969564308 XXXX 3      o*      O  -0.820
O779    29.734963245   51.087785496   13.924833170 XXXX 3      o*      O  -0.820
O780    22.484238136   60.401568870   31.194877471 XXXX 3      o*      O  -0.820
O781    31.418172656   68.608493328   22.955228897 XXXX 3      o*      O  -0.820
O782     2.069649640   66.586250808   24.158099164 XXXX 3      o*      O  -0.820
O783    20.046575756   74.725052078   29.294030377 XXXX 3      o*      O  -0.820
H1547   15.125746886   44.698612336   15.808959118 XXXX 3      h*      H   0.410
H1548   11.975582702   57.780384659    1.888671753 XXXX 3      h*      H   0.410
H1549   17.996941255   51.276121350   20.347706038 XXXX 3      h*      H   0.410
H1550   12.639585099   54.087384472   14.577504785 XXXX 3      h*      H   0.410
H1551   26.141270037   89.392860093   17.754505146 XXXX 3      h*      H   0.410
H1552   30.047164413   50.162680355   14.038525799 XXXX 3      h*      H   0.410
H1553   23.215351562   59.858426072   30.895755160 XXXX 3      h*      H   0.410
H1554   31.782770689   68.830208672   22.122777523 XXXX 3      h*      H   0.410
H1555    1.395220672   67.227390814   23.954602998 XXXX 3      h*      H   0.410
H1556   19.588550599   75.562117099   29.541839511 XXXX 3      h*      H   0.410
H1557   14.214231736   45.429099662   14.775062830 XXXX 3      h*      H   0.410
H1558   12.147162914   56.888455951    3.095497747 XXXX 3      h*      H   0.410
H1559   17.114375738   52.416639861   20.792145754 XXXX 3      h*      H   0.410
H1560   13.853683954   53.691289563   15.517143442 XXXX 3      h*      H   0.410
H1561   26.662794636   88.162499823   17.073658665 XXXX 3      h*      H   0.410
H1562   28.737840737   50.867627834   13.973725194 XXXX 3      h*      H   0.410
H1563   21.821827578   59.690179567   31.359791446 XXXX 3      h*      H   0.410
H1564   30.468829170   68.843071942   22.775541694 XXXX 3      h*      H   0.410
H1565    2.457025465   66.556286068   23.258134749 XXXX 3      h*      H   0.410
H1566   20.965264047   75.076459476   29.255373225 XXXX 3      h*      H   0.410
O784    27.708733862   65.121802831   23.889216591 XXXX 3      o*      O  -0.820
O785    19.471326355   82.544691207   11.493976654 XXXX 3      o*      O  -0.820
O786    15.306922528   41.803367203    9.507365882 XXXX 3      o*      O  -0.820
H1567   27.438207617   64.682261478   23.084951244 XXXX 3      h*      H   0.410
H1568   19.163669492   82.778416558   10.584242988 XXXX 3      h*      H   0.410
H1569   15.545695996   40.914114366    9.922310034 XXXX 3      h*      H   0.410
H1570   28.546866610   64.619506194   24.090484067 XXXX 3      h*      H   0.410
H1571   19.473704295   81.598397817   11.292693331 XXXX 3      h*      H   0.410
H1572   14.385192485   41.881348916    9.800236628 XXXX 3      h*      H   0.410
O787    25.652481737   59.721902842   -1.066619048 XXXX 3      o*      O  -0.820
O788     1.082841199   61.573248485    9.362737453 XXXX 3      o*      O  -0.820
O789    12.478465177   80.433607293   11.404073814 XXXX 3      o*      O  -0.820
O790    20.492631347   41.929156608   22.247827349 XXXX 3      o*      O  -0.820
O791    12.182192368   90.963650202   16.529165304 XXXX 3      o*      O  -0.820
O792    15.374952394   47.647330442    4.695047307 XXXX 3      o*      O  -0.820
O793    17.184734998   58.057551163    8.395945490 XXXX 3      o*      O  -0.820
O794    15.311457095   52.040077812   20.850709282 XXXX 3      o*      O  -0.820
O795    30.886059813   45.407340644   20.784215860 XXXX 3      o*      O  -0.820
O796     9.422036282   62.094938997    1.355983843 XXXX 3      o*      O  -0.820
O797    21.659628273   54.096834741   24.357418061 XXXX 3      o*      O  -0.820
O798    24.860791572   71.324828684   12.476181371 XXXX 3      o*      O  -0.820
O799    11.716910285   47.172882895   12.904008462 XXXX 3      o*      O  -0.820
O800    26.738055283   31.003933403   22.943732765 XXXX 3      o*      O  -0.820
H1573   25.646644741   59.426152193   -0.166673692 XXXX 3      h*      H   0.410
H1574    1.973918820   61.306036159    9.057582082 XXXX 3      h*      H   0.410
H1575   11.764871303   81.146982830   11.430102096 XXXX 3      h*      H   0.410
H1576   19.597672558   42.098150856   21.918753792 XXXX 3      h*      H   0.410
H1577   13.165783018   90.906102667   16.794245190 XXXX 3      h*      H   0.410
H1578   15.826165916   47.245038890    5.425077145 XXXX 3      h*      H   0.410
H1579   16.949839946   57.505159779    9.147460587 XXXX 3      h*      H   0.410
H1580   14.426235041   52.198666435   21.197376969 XXXX 3      h*      H   0.410
H1581   31.093153588   44.634012296   21.407940795 XXXX 3      h*      H   0.410
H1582   10.216970864   61.964956091    1.877385820 XXXX 3      h*      H   0.410
H1583   22.396478624   53.386063523   24.296606389 XXXX 3      h*      H   0.410
H1584   25.679541585   71.553199111   12.978068811 XXXX 3      h*      H   0.410
H1585   12.339277381   46.376777833   12.685085438 XXXX 3      h*      H   0.410
H1586   27.638290897   30.943067506   22.545584118 XXXX 3      h*      H   0.410
H1587   26.094538662   59.010896454   -1.530967195 XXXX 3      h*      H   0.410
H1588    0.536316227   61.349743988    8.587211470 XXXX 3      h*      H   0.410
H1589   12.142630749   79.622152056   10.951567204 XXXX 3      h*      H   0.410
H1590   20.656231126   40.923175964   22.149305975 XXXX 3      h*      H   0.410
H1591   11.997729436   90.559406718   17.451052177 XXXX 3      h*      H   0.410
H1592   15.622425150   47.059351246    3.935258741 XXXX 3      h*      H   0.410
H1593   17.652238177   57.324521936    7.924092870 XXXX 3      h*      H   0.410
H1594   14.967858928   51.303089660   20.315034970 XXXX 3      h*      H   0.410
H1595   31.210293076   46.176738934   21.327276829 XXXX 3      h*      H   0.410
H1596    9.637275954   61.502012171    0.639272555 XXXX 3      h*      H   0.410
H1597   21.096959982   53.566543528   23.778776219 XXXX 3      h*      H   0.410
H1598   25.012087062   70.385343430   12.195706136 XXXX 3      h*      H   0.410
H1599   10.875271189   46.749361708   13.105862268 XXXX 3      h*      H   0.410
H1600   26.463773032   31.947272037   22.670784986 XXXX 3      h*      H   0.410
O801    23.759106700   79.413184677   10.003545430 XXXX 3      o*      O  -0.820
H1601   23.823110638   80.236253876   10.500573884 XXXX 3      h*      H   0.410
H1602   24.497245256   78.856382997   10.401842745 XXXX 3      h*      H   0.410
O802    31.452509564   85.448886931   22.055987759 XXXX 3      o*      O  -0.820
O803    27.772195061   89.184128621   14.033841017 XXXX 3      o*      O  -0.820
H1603   30.931464311   84.769051972   22.537365818 XXXX 3      h*      H   0.410
H1604   28.554218260   88.646984968   14.127455516 XXXX 3      h*      H   0.410
H1605   32.016639911   84.938259093   21.444667335 XXXX 3      h*      H   0.410
H1606   27.539870305   89.485360778   14.964539003 XXXX 3      h*      H   0.410
O804    21.318495502   51.949757167   19.172734438 XXXX 3      o*      O  -0.820
H1607   21.164685633   52.220153531   20.070997576 XXXX 3      h*      H   0.410
H1608   20.386157348   52.102404783   18.849308827 XXXX 3      h*      H   0.410
O805    20.181772691   59.654076246    5.114081965 XXXX 3      o*      O  -0.820
H1609   20.171887624   60.585441390    5.378360220 XXXX 3      h*      H   0.410
H1610   19.236278065   59.650215445    4.787531042 XXXX 3      h*      H   0.410
O806    20.890454634   66.902774397   26.261119613 XXXX 3      o*      O  -0.820
H1611   21.701313069   66.938892210   26.842576394 XXXX 3      h*      H   0.410
H1612   20.707139303   65.985192039   26.299434305 XXXX 3      h*      H   0.410
O807     9.754283068   66.827325605    8.500677636 XXXX 3      o*      O  -0.820
O808    18.673801066   63.591131536   27.755749281 XXXX 3      o*      O  -0.820
H1613   10.704689228   67.102675586    8.639581099 XXXX 3      h*      H   0.410
H1614   19.540559621   63.558322774   27.248771043 XXXX 3      h*      H   0.410
H1615    9.831480467   65.932077273    8.055551091 XXXX 3      h*      H   0.410
H1616   19.006741689   63.387633989   28.662740825 XXXX 3      h*      H   0.410
O809    21.332703308   45.393500965   16.781438940 XXXX 3      o*      O  -0.820
O810     1.720534863   79.507121310   23.412090729 XXXX 3      o*      O  -0.820
H1617   22.161390721   45.821379861   16.937379690 XXXX 3      h*      H   0.410
H1618    1.698297148   79.572456053   22.435515794 XXXX 3      h*      H   0.410
H1619   20.905759567   45.864448382   16.033413113 XXXX 3      h*      H   0.410
H1620    2.499882590   80.073862326   23.645187176 XXXX 3      h*      H   0.410
O811     1.982725915   83.328283028   12.956327569 XXXX 3      o*      O  -0.820
H1621    2.660897028   82.810626576   13.425842847 XXXX 3      h*      H   0.410
H1622    1.498529846   82.708302157   12.439811483 XXXX 3      h*      H   0.410
O812    31.321797210   54.044101151   18.439334550 XXXX 3      o*      O  -0.820
H1623   31.480092664   53.391956098   17.719957572 XXXX 3      h*      H   0.410
H1624   32.209400092   54.053324179   18.932643174 XXXX 3      h*      H   0.410
O813     3.861718123   72.634624626   27.375973523 XXXX 3      o*      O  -0.820
H1625    3.935489016   72.907877227   28.260897741 XXXX 3      h*      H   0.410
H1626    3.110199057   71.999663767   27.471618915 XXXX 3      h*      H   0.410
O814    17.636992195   58.818093817    2.083464867 XXXX 3      o*      O  -0.820
H1627   18.539452910   58.692726150    2.450427603 XXXX 3      h*      H   0.410
H1628   17.305073566   58.047738696    2.513020162 XXXX 3      h*      H   0.410
O815     8.311626176   54.208393798    8.149752706 XXXX 3      o*      O  -0.820
O816    20.267451666   74.055150389    4.353545328 XXXX 3      o*      O  -0.820
H1629    7.708708186   53.376452080    8.236439644 XXXX 3      h*      H   0.410
H1630   20.676575888   73.329828608    3.839383750 XXXX 3      h*      H   0.410
H1631    8.978349301   53.893021224    8.810126302 XXXX 3      h*      H   0.410
H1632   20.179930204   73.584968938    5.250844310 XXXX 3      h*      H   0.410
O817     9.013895299   38.769692258   10.842131556 XXXX 3      o*      O  -0.820
H1633    8.936964916   38.157320881   10.059959584 XXXX 3      h*      H   0.410
H1634    9.656043329   39.367148425   10.423762818 XXXX 3      h*      H   0.410
O818     0.913263491   55.375575287   10.844756271 XXXX 3      o*      O  -0.820
H1635    0.736375361   54.469650580   11.185857107 XXXX 3      h*      H   0.410
H1636    0.739440047   55.378789560    9.902527879 XXXX 3      h*      H   0.410
O819    13.843689063   61.332606394   28.053853278 XXXX 3      o*      O  -0.820
H1637   14.780746790   61.000243309   28.115289361 XXXX 3      h*      H   0.410
H1638   14.041587467   61.911624916   27.280468233 XXXX 3      h*      H   0.410
O820    31.581397060   40.162475848   -0.446001784 XXXX 3      o*      O  -0.820
H1639   30.893754453   40.805703984   -0.325403912 XXXX 3      h*      H   0.410
H1640   31.510153086   39.679018275    0.484027185 XXXX 3      h*      H   0.410
O821     4.209909598   61.936639419   19.523239417 XXXX 3      o*      O  -0.820
H1641    3.692342982   61.408847688   18.880192923 XXXX 3      h*      H   0.410
H1642    4.562019954   61.122720085   20.036079895 XXXX 3      h*      H   0.410
O822     6.184271431   63.501463284   18.120244449 XXXX 3      o*      O  -0.820
H1643    6.152487155   63.038842918   17.280078003 XXXX 3      h*      H   0.410
H1644    5.326011623   63.223446347   18.519080820 XXXX 3      h*      H   0.410
O823     9.536875443   33.424613443   26.794536593 XXXX 3      o*      O  -0.820
O824    11.541063844   54.077618667    6.879359690 XXXX 3      o*      O  -0.820
H1645    9.062822771   32.762373696   26.180188401 XXXX 3      h*      H   0.410
H1646   11.027033095   53.507231077    7.499941233 XXXX 3      h*      H   0.410
H1647   10.241260161   32.779452890   27.062347232 XXXX 3      h*      H   0.410
H1648   12.347823820   53.522357284    6.773020023 XXXX 3      h*      H   0.410
O825    24.805276320   56.388608603   15.631975922 XXXX 3      o*      O  -0.820
H1649   25.443222765   56.061822372   15.031394575 XXXX 3      h*      H   0.410
H1650   24.974390022   55.932153184   16.502410578 XXXX 3      h*      H   0.410
O826     8.707098433   51.053864622   14.269161552 XXXX 3      o*      O  -0.820
H1651    9.233140998   50.437518054   13.782487209 XXXX 3      h*      H   0.410
H1652    9.312493509   51.364390282   14.965480958 XXXX 3      h*      H   0.410
O827    28.155439146   72.320383015   22.275983229 XXXX 3      o*      O  -0.820
O828     9.586957950   75.953600388   15.783540673 XXXX 3      o*      O  -0.820
H1653   28.248569513   71.952496504   21.380257418 XXXX 3      h*      H   0.410
H1654    8.924601103   75.432719691   16.225552173 XXXX 3      h*      H   0.410
H1655   27.240424395   72.041418276   22.257292690 XXXX 3      h*      H   0.410
H1656    9.472380488   75.741729687   14.824705528 XXXX 3      h*      H   0.410
O829     2.401570684   41.765758394    3.058360444 XXXX 3      o*      O  -0.820
H1657    2.279172095   42.734957432    3.089612506 XXXX 3      h*      H   0.410
H1658    3.330291193   41.655704921    2.772063626 XXXX 3      h*      H   0.410
O830    13.016877103   89.862681060   10.666937425 XXXX 3      o*      O  -0.820
H1659   13.335139798   89.007505307   10.253547537 XXXX 3      h*      H   0.410
H1660   12.887486341   90.259173080    9.750386309 XXXX 3      h*      H   0.410
O831    23.265640307   82.808933409   -4.515928121 XXXX 3      o*      O  -0.820
O832    12.790159089   41.701028399   31.223900772 XXXX 3      o*      O  -0.820
O833     1.554991321   66.115051650   19.563110112 XXXX 3      o*      O  -0.820
H1661   23.605501605   82.008258815   -4.047736555 XXXX 3      h*      H   0.410
H1662   13.358649825   41.719444249   30.437985760 XXXX 3      h*      H   0.410
H1663    2.008958462   65.616135337   20.268176644 XXXX 3      h*      H   0.410
H1664   22.468584651   82.339941970   -4.898958823 XXXX 3      h*      H   0.410
H1665   11.993166409   41.617157879   30.630194992 XXXX 3      h*      H   0.410
H1666    0.758761690   66.227391264   20.128845772 XXXX 3      h*      H   0.410
O834    12.527917609   65.124774171    8.225125154 XXXX 3      o*      O  -0.820
O835     7.739113999   79.938232441   18.737964251 XXXX 3      o*      O  -0.820
H1667   11.549625358   65.095388910    8.123895470 XXXX 3      h*      H   0.410
H1668    8.343334380   79.547250219   18.085480866 XXXX 3      h*      H   0.410
H1669   12.842735507   64.368070873    7.677671011 XXXX 3      h*      H   0.410
H1670    7.843439207   79.224969801   19.440903547 XXXX 3      h*      H   0.410
O836     6.485435833   69.830452526    3.513738092 XXXX 3      o*      O  -0.820
H1671    7.249348119   69.466307689    4.015209907 XXXX 3      h*      H   0.410
H1672    6.423609416   68.934293156    3.020728003 XXXX 3      h*      H   0.410
O837    24.210350339   78.976261664   -4.141168636 XXXX 3      o*      O  -0.820
H1673   23.852451473   78.126246438   -4.382380416 XXXX 3      h*      H   0.410
H1674   24.159792759   78.920590592   -3.192753766 XXXX 3      h*      H   0.410
O838     2.574368587   87.649304721   25.425450952 XXXX 3      o*      O  -0.820
H1675    3.257341027   87.267859151   25.986309040 XXXX 3      h*      H   0.410
H1676    1.936322226   86.945581316   25.596678602 XXXX 3      h*      H   0.410
O839    18.320128830   65.554056270   31.478618587 XXXX 3      o*      O  -0.820
H1677   18.828429885   65.106120949   32.212335938 XXXX 3      h*      H   0.410
H1678   19.076673884   66.119890813   31.061091022 XXXX 3      h*      H   0.410
O840     5.631644948   49.488436436   -1.372781986 XXXX 3      o*      O  -0.820
H1679    6.075693363   48.967284492   -0.674332964 XXXX 3      h*      H   0.410
H1680    5.978581760   49.070044118   -2.174277647 XXXX 3      h*      H   0.410
O841    12.002270509   36.953931839    8.544344107 XXXX 3      o*      O  -0.820
H1681   12.085358412   35.991643622    8.359505892 XXXX 3      h*      H   0.410
H1682   11.176941641   37.065734966    9.141771513 XXXX 3      h*      H   0.410
O842     6.428108406   34.193728059   25.884492402 XXXX 3      o*      O  -0.820
O843    29.657816086   58.300826429   21.609368218 XXXX 3      o*      O  -0.820
H1683    6.865313515   34.137791569   24.985057767 XXXX 3      h*      H   0.410
H1684   29.801299354   58.353732482   20.643927223 XXXX 3      h*      H   0.410
H1685    6.434160908   33.187234131   26.048236469 XXXX 3      h*      H   0.410
H1686   29.067045494   57.484117285   21.608391548 XXXX 3      h*      H   0.410
O844    25.249854810   69.373188049    3.810662843 XXXX 3      o*      O  -0.820
O845    11.510663852   71.649149809   17.844800404 XXXX 3      o*      O  -0.820
H1687   24.394043947   69.110684648    4.279447476 XXXX 3      h*      H   0.410
H1688   10.929921315   71.403038310   18.600800350 XXXX 3      h*      H   0.410
H1689   25.975368298   69.101153569    4.417963270 XXXX 3      h*      H   0.410
H1690   12.074201577   70.826962934   17.802783811 XXXX 3      h*      H   0.410
O846    13.375493115   89.129626319    7.606038830 XXXX 3      o*      O  -0.820
H1691   12.943409750   88.339072063    8.009173337 XXXX 3      h*      H   0.410
H1692   12.800916470   89.870369872    8.048758236 XXXX 3      h*      H   0.410
O847     4.708355512   78.401858828   23.514574136 XXXX 3      o*      O  -0.820
O848    11.550780470   58.558855871   16.165179466 XXXX 3      o*      O  -0.820
O849     9.764459293   59.782502298   24.053975220 XXXX 3      o*      O  -0.820
H1693    5.085076006   77.497817398   23.424003292 XXXX 3      h*      H   0.410
H1694   11.598677601   58.597076568   17.174925593 XXXX 3      h*      H   0.410
H1695    9.760049368   60.764674857   23.968361168 XXXX 3      h*      H   0.410
H1696    3.745220664   78.220386202   23.601909566 XXXX 3      h*      H   0.410
H1697   11.021193092   57.796855345   15.948110210 XXXX 3      h*      H   0.410
H1698   10.717949401   59.611994659   24.289410201 XXXX 3      h*      H   0.410
O850    19.447684106   84.739336709   21.401534540 XXXX 3      o*      O  -0.820
H1699   19.048017301   83.954226768   21.116233813 XXXX 3      h*      H   0.410
H1700   19.569680765   85.131021028   20.553619795 XXXX 3      h*      H   0.410
O851    26.869431106   91.477203437   28.743565110 XXXX 3      o*      O  -0.820
H1701   26.412476895   91.111271969   29.477494606 XXXX 3      h*      H   0.410
H1702   27.242972417   90.569075383   28.492256477 XXXX 3      h*      H   0.410
O852    10.908631529   69.749791078    2.120219283 XXXX 3      o*      O  -0.820
O853     5.318615268   41.550010236    2.547235383 XXXX 3      o*      O  -0.820
H1703   10.010790530   69.422330315    1.752291739 XXXX 3      h*      H   0.410
H1704    5.626085168   40.609194408    2.708915584 XXXX 3      h*      H   0.410
H1705   11.485354362   69.188291730    1.579471407 XXXX 3      h*      H   0.410
H1706    5.427254729   41.646622198    1.568258797 XXXX 3      h*      H   0.410
O854    13.731385826   81.345308921    0.344074593 XXXX 3      o*      O  -0.820
O855     4.415415105   75.506628603   12.907478504 XXXX 3      o*      O  -0.820
O856     3.955447749   87.066798192    6.533224242 XXXX 3      o*      O  -0.820
H1707   13.770350190   80.931686076   -0.503265134 XXXX 3      h*      H   0.410
H1708    5.372835735   75.372825857   12.768301369 XXXX 3      h*      H   0.410
H1709    3.093469093   87.433107116    6.189986914 XXXX 3      h*      H   0.410
H1710   14.132858975   80.639557555    0.967688701 XXXX 3      h*      H   0.410
H1711    4.208656854   74.584778094   12.540450924 XXXX 3      h*      H   0.410
H1712    3.589344499   86.110633284    6.712928025 XXXX 3      h*      H   0.410
O857    26.967499936   48.345822282    5.730794503 XXXX 3      o*      O  -0.820
H1713   27.037430346   48.329340066    4.714661739 XXXX 3      h*      H   0.410
H1714   26.774328060   47.368270992    5.918992852 XXXX 3      h*      H   0.410
O858    14.154588540   66.650014480   12.609430621 XXXX 3      o*      O  -0.820
H1715   13.703819404   66.215596620   13.342874382 XXXX 3      h*      H   0.410
H1716   14.335928255   65.830246119   12.026231196 XXXX 3      h*      H   0.410
O859    28.958991072   71.606550396    9.910087526 XXXX 3      o*      O  -0.820
H1717   29.121783729   72.246104658    9.151208438 XXXX 3      h*      H   0.410
H1718   29.045316280   72.194278702   10.647389606 XXXX 3      h*      H   0.410
O860    10.261638229   52.553700406   16.439789501 XXXX 3      o*      O  -0.820
H1719   11.190630877   52.985910391   16.533943059 XXXX 3      h*      H   0.410
H1720    9.805666441   53.354103082   16.840167457 XXXX 3      h*      H   0.410
O861    23.513105549   82.848317833    0.630859893 XXXX 3      o*      O  -0.820
H1721   22.937641328   83.306850773    1.263622589 XXXX 3      h*      H   0.410
H1722   23.578636769   81.977682003    1.155896789 XXXX 3      h*      H   0.410
O862    23.817408016   43.211116490   14.896887667 XXXX 3      o*      O  -0.820
O863    27.299815915   64.032613615   19.615498919 XXXX 3      o*      O  -0.820
H1723   24.210925501   42.342223615   14.470882010 XXXX 3      h*      H   0.410
H1724   27.284438941   63.050876325   19.340357267 XXXX 3      h*      H   0.410
H1725   22.842862785   43.155647713   14.706720234 XXXX 3      h*      H   0.410
H1726   26.816650625   64.027570408   20.534085886 XXXX 3      h*      H   0.410
O864    15.024957407   49.392592026   10.559026992 XXXX 3      o*      O  -0.820
H1727   15.782033835   48.829553731   10.180730925 XXXX 3      h*      H   0.410
H1728   14.888564969   48.713312053   11.342608678 XXXX 3      h*      H   0.410
O865    24.685447708   48.082525598    7.928892082 XXXX 3      o*      O  -0.820
H1729   25.651361521   47.909910729    8.228829862 XXXX 3      h*      H   0.410
H1730   24.300489937   47.236959684    7.650567327 XXXX 3      h*      H   0.410
O866     2.800190889   71.465321837   24.286156536 XXXX 3      o*      O  -0.820
O867    19.804407766   85.380567840    8.354809089 XXXX 3      o*      O  -0.820
O868    17.360025449   43.483850416    2.902776373 XXXX 3      o*      O  -0.820
H1731    2.873958775   71.934918724   23.384268442 XXXX 3      h*      H   0.410
H1732   19.346114674   84.596328573    8.683349091 XXXX 3      h*      H   0.410
H1733   17.825071113   43.319816478    3.732349912 XXXX 3      h*      H   0.410
H1734    2.298755564   70.704840222   23.916930668 XXXX 3      h*      H   0.410
H1735   20.508208697   85.030006641    7.721387198 XXXX 3      h*      H   0.410
H1736   17.866178357   42.958384100    2.276874184 XXXX 3      h*      H   0.410
O869     7.080643732   32.919136345    7.888774503 XXXX 3      o*      O  -0.820
H1737    7.175411777   32.173151411    8.528180495 XXXX 3      h*      H   0.410
H1738    6.270930579   32.623061291    7.447957838 XXXX 3      h*      H   0.410
O870     8.182493278   89.472823985    1.273459702 XXXX 3      o*      O  -0.820
H1739    8.789314835   88.954515403    1.813271683 XXXX 3      h*      H   0.410
H1740    7.755495338   90.089110131    1.911885396 XXXX 3      h*      H   0.410
O871    26.831708400   79.245195457   28.333825095 XXXX 3      o*      O  -0.820
H1741   27.757296278   79.116182764   28.029820525 XXXX 3      h*      H   0.410
H1742   26.510883400   78.297437366   28.323548189 XXXX 3      h*      H   0.410
O872    21.533614221   51.072102619    1.970703136 XXXX 3      o*      O  -0.820
H1743   22.476543298   50.921028935    1.657234664 XXXX 3      h*      H   0.410
H1744   21.329188133   50.104668892    2.118341786 XXXX 3      h*      H   0.410
O873    27.557410734   62.567437873    8.915623037 XXXX 3      o*      O  -0.820
O874    16.491084617   87.234408473    6.994779410 XXXX 3      o*      O  -0.820
O875    13.061183724   55.638573596   20.896613801 XXXX 3      o*      O  -0.820
O876    17.858045957   49.192248468    8.101078035 XXXX 3      o*      O  -0.820
H1745   27.448946745   63.538464994    8.908216770 XXXX 3      h*      H   0.410
H1746   16.057452268   86.422018929    6.585322700 XXXX 3      h*      H   0.410
H1747   12.369438434   54.930498905   20.797325219 XXXX 3      h*      H   0.410
H1748   16.944666737   49.129481216    7.868176906 XXXX 3      h*      H   0.410
H1749   26.777895546   62.376157254    9.566489211 XXXX 3      h*      H   0.410
H1750   15.664148624   87.741647035    7.267525324 XXXX 3      h*      H   0.410
H1751   13.800079454   55.171024680   20.445139238 XXXX 3      h*      H   0.410
H1752   18.144007615   48.180019902    8.139702743 XXXX 3      h*      H   0.410
O877    27.990252832   58.039925679   10.463611905 XXXX 3      o*      O  -0.820
H1753   27.510209170   57.190404004   10.349602986 XXXX 3      h*      H   0.410
H1754   28.117313375   58.335491436    9.510665763 XXXX 3      h*      H   0.410
O878    21.960166589   55.332815246    8.418331691 XXXX 3      o*      O  -0.820
H1755   22.213006219   55.498430104    7.499206403 XXXX 3      h*      H   0.410
H1756   21.472748168   54.421429396    8.252327862 XXXX 3      h*      H   0.410
O879     4.595615316   43.851878643   18.591887932 XXXX 3      o*      O  -0.820
O880     2.219531823   55.307697231    5.488214460 XXXX 3      o*      O  -0.820
H1757    4.997590301   44.752570434   18.721848660 XXXX 3      h*      H   0.410
H1758    2.746254847   55.967603963    5.965417939 XXXX 3      h*      H   0.410
H1759    4.548160548   43.471909916   19.462668358 XXXX 3      h*      H   0.410
H1760    2.902212672   54.789513200    5.014537403 XXXX 3      h*      H   0.410
O881    12.390232161   67.983684491   30.809707580 XXXX 3      o*      O  -0.820
H1761   11.865423914   67.214280416   31.059687940 XXXX 3      h*      H   0.410
H1762   12.249275389   67.823701363   29.837037185 XXXX 3      h*      H   0.410
O882    19.844086899   54.668118854   18.217259745 XXXX 3      o*      O  -0.820
H1763   19.601481430   54.356439439   19.119553825 XXXX 3      h*      H   0.410
H1764   20.239739129   55.549941570   18.453694504 XXXX 3      h*      H   0.410
O883    12.920830129   37.558165449   27.709058670 XXXX 3      o*      O  -0.820
O884    31.304246510   54.909256483   14.227405777 XXXX 3      o*      O  -0.820
O885    11.447076187   74.931610223   10.067592066 XXXX 3      o*      O  -0.820
H1765   13.960243199   37.583372434   27.555514082 XXXX 3      h*      H   0.410
H1766   31.048340134   55.788976300   13.887690901 XXXX 3      h*      H   0.410
H1767   11.831428723   74.502454733   10.853680566 XXXX 3      h*      H   0.410
H1768   12.890293557   37.307159526   28.673895069 XXXX 3      h*      H   0.410
H1769   31.243317727   54.344079947   13.409395273 XXXX 3      h*      H   0.410
H1770   11.797124063   74.465248335    9.280432426 XXXX 3      h*      H   0.410
O886    12.868655002   33.184108009    3.560112326 XXXX 3      o*      O  -0.820
O887    14.457892121   68.736466071    2.242134303 XXXX 3      o*      O  -0.820
H1771   13.538897445   32.512982926    3.279801468 XXXX 3      h*      H   0.410
H1772   15.192685839   68.308122344    1.736007456 XXXX 3      h*      H   0.410
H1773   12.323332921   32.561698233    4.060993397 XXXX 3      h*      H   0.410
H1774   13.717102344   68.400124269    1.649885135 XXXX 3      h*      H   0.410
O888    20.260989093   37.887294937   23.886182692 XXXX 3      o*      O  -0.820
H1775   19.763565828   37.801856065   23.018669779 XXXX 3      h*      H   0.410
H1776   20.586742071   36.966893803   23.973223713 XXXX 3      h*      H   0.410
O889    20.685272810   66.534144610    6.952611687 XXXX 3      o*      O  -0.820
H1777   20.963474246   66.119385075    7.866879808 XXXX 3      h*      H   0.410
H1778   20.207336825   65.766139880    6.600888767 XXXX 3      h*      H   0.410
O890     5.548703928   72.539673214    4.065216526 XXXX 3      o*      O  -0.820
H1779    5.926250383   71.665811127    3.703678610 XXXX 3      h*      H   0.410
H1780    4.735709889   72.293291852    4.433168420 XXXX 3      h*      H   0.410
O891    11.904880416   55.700512568    9.531444740 XXXX 3      o*      O  -0.820
H1781   11.352958305   54.863179607    9.549511751 XXXX 3      h*      H   0.410
H1782   12.573395538   55.534663726   10.279168704 XXXX 3      h*      H   0.410
O892    20.529942837   67.276109041   30.310019793 XXXX 3      o*      O  -0.820
H1783   21.289826202   67.260781176   30.958516622 XXXX 3      h*      H   0.410
H1784   21.026412803   67.371968669   29.465644991 XXXX 3      h*      H   0.410
O893     4.902641972   80.349035418   17.297596666 XXXX 3      o*      O  -0.820
H1785    5.517442205   80.094844576   18.042682229 XXXX 3      h*      H   0.410
H1786    5.546614904   80.131737011   16.524312635 XXXX 3      h*      H   0.410
O894     0.489298462   43.312412102   14.418139730 XXXX 3      o*      O  -0.820
H1787   -0.485515391   43.695545763   14.324926913 XXXX 3      h*      H   0.410
H1788    0.269805912   42.485295047   14.865584883 XXXX 3      h*      H   0.410
O895    24.979623792   43.912949369   21.172483518 XXXX 3      o*      O  -0.820
H1789   24.025226367   43.691056096   21.108116515 XXXX 3      h*      H   0.410
H1790   25.011398534   44.184588062   22.121774235 XXXX 3      h*      H   0.410
O896    29.428226034   78.321037065   32.061278878 XXXX 3      o*      O  -0.820
H1791   29.087666536   79.077219791   32.588759484 XXXX 3      h*      H   0.410
H1792   30.160423785   78.730870192   31.637693856 XXXX 3      h*      H   0.410
O897     4.142002953   39.572178373   29.810735994 XXXX 3      o*      O  -0.820
H1793    3.979702661   40.568613487   29.986686390 XXXX 3      h*      H   0.410
H1794    3.742495365   39.086897302   30.601553255 XXXX 3      h*      H   0.410
O898    18.492934966   41.434855981    8.447621238 XXXX 3      o*      O  -0.820
H1795   18.626298985   40.563405886    8.937483178 XXXX 3      h*      H   0.410
H1796   17.727087671   41.089631988    7.841337678 XXXX 3      h*      H   0.410
O899    26.641052889   64.037144636    2.596059831 XXXX 3      o*      O  -0.820
H1797   25.833610482   63.578937131    2.147311824 XXXX 3      h*      H   0.410
H1798   26.809575186   63.409105996    3.289401646 XXXX 3      h*      H   0.410
O900    21.783415933   57.601553552   30.967197164 XXXX 3      o*      O  -0.820
O901    17.638574637   75.300720095   14.482353222 XXXX 3      o*      O  -0.820
O902    12.095270817   44.385809460   27.242570751 XXXX 3      o*      O  -0.820
O903     4.676813611   55.515695644   29.067217229 XXXX 3      o*      O  -0.820
O904    30.507268253   60.122818543    4.178859747 XXXX 3      o*      O  -0.820
O905    21.409623332   40.887099860   19.667324788 XXXX 3      o*      O  -0.820
O906    26.107653932   62.759217845   28.886651177 XXXX 3      o*      O  -0.820
H1799   22.524726458   56.988495112   31.176441728 XXXX 3      h*      H   0.410
H1800   18.007120099   75.576255390   15.294372869 XXXX 3      h*      H   0.410
H1801   12.913496575   44.301038676   26.733503450 XXXX 3      h*      H   0.410
H1802    4.518012129   55.271840573   28.156376381 XXXX 3      h*      H   0.410
H1803   30.179172350   60.178186868    3.219015883 XXXX 3      h*      H   0.410
H1804   20.498815148   41.271955228   19.561919714 XXXX 3      h*      H   0.410
H1805   26.036785334   62.084326577   29.635568153 XXXX 3      h*      H   0.410
H1806   21.154143407   56.943218162   30.582846173 XXXX 3      h*      H   0.410
H1807   17.109620770   74.548755195   14.850622207 XXXX 3      h*      H   0.410
H1808   12.465462978   44.767406517   28.116454247 XXXX 3      h*      H   0.410
H1809    4.625855370   54.585177682   29.375071255 XXXX 3      h*      H   0.410
H1810   30.455537892   59.106606601    4.276848126 XXXX 3      h*      H   0.410
H1811   21.293977166   40.194510805   18.943339987 XXXX 3      h*      H   0.410
H1812   26.892241978   62.476986125   28.454639064 XXXX 3      h*      H   0.410
O907    15.442999252   61.706285361   18.972005071 XXXX 3      o*      O  -0.820
O908    22.110794516   86.800858064   20.613725237 XXXX 3      o*      O  -0.820
O909    13.452970779   78.973019793    6.290706389 XXXX 3      o*      O  -0.820
O910     3.544770267   59.219030589   18.021126617 XXXX 3      o*      O  -0.820
O911    12.300668926   90.014067550   25.701168313 XXXX 3      o*      O  -0.820
O912    10.497435955   79.998044654   24.041431640 XXXX 3      o*      O  -0.820
O913    19.677425134   32.960562605   20.645646110 XXXX 3      o*      O  -0.820
H1813   15.849054598   60.775926738   19.007833337 XXXX 3      h*      H   0.410
H1814   21.836728371   87.740185590   20.942031635 XXXX 3      h*      H   0.410
H1815   13.023106806   78.235478351    5.858406587 XXXX 3      h*      H   0.410
H1816    3.256054684   58.282265091   18.187444885 XXXX 3      h*      H   0.410
H1817   12.737825913   90.440556017   24.872072445 XXXX 3      h*      H   0.410
H1818   10.884296272   79.107358635   24.343078356 XXXX 3      h*      H   0.410
H1819   19.013523213   32.793842192   19.862396224 XXXX 3      h*      H   0.410
H1820   16.231192862   62.244179725   18.678748834 XXXX 3      h*      H   0.410
H1821   21.741095619   86.279609319   21.313602244 XXXX 3      h*      H   0.410
H1822   14.230647422   79.045774167    5.696106066 XXXX 3      h*      H   0.410
H1823    4.514793705   59.096538290   18.088666356 XXXX 3      h*      H   0.410
H1824   11.978196734   89.183192210   25.326133571 XXXX 3      h*      H   0.410
H1825   10.941074543   80.633434596   24.602547901 XXXX 3      h*      H   0.410
H1826   19.034514052   32.525119949   21.297580630 XXXX 3      h*      H   0.410
O914    28.255436334   87.504910405   18.095934086 XXXX 3      o*      O  -0.820
O915    29.952022887   91.470153977   28.123673655 XXXX 3      o*      O  -0.820
O916    24.254102984   62.779397182   18.991093600 XXXX 3      o*      O  -0.820
O917    11.856310835   77.639089162   14.245116753 XXXX 3      o*      O  -0.820
O918    -0.584063564   80.141862271   19.533833787 XXXX 3      o*      O  -0.820
H1827   27.763370026   86.740679529   18.466506879 XXXX 3      h*      H   0.410
H1828   29.922145235   90.688329789   27.486674457 XXXX 3      h*      H   0.410
H1829   23.682009153   62.829741092   19.814857015 XXXX 3      h*      H   0.410
H1830   11.257284389   77.318563390   14.990952150 XXXX 3      h*      H   0.410
H1831    0.428992855   80.061071074   19.615432587 XXXX 3      h*      H   0.410
H1832   28.962976608   87.012901975   17.683551269 XXXX 3      h*      H   0.410
H1833   30.103885443   90.917041307   28.922507723 XXXX 3      h*      H   0.410
H1834   24.715656696   61.949191551   19.072034088 XXXX 3      h*      H   0.410
H1835   11.972544701   76.744486846   13.740346448 XXXX 3      h*      H   0.410
H1836   -0.821313260   79.365261422   19.050453870 XXXX 3      h*      H   0.410
O919    10.311019302   88.427689160    2.849165265 XXXX 3      o*      O  -0.820
O920    17.315588258   88.597136826    3.869119049 XXXX 3      o*      O  -0.820
O921    25.105692101   71.888244421   18.614471616 XXXX 3      o*      O  -0.820
O922    28.200450511   85.120080316   13.605618118 XXXX 3      o*      O  -0.820
H1837   10.853505986   89.238541138    2.998249296 XXXX 3      h*      H   0.410
H1838   16.855800241   89.082014588    3.217544387 XXXX 3      h*      H   0.410
H1839   25.558526829   71.348222687   17.907550920 XXXX 3      h*      H   0.410
H1840   29.063489750   85.596837948   13.461484351 XXXX 3      h*      H   0.410
H1841   10.456397443   88.141038056    3.760020616 XXXX 3      h*      H   0.410
H1842   18.177483879   89.130282188    3.906566976 XXXX 3      h*      H   0.410
H1843   24.460294511   72.455777556   18.084848714 XXXX 3      h*      H   0.410
H1844   28.600432460   84.254225581   13.695883870 XXXX 3      h*      H   0.410
O923    22.845989550   82.954162195   13.107189076 XXXX 3      o*      O  -0.820
O924     2.187460695   79.349901921   20.291344737 XXXX 3      o*      O  -0.820
O925    24.112844548   69.049869277   14.375298771 XXXX 3      o*      O  -0.820
O926    23.497037268   89.116484603   14.478664727 XXXX 3      o*      O  -0.820
O927    23.292924716   91.415391045   12.444313802 XXXX 3      o*      O  -0.820
O928    35.371184698   49.892740001    5.303089871 XXXX 3      o*      O  -0.820
O929    25.201809155   86.085098318   14.388087026 XXXX 3      o*      O  -0.820
O930     4.469949030   54.999855283   26.328253876 XXXX 3      o*      O  -0.820
O931     4.234165332   54.945607817    9.243590068 XXXX 3      o*      O  -0.820
O932    16.147958686   66.127066627   15.706561637 XXXX 3      o*      O  -0.820
O933    25.998881239   77.609362294    9.058777345 XXXX 3      o*      O  -0.820
O934    28.077789318   76.335755687   30.527865814 XXXX 3      o*      O  -0.820
H1845   21.939126565   82.669644894   13.329199394 XXXX 3      h*      H   0.410
H1846    2.642707802   80.187202256   20.065759969 XXXX 3      h*      H   0.410
H1847   24.801910273   69.275860619   15.001031408 XXXX 3      h*      H   0.410
H1848   22.996977810   88.245733257   14.459373068 XXXX 3      h*      H   0.410
H1849   23.750824470   90.583757404   12.185658301 XXXX 3      h*      H   0.410
H1850   35.702805877   49.201456998    5.988259301 XXXX 3      h*      H   0.410
H1851   25.985959368   86.229813327   13.857262092 XXXX 3      h*      H   0.410
H1852    4.445738251   55.426070295   25.399786240 XXXX 3      h*      H   0.410
H1853    4.833925890   54.981034453    8.495592723 XXXX 3      h*      H   0.410
H1854   16.973256465   66.497144519   15.272353667 XXXX 3      h*      H   0.410
H1855   26.791190279   77.779283224    9.570535208 XXXX 3      h*      H   0.410
H1856   27.883448615   76.719006125   29.597714185 XXXX 3      h*      H   0.410
H1857   23.274113461   82.074831552   13.052340601 XXXX 3      h*      H   0.410
H1858    2.780176329   78.762569584   19.814767543 XXXX 3      h*      H   0.410
H1859   24.572507225   68.691663489   13.612148603 XXXX 3      h*      H   0.410
H1860   24.144231969   89.041649907   15.269577508 XXXX 3      h*      H   0.410
H1861   22.320579505   91.223984628   12.379769524 XXXX 3      h*      H   0.410
H1862   34.426046224   49.991286423    5.580537895 XXXX 3      h*      H   0.410
H1863   25.574478597   85.522511624   15.111325258 XXXX 3      h*      H   0.410
H1864    3.791158491   54.254756823   26.213838478 XXXX 3      h*      H   0.410
H1865    3.425717155   54.504662868    8.796274731 XXXX 3      h*      H   0.410
H1866   16.351364979   65.131296698   15.685603394 XXXX 3      h*      H   0.410
H1867   26.353412133   76.979494331    8.385396848 XXXX 3      h*      H   0.410
H1868   28.624242877   77.117845398   30.926420993 XXXX 3      h*      H   0.410
O935    21.612875171   41.703450371    0.870716408 XXXX 3      o*      O  -0.820
O936     0.233930856   53.017909789   12.150727335 XXXX 3      o*      O  -0.820
H1869   22.014190484   42.041135307    1.691495237 XXXX 3      h*      H   0.410
H1870    0.221295581   52.313898241   12.840467242 XXXX 3      h*      H   0.410
H1871   22.416365039   41.323196996    0.453144717 XXXX 3      h*      H   0.410
H1872   -0.336494402   52.693808664   11.423688235 XXXX 3      h*      H   0.410
O937    17.338906201   77.132607332    8.617382193 XXXX 3      o*      O  -0.820
O938    18.645872191   87.705127374    9.862333708 XXXX 3      o*      O  -0.820
O939     9.757120849   66.123108458   25.788193316 XXXX 3      o*      O  -0.820
O940    13.864635242   37.049699233   21.239410986 XXXX 3      o*      O  -0.820
O941     8.109620984   54.305614805    1.825341254 XXXX 3      o*      O  -0.820
O942    18.349547140   72.898027633   28.082966704 XXXX 3      o*      O  -0.820
O943    12.490853327   58.133142357   18.845562059 XXXX 3      o*      O  -0.820
O944    20.215584021   72.850271673   21.930794801 XXXX 3      o*      O  -0.820
O945    19.070997818   49.400311682   23.630733862 XXXX 3      o*      O  -0.820
O946     6.377213806   53.054991093   14.785559634 XXXX 3      o*      O  -0.820
O947    23.016269700   36.407838762   23.120664276 XXXX 3      o*      O  -0.820
H1873   16.572758281   77.726504115    8.903895417 XXXX 3      h*      H   0.410
H1874   18.588866466   87.230453970   10.760681575 XXXX 3      h*      H   0.410
H1875    9.808777896   66.947675678   26.363122476 XXXX 3      h*      H   0.410
H1876   14.563509076   37.127265142   21.946598203 XXXX 3      h*      H   0.410
H1877    8.887002035   54.350492094    2.428402326 XXXX 3      h*      H   0.410
H1878   18.937884258   72.068052214   27.971990768 XXXX 3      h*      H   0.410
H1879   12.376922477   57.212875728   19.194449525 XXXX 3      h*      H   0.410
H1880   20.413694709   71.852667970   21.791035332 XXXX 3      h*      H   0.410
H1881   19.421124036   48.500335390   23.892259626 XXXX 3      h*      H   0.410
H1882    5.863605079   52.296741638   14.361402841 XXXX 3      h*      H   0.410
H1883   22.593488482   35.852062300   22.442416721 XXXX 3      h*      H   0.410
H1884   16.908351889   76.301403647    8.851339905 XXXX 3      h*      H   0.410
H1885   19.146636746   87.090744074    9.337461218 XXXX 3      h*      H   0.410
H1886   10.052918995   66.571284555   25.006189582 XXXX 3      h*      H   0.410
H1887   13.663241100   38.067667078   21.209507495 XXXX 3      h*      H   0.410
H1888    8.418684399   53.504573884    1.325934561 XXXX 3      h*      H   0.410
H1889   18.875315065   73.478118242   28.693672806 XXXX 3      h*      H   0.410
H1890   13.559195728   58.131573821   18.829571448 XXXX 3      h*      H   0.410
H1891   21.126797317   73.078747017   22.229471061 XXXX 3      h*      H   0.410
H1892   19.194434471   49.279647390   22.667602983 XXXX 3      h*      H   0.410
H1893    7.314143800   52.856171542   14.506456050 XXXX 3      h*      H   0.410
H1894   23.959938511   36.345024804   22.802826741 XXXX 3      h*      H   0.410
O948    19.126164281   50.487728560   17.710408032 XXXX 3      o*      O  -0.820
O949    27.999961293   77.485662713   10.746178949 XXXX 3      o*      O  -0.820
O950    25.053097539   59.381529189   14.737467224 XXXX 3      o*      O  -0.820
O951    28.580300095   33.871300604    5.393980982 XXXX 3      o*      O  -0.820
O952    16.898986437   89.024436896   27.076137417 XXXX 3      o*      O  -0.820
O953     7.781845464   81.615645137    9.122074581 XXXX 3      o*      O  -0.820
O954    13.809203016   71.579058954   31.132169008 XXXX 3      o*      O  -0.820
O955    30.783168789   86.958968954   12.384923925 XXXX 3      o*      O  -0.820
O956    22.267383744   84.081364920   28.823758457 XXXX 3      o*      O  -0.820
O957     4.672876741   80.629376337    9.207337233 XXXX 3      o*      O  -0.820
O958    26.966582751   36.207647162   31.775136241 XXXX 3      o*      O  -0.820
O959    20.066440302   57.262555152   13.817573669 XXXX 3      o*      O  -0.820
O960     2.690223346   85.712852724    1.727734155 XXXX 3      o*      O  -0.820
H1895   18.866346529   51.302030932   17.224296060 XXXX 3      h*      H   0.410
H1896   28.402558347   78.374428059   10.944863822 XXXX 3      h*      H   0.410
H1897   24.343844366   59.014763803   14.223963330 XXXX 3      h*      H   0.410
H1898   29.314192750   33.570036049    4.790496729 XXXX 3      h*      H   0.410
H1899   16.171607914   88.670092101   27.685685997 XXXX 3      h*      H   0.410
H1900    7.187708486   80.983846431    8.646551073 XXXX 3      h*      H   0.410
H1901   13.894659152   70.951862480   31.852728322 XXXX 3      h*      H   0.410
H1902   30.758164813   87.204095932   13.316842512 XXXX 3      h*      H   0.410
H1903   22.311406440   83.346051443   29.467125395 XXXX 3      h*      H   0.410
H1904    4.649360495   81.384401405    8.579285026 XXXX 3      h*      H   0.410
H1905   27.674303012   36.283645016   31.084649836 XXXX 3      h*      H   0.410
H1906   20.068990071   56.466953904   13.236386556 XXXX 3      h*      H   0.410
H1907    1.994500647   85.013619330    1.910669226 XXXX 3      h*      H   0.410
H1908   19.563125686   49.871069518   17.026718194 XXXX 3      h*      H   0.410
H1909   28.923492907   77.132603883   10.449292106 XXXX 3      h*      H   0.410
H1910   25.499932999   58.561996977   14.801279151 XXXX 3      h*      H   0.410
H1911   27.935625365   34.151071728    4.681334988 XXXX 3      h*      H   0.410
H1912   17.602725930   88.387769292   27.369692755 XXXX 3      h*      H   0.410
H1913    7.441127385   81.427920918   10.041623428 XXXX 3      h*      H   0.410
H1914   12.885213873   71.334907161   30.868039168 XXXX 3      h*      H   0.410
H1915   31.548463465   87.478589618   12.034894414 XXXX 3      h*      H   0.410
H1916   22.989345021   83.754165722   28.254208230 XXXX 3      h*      H   0.410
H1917    4.024281051   80.962729256    9.896328095 XXXX 3      h*      H   0.410
H1918   26.890788115   37.137320608   32.086236405 XXXX 3      h*      H   0.410
H1919   20.709741000   56.935104739   14.472343681 XXXX 3      h*      H   0.410
H1920    3.623757920   85.314087195    2.073556670 XXXX 3      h*      H   0.410
O961     9.152237056   75.546955354   12.162769351 XXXX 3      o*      O  -0.820
O962     7.564392107   83.832730928   11.461240043 XXXX 3      o*      O  -0.820
H1921    9.870635008   75.547238324   11.478493863 XXXX 3      h*      H   0.410
H1922    7.652917590   84.797007523   11.624704669 XXXX 3      h*      H   0.410
H1923    9.144456000   74.595608605   12.350650540 XXXX 3      h*      H   0.410
H1924    8.199962240   83.844545744   10.709888617 XXXX 3      h*      H   0.410
O963    22.130489264   56.261109867   15.013060830 XXXX 3      o*      O  -0.820
H1925   22.038961063   55.316330109   14.781414054 XXXX 3      h*      H   0.410
H1926   23.014233337   56.269265697   15.439046290 XXXX 3      h*      H   0.410
O964    16.708419756   76.509010068   16.820542109 XXXX 3      o*      O  -0.820
O965    17.068156794   40.054127678    6.579033802 XXXX 3      o*      O  -0.820
O966    29.391180729   30.657198038    5.552761348 XXXX 3      o*      O  -0.820
H1927   15.747450627   76.589272125   17.128501034 XXXX 3      h*      H   0.410
H1928   17.016685506   39.169157055    7.068596635 XXXX 3      h*      H   0.410
H1929   28.610232962   30.544932666    4.965820814 XXXX 3      h*      H   0.410
H1930   17.070112872   75.919536626   17.507847873 XXXX 3      h*      H   0.410
H1931   16.649068128   39.693060342    5.705976121 XXXX 3      h*      H   0.410
H1932   29.615731327   29.735285325    5.577149263 XXXX 3      h*      H   0.410
O967    17.122274493   45.634494353   27.054594693 XXXX 3      o*      O  -0.820
H1933   17.875471291   45.359735170   27.717286041 XXXX 3      h*      H   0.410
H1934   16.913275614   44.825442229   26.607429866 XXXX 3      h*      H   0.410
O968     5.074043832   31.281504409   14.427429941 XXXX 3      o*      O  -0.820
H1935    5.456810756   30.520229155   13.948791771 XXXX 3      h*      H   0.410
H1936    4.187608256   30.922894013   14.596168485 XXXX 3      h*      H   0.410
O969    28.691765066   80.492199647   22.237258116 XXXX 3      o*      O  -0.820
O970     7.162454363   61.681198431   22.100830430 XXXX 3      o*      O  -0.820
O971    19.282481072   88.800055424   14.092555091 XXXX 3      o*      O  -0.820
O972     6.845391714   53.286397143   11.624936087 XXXX 3      o*      O  -0.820
O973     9.559544738   53.009156394   12.169594675 XXXX 3      o*      O  -0.820
O974    24.450852565   34.384220370   13.982454472 XXXX 3      o*      O  -0.820
O975    -0.269065652   85.544529874   10.058221680 XXXX 3      o*      O  -0.820
O976     0.727817013   49.680672875   10.477898314 XXXX 3      o*      O  -0.820
O977    26.220754125   44.143362169   17.959661852 XXXX 3      o*      O  -0.820
O978     7.510422647   41.424308893   19.778785673 XXXX 3      o*      O  -0.820
O979    23.527035684   71.953910805   15.418815414 XXXX 3      o*      O  -0.820
O980     7.208966546   73.808719998   20.874275904 XXXX 3      o*      O  -0.820
O981    18.549091846   80.230590413   13.301813129 XXXX 3      o*      O  -0.820
O982    24.974189056   82.472152406    9.252340954 XXXX 3      o*      O  -0.820
O983     7.011388622   53.814932285   -3.098410831 XXXX 3      o*      O  -0.820
H1937   28.938128997   80.555971243   21.291745821 XXXX 3      h*      H   0.410
H1938    6.881276158   61.472573662   21.132808539 XXXX 3      h*      H   0.410
H1939   18.835161128   88.460144691   14.913705032 XXXX 3      h*      H   0.410
H1940    6.680047364   52.943112644   10.679471688 XXXX 3      h*      H   0.410
H1941    8.684274854   53.259521725   11.901913362 XXXX 3      h*      H   0.410
H1942   24.254064632   33.785324935   13.236704782 XXXX 3      h*      H   0.410
H1943   -0.135792801   85.929725534   10.944979343 XXXX 3      h*      H   0.410
H1944    1.295585765   50.083288921    9.786474114 XXXX 3      h*      H   0.410
H1945   27.104307139   44.582234329   17.920539121 XXXX 3      h*      H   0.410
H1946    7.983830043   41.039306425   20.584832665 XXXX 3      h*      H   0.410
H1947   24.353598791   71.490105939   15.115462807 XXXX 3      h*      H   0.410
H1948    6.248575232   73.838576290   21.102902958 XXXX 3      h*      H   0.410
H1949   18.425718635   79.281214825   13.362992521 XXXX 3      h*      H   0.410
H1950   25.314153621   82.276979414   10.133526331 XXXX 3      h*      H   0.410
H1951    6.260619743   54.297450301   -3.475188218 XXXX 3      h*      H   0.410
H1952   29.125715658   79.567724299   22.344711400 XXXX 3      h*      H   0.410
H1953    6.475019237   61.174151852   22.542937095 XXXX 3      h*      H   0.410
H1954   19.634684708   89.593453907   14.498450555 XXXX 3      h*      H   0.410
H1955    6.156320298   52.779852682   12.090329635 XXXX 3      h*      H   0.410
H1956    9.329386196   52.374975831   12.869079009 XXXX 3      h*      H   0.410
H1957   24.691030743   33.691130145   14.654012219 XXXX 3      h*      H   0.410
H1958    0.277213811   86.070123378    9.459886143 XXXX 3      h*      H   0.410
H1959    1.337242443   49.501440920   11.265479016 XXXX 3      h*      H   0.410
H1960   25.658711060   44.876321372   17.529617298 XXXX 3      h*      H   0.410
H1961    7.614083182   42.367761745   20.070691405 XXXX 3      h*      H   0.410
H1962   22.919332232   71.654985529   14.710973517 XXXX 3      h*      H   0.410
H1963    7.549575035   73.414357636   21.727139403 XXXX 3      h*      H   0.410
H1964   18.408554236   80.350652652   12.360695671 XXXX 3      h*      H   0.410
H1965   25.528877195   81.904968782    8.716938921 XXXX 3      h*      H   0.410
H1966    7.592886060   53.716039953   -3.850016419 XXXX 3      h*      H   0.410
O984    11.569346643   40.133389477   13.066870257 XXXX 3      o*      O  -0.820
H1967   11.556227329   39.234654581   12.610269881 XXXX 3      h*      H   0.410
H1968   11.811143361   39.919503600   13.992737186 XXXX 3      h*      H   0.410
O985    27.170697421   68.592116342   14.567452339 XXXX 3      o*      O  -0.820
O986    31.584267476   69.045180578   26.493619293 XXXX 3      o*      O  -0.820
O987    13.797419200   57.806331844   22.585092718 XXXX 3      o*      O  -0.820
O988    24.168897089   64.720432194   11.224179212 XXXX 3      o*      O  -0.820
O989    22.334139403   65.621950139   21.822707959 XXXX 3      o*      O  -0.820
O990    23.062739568   88.843164006   23.338895395 XXXX 3      o*      O  -0.820
O991     9.505023963   73.111472493   -0.473903970 XXXX 3      o*      O  -0.820
O992    25.421661593   77.115625674    4.738719799 XXXX 3      o*      O  -0.820
O993    16.643481869   86.611883258   13.890624998 XXXX 3      o*      O  -0.820
O994    11.431777038   53.125769489   20.186275058 XXXX 3      o*      O  -0.820
H1969   26.544624942   67.933763084   14.331933369 XXXX 3      h*      H   0.410
H1970   31.444363631   68.073759626   26.530149808 XXXX 3      h*      H   0.410
H1971   14.444390460   57.219602888   23.003780896 XXXX 3      h*      H   0.410
H1972   23.234713235   64.952848179   11.055873256 XXXX 3      h*      H   0.410
H1973   21.522998485   65.602121323   22.421279827 XXXX 3      h*      H   0.410
H1974   23.723775569   88.191761128   23.519778318 XXXX 3      h*      H   0.410
H1975    9.335388835   72.720697283    0.421430699 XXXX 3      h*      H   0.410
H1976   24.595200536   76.950403004    4.253435196 XXXX 3      h*      H   0.410
H1977   16.599111798   85.919880675   14.525806690 XXXX 3      h*      H   0.410
H1978   10.605523011   52.793170460   20.442989792 XXXX 3      h*      H   0.410
H1979   27.797117402   68.439383386   13.862905754 XXXX 3      h*      H   0.410
H1980   32.518964438   69.177995557   26.134833121 XXXX 3      h*      H   0.410
H1981   13.434916841   57.228561030   21.916442950 XXXX 3      h*      H   0.410
H1982   24.266882696   64.527123575   12.190948274 XXXX 3      h*      H   0.410
H1983   22.660611596   66.464833081   22.066757923 XXXX 3      h*      H   0.410
H1984   22.208648436   88.223677603   23.303368321 XXXX 3      h*      H   0.410
H1985   10.081877137   72.402496261   -0.807510637 XXXX 3      h*      H   0.410
H1986   25.721890127   76.240099496    5.180483301 XXXX 3      h*      H   0.410
H1987   16.996608617   86.125256455   13.099417937 XXXX 3      h*      H   0.410
H1988   11.717995667   52.531497588   19.494274587 XXXX 3      h*      H   0.410
O995    29.366538945   80.699586132   16.357953598 XXXX 3      o*      O  -0.820
O996    25.052721643   88.705274727    6.142556902 XXXX 3      o*      O  -0.820
O997     1.737090979   83.392566362    0.086956142 XXXX 3      o*      O  -0.820
O998     7.814542071   71.274536333    1.306519338 XXXX 3      o*      O  -0.820
O999    10.208410306   63.509671746   27.997300902 XXXX 3      o*      O  -0.820
O1000   25.223935476   77.813618823   12.084137139 XXXX 3      o*      O  -0.820
O1001   26.775835438   75.470460329    7.417801098 XXXX 3      o*      O  -0.820
O1002    1.293364098   81.222772481   10.728201497 XXXX 3      o*      O  -0.820
O1003    9.271116990   86.191689353   19.132386582 XXXX 3      o*      O  -0.820
O1004    9.213637704   60.221626034    4.903933124 XXXX 3      o*      O  -0.820
H1989   29.912779876   80.536804315   15.555558128 XXXX 3      h*      H   0.410
H1990   25.070058153   87.744947197    5.866816283 XXXX 3      h*      H   0.410
H1991    1.026454422   82.809673324   -0.217160369 XXXX 3      h*      H   0.410
H1992    7.362792409   70.964603504    2.142620582 XXXX 3      h*      H   0.410
H1993    9.611862962   63.250881976   28.755046700 XXXX 3      h*      H   0.410
H1994   26.129436009   77.711725667   11.772082965 XXXX 3      h*      H   0.410
H1995   26.030394503   74.850582325    7.524742353 XXXX 3      h*      H   0.410
H1996    1.095043926   80.327484841   11.101207464 XXXX 3      h*      H   0.410
H1997    9.807682062   86.499131137   19.877704175 XXXX 3      h*      H   0.410
H1998    8.297082638   60.495669420    4.873861286 XXXX 3      h*      H   0.410
H1999   28.846398025   79.880992375   16.471418100 XXXX 3      h*      H   0.410
H2000   25.414811368   89.121923144    5.325693036 XXXX 3      h*      H   0.410
H2001    2.218376401   82.778457595    0.670877175 XXXX 3      h*      H   0.410
H2002    7.262773374   70.703305101    0.664506088 XXXX 3      h*      H   0.410
H2003    9.826179406   63.000336222   27.266974273 XXXX 3      h*      H   0.410
H2004   25.125934515   78.537740939   12.726750066 XXXX 3      h*      H   0.410
H2005   27.475715723   74.865259237    7.099012589 XXXX 3      h*      H   0.410
H2006    0.419582806   81.234151772   10.291412742 XXXX 3      h*      H   0.410
H2007    9.843904658   85.386605189   19.011010624 XXXX 3      h*      H   0.410
H2008    9.053468349   59.264428517    5.063575898 XXXX 3      h*      H   0.410
O1005   28.572383426   55.031171617    5.405824093 XXXX 3      o*      O  -0.820
H2009   28.252587556   54.102459162    5.726551367 XXXX 3      h*      H   0.410
H2010   28.935537997   55.453416780    6.207384047 XXXX 3      h*      H   0.410
O1006   27.312436763   63.385200689   11.900515349 XXXX 3      o*      O  -0.820
O1007   10.279131567   69.894291236   20.554467615 XXXX 3      o*      O  -0.820
O1008   10.393021584   91.333568808    1.481670193 XXXX 3      o*      O  -0.820
O1009   20.803086078   48.820728726    8.536875760 XXXX 3      o*      O  -0.820
O1010   -1.994484262   84.810853294    4.292026651 XXXX 3      o*      O  -0.820
O1011   19.321034384   87.161088656   26.603979131 XXXX 3      o*      O  -0.820
O1012    3.710760814   91.534536218    9.819011200 XXXX 3      o*      O  -0.820
H2011   27.508673620   62.435462937   11.735384249 XXXX 3      h*      H   0.410
H2012    9.941780426   69.022978741   20.832980361 XXXX 3      h*      H   0.410
H2013   10.780658571   90.935499306    2.306222532 XXXX 3      h*      H   0.410
H2014   20.387270268   48.039266129    8.915905339 XXXX 3      h*      H   0.410
H2015   -2.351206409   84.321960150    5.093136386 XXXX 3      h*      H   0.410
H2016   19.407813501   86.290804841   27.083991366 XXXX 3      h*      H   0.410
H2017    3.735094788   90.861457882   10.547481269 XXXX 3      h*      H   0.410
H2018   26.596065835   63.112969382   12.534778235 XXXX 3      h*      H   0.410
H2019    9.462758871   70.371731496   20.277928791 XXXX 3      h*      H   0.410
H2020    9.558026477   90.731021939    1.505452596 XXXX 3      h*      H   0.410
H2021   21.737453904   48.581351369    8.586662745 XXXX 3      h*      H   0.410
H2022   -1.847978648   84.087484544    3.616794693 XXXX 3      h*      H   0.410
H2023   20.215764433   87.247947698   26.168881332 XXXX 3      h*      H   0.410
H2024    3.451810636   90.919353730    9.106627413 XXXX 3      h*      H   0.410
O1013    4.151223161   79.702964648    2.900363305 XXXX 3      o*      O  -0.820
H2025    5.044519019   79.279803386    3.123057621 XXXX 3      h*      H   0.410
H2026    4.178256302   80.434835236    3.528929803 XXXX 3      h*      H   0.410
O1014    4.739430457   86.116884280   10.437145439 XXXX 3      o*      O  -0.820
H2027    3.790679227   86.286616653   10.291988333 XXXX 3      h*      H   0.410
H2028    4.635234328   85.192999414   10.792845028 XXXX 3      h*      H   0.410
O1015   12.504171896   82.328304874    3.385387268 XXXX 3      o*      O  -0.820
H2029   12.008663155   81.430699854    3.314091200 XXXX 3      h*      H   0.410
H2030   13.257635580   81.972209088    3.902752606 XXXX 3      h*      H   0.410
O1016   22.060890600   72.952206900   27.162208607 XXXX 3      o*      O  -0.820
O1017   10.546476697   45.082844138   10.265183715 XXXX 3      o*      O  -0.820
H2031   21.840407645   72.030366745   27.433218395 XXXX 3      h*      H   0.410
H2032   10.110393118   44.592914497   11.008572943 XXXX 3      h*      H   0.410
H2033   23.028897519   73.158036278   27.371740845 XXXX 3      h*      H   0.410
H2034   11.334603378   44.471225811   10.334980077 XXXX 3      h*      H   0.410
O1018   15.794994699   75.560157525    5.234300291 XXXX 3      o*      O  -0.820
H2035   16.397450116   74.901693689    4.898032705 XXXX 3      h*      H   0.410
H2036   15.142669962   75.570405203    4.529475190 XXXX 3      h*      H   0.410
O1019   16.388174549   75.012138416   25.663743592 XXXX 3      o*      O  -0.820
H2037   17.260256965   75.187410194   26.052954852 XXXX 3      h*      H   0.410
H2038   16.200060036   74.066471094   25.850484779 XXXX 3      h*      H   0.410
O1020   26.781221071   76.417106698   14.023503788 XXXX 3      o*      O  -0.820
H2039   26.494795583   75.649763560   13.425325728 XXXX 3      h*      H   0.410
H2040   26.001213583   77.012785055   13.772185695 XXXX 3      h*      H   0.410
O1021    7.345231038   35.583529989    6.359060026 XXXX 3      o*      O  -0.820
H2041    7.013379437   34.799110635    5.864995061 XXXX 3      h*      H   0.410
H2042    7.691438373   35.966341257    5.539302199 XXXX 3      h*      H   0.410
O1022   22.144438790   62.304394630   21.090060492 XXXX 3      o*      O  -0.820
H2043   22.582973675   62.155704944   21.934479952 XXXX 3      h*      H   0.410
H2044   21.218634047   62.323001658   21.371498373 XXXX 3      h*      H   0.410
O1023    9.745262622   45.462353035   13.712258910 XXXX 3      o*      O  -0.820
H2045    9.284927668   44.939077250   14.460656343 XXXX 3      h*      H   0.410
H2046   10.353627196   44.753139376   13.443802467 XXXX 3      h*      H   0.410
O1024    0.072413312   89.544859755    6.682944822 XXXX 3      o*      O  -0.820
O1025   -1.003964364   85.532773018   16.521793156 XXXX 3      o*      O  -0.820
H2047   -0.275787948   90.224196902    6.021781148 XXXX 3      h*      H   0.410
H2048   -0.293721892   84.823717851   16.579139710 XXXX 3      h*      H   0.410
H2049    0.766038956   89.110805746    6.092465914 XXXX 3      h*      H   0.410
H2050   -1.758108068   84.904614668   16.528373176 XXXX 3      h*      H   0.410
O1026   27.423543204   56.789424027   22.689667794 XXXX 3      o*      O  -0.820
H2051   26.648344861   56.587345564   22.099357339 XXXX 3      h*      H   0.410
H2052   28.037842025   55.988743668   22.589439768 XXXX 3      h*      H   0.410
O1027   24.921675643   56.907793125   12.163480112 XXXX 3      o*      O  -0.820
H2053   25.858382743   56.730012412   12.009209702 XXXX 3      h*      H   0.410
H2054   24.449522727   56.290379838   11.578273194 XXXX 3      h*      H   0.410
O1028   10.757061767   43.109098975    6.479431259 XXXX 3      o*      O  -0.820
H2055   10.048430331   42.430960850    6.531140282 XXXX 3      h*      H   0.410
H2056   11.082544339   42.835100407    5.557692634 XXXX 3      h*      H   0.410
O1029   30.276631339   87.302034347   23.945835833 XXXX 3      o*      O  -0.820
H2057   30.248811453   86.609547272   23.207679146 XXXX 3      h*      H   0.410
H2058   30.679178655   86.814615933   24.669885877 XXXX 3      h*      H   0.410
O1030   25.212271889   60.216299320    6.558370205 XXXX 3      o*      O  -0.820
H2059   25.787580671   60.066715456    5.776229680 XXXX 3      h*      H   0.410
H2060   24.999633939   59.410972508    7.094730963 XXXX 3      h*      H   0.410
O1031   10.131176779   33.301521959   21.612697360 XXXX 3      o*      O  -0.820
H2061    9.569856345   32.615181582   21.172821778 XXXX 3      h*      H   0.410
H2062    9.504598658   33.633039609   22.372944551 XXXX 3      h*      H   0.410
O1032    8.313235717   89.033605126   12.126222224 XXXX 3      o*      O  -0.820
H2063    9.031872861   88.608270320   12.580802825 XXXX 3      h*      H   0.410
H2064    8.239141034   88.262348921   11.496617730 XXXX 3      h*      H   0.410
O1033   27.137934548   33.874628730   20.743962357 XXXX 3      o*      O  -0.820
O1034   25.729316675   84.430019373   -0.192663936 XXXX 3      o*      O  -0.820
H2065   27.552941503   34.274496268   19.918974854 XXXX 3      h*      H   0.410
H2066   26.437192335   83.809646159   -0.554035430 XXXX 3      h*      H   0.410
H2067   26.380353405   33.423400926   20.335649963 XXXX 3      h*      H   0.410
H2068   24.943927002   83.772315763    0.000780040 XXXX 3      h*      H   0.410
O1035    2.997753320   46.762901593   10.912449153 XXXX 3      o*      O  -0.820
H2069    2.377792123   47.278704498   10.366304001 XXXX 3      h*      H   0.410
H2070    2.505809979   46.115842980   11.478484424 XXXX 3      h*      H   0.410
O1036    0.050669392   44.492704657    9.680372388 XXXX 3      o*      O  -0.820
H2071    0.067441816   43.539931815    9.641136546 XXXX 3      h*      H   0.410
H2072   -0.203834265   44.664301498    8.734186965 XXXX 3      h*      H   0.410
O1037   34.580779405   60.988385458   15.817793004 XXXX 3      o*      O  -0.820
H2073   34.346470759   60.116382416   15.468130045 XXXX 3      h*      H   0.410
H2074   34.701318073   60.769680842   16.800626031 XXXX 3      h*      H   0.410
O1038   34.924127406   77.780813684   19.391901552 XXXX 3      o*      O  -0.820
H2075   35.548667437   77.138769884   19.796485127 XXXX 3      h*      H   0.410
H2076   35.261018507   77.788326718   18.406164469 XXXX 3      h*      H   0.410
O1039   18.219092583   36.522491871   10.291585803 XXXX 3      o*      O  -0.820
H2077   18.947166896   35.887377362   10.559331586 XXXX 3      h*      H   0.410
H2078   17.589752229   35.899889803    9.801754410 XXXX 3      h*      H   0.410
O1040   19.670551567   45.019514323   14.448029175 XXXX 3      o*      O  -0.820
H2079   19.860520525   45.100809001   13.532921168 XXXX 3      h*      H   0.410
H2080   20.232103985   44.201686046   14.639094178 XXXX 3      h*      H   0.410
O1041    9.930626107   79.830755191    6.736914195 XXXX 3      o*      O  -0.820
H2081    8.995954304   79.606580516    6.713571223 XXXX 3      h*      H   0.410
H2082   10.335914238   78.937404183    6.492696807 XXXX 3      h*      H   0.410
O1042    8.633682393   45.400688226    7.461746872 XXXX 3      o*      O  -0.820
O1043   11.663312494   87.386173505    5.400140200 XXXX 3      o*      O  -0.820
H2083    9.207763159   44.677450568    7.876367435 XXXX 3      h*      H   0.410
H2084   10.808136626   87.324390963    5.871661825 XXXX 3      h*      H   0.410
H2085    7.748368875   45.353029687    7.991137684 XXXX 3      h*      H   0.410
H2086   12.035211233   86.480136558    5.656585146 XXXX 3      h*      H   0.410
O1044   18.770530029   64.819268395   18.650121943 XXXX 3      o*      O  -0.820
O1045   35.147709872   63.725687062   24.951341946 XXXX 3      o*      O  -0.820
H2087   18.682923596   63.873575056   18.335597138 XXXX 3      h*      H   0.410
H2088   35.191448645   63.978067155   23.995515698 XXXX 3      h*      H   0.410
H2089   18.770359266   64.672360660   19.665974202 XXXX 3      h*      H   0.410
H2090   35.817556039   64.336024963   25.306001896 XXXX 3      h*      H   0.410
O1046    7.651193605   85.970120155   27.412209391 XXXX 3      o*      O  -0.820
H2091    8.409775650   86.436264314   26.959954683 XXXX 3      h*      H   0.410
H2092    7.809464528   86.348963056   28.303331311 XXXX 3      h*      H   0.410
O1047    8.926615418   33.912937923   14.591344336 XXXX 3      o*      O  -0.820
H2093    9.289656121   33.555775850   13.758790659 XXXX 3      h*      H   0.410
H2094    9.486879750   34.676897577   14.750710444 XXXX 3      h*      H   0.410
O1048   25.116070066   91.368233328    0.523848801 XXXX 3      o*      O  -0.820
O1049    5.129100204   45.297074550   15.838580430 XXXX 3      o*      O  -0.820
H2095   24.651021546   90.539110917    0.803393797 XXXX 3      h*      H   0.410
H2096    5.166137234   44.326389203   15.830036860 XXXX 3      h*      H   0.410
H2097   25.854816243   91.414559400    1.186418660 XXXX 3      h*      H   0.410
H2098    4.311295608   45.377529031   16.435043876 XXXX 3      h*      H   0.410
O1050   17.061714442   44.004452543    9.226939719 XXXX 3      o*      O  -0.820
H2099   17.748975798   43.278542243    9.192972823 XXXX 3      h*      H   0.410
H2100   16.207450633   43.493562904    9.305599954 XXXX 3      h*      H   0.410
O1051   25.278649709   82.838950203   23.721270839 XXXX 3      o*      O  -0.820
O1052   19.367393163   39.311813000   10.084091418 XXXX 3      o*      O  -0.820
H2101   25.737481152   82.185417685   23.203670819 XXXX 3      h*      H   0.410
H2102   20.217183269   38.936985629   10.465944902 XXXX 3      h*      H   0.410
H2103   24.403592518   82.420213386   23.931730910 XXXX 3      h*      H   0.410
H2104   18.869414119   38.514644712    9.865956077 XXXX 3      h*      H   0.410
O1053   24.572271006   73.511828152    7.263990731 XXXX 3      o*      O  -0.820
H2105   24.857667026   73.161729677    8.119655046 XXXX 3      h*      H   0.410
H2106   24.251322407   72.647862641    6.824111447 XXXX 3      h*      H   0.410
O1054    0.917089705   70.795990788   11.432366406 XXXX 3      o*      O  -0.820
H2107    1.619663158   70.216951686   11.170899430 XXXX 3      h*      H   0.410
H2108    0.207486631   70.769474658   10.704426876 XXXX 3      h*      H   0.410
O1055   29.352843926   68.499232244   12.471368595 XXXX 3      o*      O  -0.820
H2109   29.567594071   68.544031392   11.544043942 XXXX 3      h*      H   0.410
H2110   30.300953559   68.264838837   12.734256847 XXXX 3      h*      H   0.410
O1056   23.218546959   65.626505218    3.819568427 XXXX 3      o*      O  -0.820
H2111   23.769582071   65.007912400    4.292846729 XXXX 3      h*      H   0.410
H2112   22.415823611   65.102464945    3.696818456 XXXX 3      h*      H   0.410
O1057   13.509718928   84.909620035    3.395862545 XXXX 3      o*      O  -0.820
H2113   14.045270916   84.390986538    2.848435376 XXXX 3      h*      H   0.410
H2114   12.941893077   84.221332043    3.635972544 XXXX 3      h*      H   0.410
O1058    6.688254410   61.754734529    3.582644644 XXXX 3      o*      O  -0.820
O1059   21.127872140   45.685246125    7.447873146 XXXX 3      o*      O  -0.820
H2115    5.950407575   61.148124363    3.532760770 XXXX 3      h*      H   0.410
H2116   20.275687655   45.916593520    6.911859806 XXXX 3      h*      H   0.410
H2117    7.185993717   61.441670583    2.805828688 XXXX 3      h*      H   0.410
H2118   21.359489737   44.774081134    7.136855246 XXXX 3      h*      H   0.410
O1060   22.464868103   72.294124012   19.921816168 XXXX 3      o*      O  -0.820
H2119   22.364613627   71.426093307   20.401010484 XXXX 3      h*      H   0.410
H2120   22.308165872   71.942153632   19.024541384 XXXX 3      h*      H   0.410
O1061   13.919457609   74.147964342   16.152286711 XXXX 3      o*      O  -0.820
H2121   14.191099158   74.766660801   16.841236200 XXXX 3      h*      H   0.410
H2122   13.725961780   73.322400516   16.620508651 XXXX 3      h*      H   0.410
O1062    9.769423116   89.115441239    8.491912451 XXXX 3      o*      O  -0.820
H2123    9.908112227   90.114426399    8.516555661 XXXX 3      h*      H   0.410
H2124   10.256033118   88.808649390    9.205659597 XXXX 3      h*      H   0.410
O1063   21.072438099   89.227138055   20.520311704 XXXX 3      o*      O  -0.820
H2125   21.528163910   90.118164128   20.406792085 XXXX 3      h*      H   0.410
H2126   20.344186729   89.384870170   19.703972466 XXXX 3      h*      H   0.410
O1064   32.305826046   71.549697063    3.279037644 XXXX 3      o*      O  -0.820
H2127   32.844322146   70.859926060    3.768987244 XXXX 3      h*      H   0.410
H2128   31.433672968   71.160551191    3.390991689 XXXX 3      h*      H   0.410
O1065   -3.199824319   71.544059841    6.275700319 XXXX 3      o*      O  -0.820
H2129   -3.290839844   70.690391770    6.679762167 XXXX 3      h*      H   0.410
H2130   -4.026238999   71.468114442    5.674966138 XXXX 3      h*      H   0.410
O1066    3.634752373   49.733437100    1.885878644 XXXX 3      o*      O  -0.820
O1067   23.623008852   47.442124741   26.731067629 XXXX 3      o*      O  -0.820
O1068   26.183109316   68.325227684   20.609940134 XXXX 3      o*      O  -0.820
O1069    4.613939801   80.589999631   12.900750038 XXXX 3      o*      O  -0.820
H2131    4.605701262   49.981000156    1.904478403 XXXX 3      h*      H   0.410
H2132   24.379005449   46.783856944   26.601060047 XXXX 3      h*      H   0.410
H2133   25.846120446   67.430965316   20.358428632 XXXX 3      h*      H   0.410
H2134    5.086217093   80.469966779   13.762326591 XXXX 3      h*      H   0.410
H2135    3.396832583   50.079431346    0.972736520 XXXX 3      h*      H   0.410
H2136   22.822197881   46.847402201   26.681393748 XXXX 3      h*      H   0.410
H2137   25.442304893   68.931790717   20.284290328 XXXX 3      h*      H   0.410
H2138    3.766033389   80.051780563   13.048977380 XXXX 3      h*      H   0.410
O1070   28.930471349   58.196559529   18.935940719 XXXX 3      o*      O  -0.820
H2139   28.836719081   58.358559607   18.015422796 XXXX 3      h*      H   0.410
H2140   28.828631651   57.200941378   18.883950110 XXXX 3      h*      H   0.410
O1071    4.169734099   93.359349684   12.188181938 XXXX 3      o*      O  -0.820
O1072   19.552437968   78.964933593    5.058060803 XXXX 3      o*      O  -0.820
O1073    2.373765819   89.190418312    9.030554473 XXXX 3      o*      O  -0.820
O1074   16.625957551   67.453091000    5.149227218 XXXX 3      o*      O  -0.820
O1075   -2.092216815   68.460589432   33.871128963 XXXX 3      o*      O  -0.820
H2141    4.417583663   92.379915782   12.342137986 XXXX 3      h*      H   0.410
H2142   20.453564264   78.570758126    5.137622874 XXXX 3      h*      H   0.410
H2143    2.152403165   88.512848164    8.358775077 XXXX 3      h*      H   0.410
H2144   15.699526391   67.421613500    5.492156498 XXXX 3      h*      H   0.410
H2145   -2.603934098   67.619067803   33.984380447 XXXX 3      h*      H   0.410
H2146    4.290399110   93.605130294   13.158415180 XXXX 3      h*      H   0.410
H2147   19.085625527   78.174651148    5.279621754 XXXX 3      h*      H   0.410
H2148    2.350019604   88.595141743    9.809092249 XXXX 3      h*      H   0.410
H2149   16.618002017   66.740582798    4.424343368 XXXX 3      h*      H   0.410
H2150   -2.557431493   68.833718685   33.101479730 XXXX 3      h*      H   0.410
O1076    9.304413158   50.954357561    8.541777635 XXXX 3      o*      O  -0.820
H2151    9.313365328   51.212302546    7.589858771 XXXX 3      h*      H   0.410
H2152    9.280026966   50.007361104    8.439085225 XXXX 3      h*      H   0.410
O1077    6.859279639   86.041574433    4.077662075 XXXX 3      o*      O  -0.820
O1078   15.237571063   43.016635130   17.595113859 XXXX 3      o*      O  -0.820
H2153    7.008277647   85.794008205    5.030884104 XXXX 3      h*      H   0.410
H2154   16.147837071   42.644319051   17.798521556 XXXX 3      h*      H   0.410
H2155    6.193000676   86.743946502    4.307280304 XXXX 3      h*      H   0.410
H2156   14.730958839   42.280125473   17.952906089 XXXX 3      h*      H   0.410
O1079   25.173835058   88.853201279   20.176724273 XXXX 3      o*      O  -0.820
H2157   24.519760125   88.680937304   19.429450109 XXXX 3      h*      H   0.410
H2158   25.791025206   89.439883295   19.656394429 XXXX 3      h*      H   0.410
O1080   28.209103086   64.076559052   26.896089067 XXXX 3      o*      O  -0.820
O1081   10.576738559   53.769706407    3.030657262 XXXX 3      o*      O  -0.820
H2159   27.278501704   64.356731639   26.751279134 XXXX 3      h*      H   0.410
H2160   10.661613839   52.802643767    3.082156889 XXXX 3      h*      H   0.410
H2161   28.211920976   63.244867822   26.400061936 XXXX 3      h*      H   0.410
H2162   11.517011576   53.962701917    2.891525016 XXXX 3      h*      H   0.410
O1082    2.670964007   79.145801915   15.409942111 XXXX 3      o*      O  -0.820
O1083   15.593523867   54.472198025   19.581608482 XXXX 3      o*      O  -0.820
O1084    1.641534200   79.384902400   31.457284602 XXXX 3      o*      O  -0.820
O1085   21.735368770   59.682186394   24.028568736 XXXX 3      o*      O  -0.820
O1086   15.136012694   54.879741671   23.042750960 XXXX 3      o*      O  -0.820
O1087   10.437566809   36.678508357   22.586620705 XXXX 3      o*      O  -0.820
H2163    2.761860376   78.261734403   15.798969926 XXXX 3      h*      H   0.410
H2164   15.627226188   53.620669610   20.096644179 XXXX 3      h*      H   0.410
H2165    1.768105734   78.814685175   30.667329819 XXXX 3      h*      H   0.410
H2166   21.684538112   59.102219578   24.819173552 XXXX 3      h*      H   0.410
H2167   14.247840959   54.708017719   22.678957719 XXXX 3      h*      H   0.410
H2168   10.980459639   37.445808793   22.861503802 XXXX 3      h*      H   0.410
H2169    3.284690156   79.551397705   16.043233845 XXXX 3      h*      H   0.410
H2170   16.432978267   54.783212463   19.904834448 XXXX 3      h*      H   0.410
H2171    2.560732371   79.388696075   31.800682639 XXXX 3      h*      H   0.410
H2172   20.902581790   60.233316239   24.139522420 XXXX 3      h*      H   0.410
H2173   15.260267135   54.037139210   23.523716954 XXXX 3      h*      H   0.410
H2174   10.148961813   36.384035389   23.447602178 XXXX 3      h*      H   0.410
O1088   12.091207285   91.273471229   28.060654468 XXXX 3      o*      O  -0.820
H2175   11.820224510   90.517176953   28.619501694 XXXX 3      h*      H   0.410
H2176   12.487811899   90.779759591   27.282505268 XXXX 3      h*      H   0.410
O1089   23.268978407   37.709096746   25.699812545 XXXX 3      o*      O  -0.820
O1090    3.629961711   84.280532875    5.770677533 XXXX 3      o*      O  -0.820
H2177   24.129058099   37.361275970   25.915112436 XXXX 3      h*      H   0.410
H2178    4.590661801   84.140514307    5.998637157 XXXX 3      h*      H   0.410
H2179   23.158387263   37.046072659   24.925200052 XXXX 3      h*      H   0.410
H2180    3.333834520   83.488985095    5.255173788 XXXX 3      h*      H   0.410
O1091   11.702084875   50.551596801   14.967934130 XXXX 3      o*      O  -0.820
O1092   14.645732455   54.263821560   10.236846273 XXXX 3      o*      O  -0.820
O1093   12.692098893   64.920317725    4.589255537 XXXX 3      o*      O  -0.820
O1094    8.224424982   87.248701609   29.800956737 XXXX 3      o*      O  -0.820
O1095   25.588160204   80.593789253   22.116384871 XXXX 3      o*      O  -0.820
O1096    8.814643693   84.652199531    2.686266870 XXXX 3      o*      O  -0.820
O1097    9.869951267   38.803724294   26.204842031 XXXX 3      o*      O  -0.820
H2181   11.511429127   51.319688991   15.530002455 XXXX 3      h*      H   0.410
H2182   13.757541405   53.887082908   10.087822963 XXXX 3      h*      H   0.410
H2183   12.935376372   63.939323203    4.826675650 XXXX 3      h*      H   0.410
H2184    7.919134186   87.715569947   30.665085880 XXXX 3      h*      H   0.410
H2185   26.072952124   79.834278891   22.529052874 XXXX 3      h*      H   0.410
H2186    7.904621372   84.890263505    3.014457567 XXXX 3      h*      H   0.410
H2187    8.931858249   38.609855155   26.037893734 XXXX 3      h*      H   0.410
H2188   11.303704649   49.837957195   15.521765324 XXXX 3      h*      H   0.410
H2189   14.834389323   53.750310952   11.056312553 XXXX 3      h*      H   0.410
H2190   11.751019489   64.749485559    4.276975361 XXXX 3      h*      H   0.410
H2191    8.726489238   86.556731216   30.251121583 XXXX 3      h*      H   0.410
H2192   25.632561032   80.282685539   21.176706803 XXXX 3      h*      H   0.410
H2193    8.724237297   84.271213381    1.780072688 XXXX 3      h*      H   0.410
H2194    9.742916651   38.659301713   27.157047138 XXXX 3      h*      H   0.410
O1098   16.283584991   62.205974479    5.720258405 XXXX 3      o*      O  -0.820
O1099    6.464422090   73.361656080   12.401228570 XXXX 3      o*      O  -0.820
O1100   22.283219956   73.206396680    2.041739364 XXXX 3      o*      O  -0.820
O1101   25.894070182   91.786005935   10.794035775 XXXX 3      o*      O  -0.820
O1102   14.199963874   41.828982477   28.645682714 XXXX 3      o*      O  -0.820
O1103   12.188826865   54.709843627   12.883665437 XXXX 3      o*      O  -0.820
O1104   10.976181534   84.000440002   17.959998497 XXXX 3      o*      O  -0.820
O1105    1.889368831   45.795836896   28.325104840 XXXX 3      o*      O  -0.820
O1106   11.235097087   85.029128628   11.657308876 XXXX 3      o*      O  -0.820
O1107   29.647255478   89.277193719   26.494178100 XXXX 3      o*      O  -0.820
O1108   15.979258226   85.510451506   26.581213304 XXXX 3      o*      O  -0.820
O1109   16.316523857   89.590897311   30.396501561 XXXX 3      o*      O  -0.820
O1110   14.088059626   60.940067275    3.152150236 XXXX 3      o*      O  -0.820
H2195   16.672523403   61.436257983    5.238542544 XXXX 3      h*      H   0.410
H2196    7.158985473   72.948703907   11.850768574 XXXX 3      h*      H   0.410
H2197   23.173636315   73.054065949    2.412743688 XXXX 3      h*      H   0.410
H2198   25.593978878   90.885691754   11.139550287 XXXX 3      h*      H   0.410
H2199   15.007742178   41.189559210   28.495934140 XXXX 3      h*      H   0.410
H2200   11.196740288   54.775966783   12.869722253 XXXX 3      h*      H   0.410
H2201   10.288160161   83.389268124   18.308708123 XXXX 3      h*      H   0.410
H2202    2.406510752   46.159590675   29.145666486 XXXX 3      h*      H   0.410
H2203   11.009378555   84.206918277   11.240061634 XXXX 3      h*      H   0.410
H2204   29.917762692   88.432311634   26.885475364 XXXX 3      h*      H   0.410
H2205   16.512479779   86.268675613   27.043803064 XXXX 3      h*      H   0.410
H2206   16.806993598   88.768754622   30.395146951 XXXX 3      h*      H   0.410
H2207   14.522041524   60.080907435    3.322410137 XXXX 3      h*      H   0.410
H2208   16.285163742   61.822405814    6.594457341 XXXX 3      h*      H   0.410
H2209    6.584614639   72.927692929   13.238766290 XXXX 3      h*      H   0.410
H2210   21.969304237   72.312473701    1.887683540 XXXX 3      h*      H   0.410
H2211   26.634361492   91.482141635   10.148846912 XXXX 3      h*      H   0.410
H2212   13.573859905   41.354673133   28.120380288 XXXX 3      h*      H   0.410
H2213   12.431898278   53.830141120   12.552029316 XXXX 3      h*      H   0.410
H2214   11.061320218   83.562555640   17.084234859 XXXX 3      h*      H   0.410
H2215    1.548653030   44.990090667   28.819946814 XXXX 3      h*      H   0.410
H2216   12.191596384   84.914846035   11.572248544 XXXX 3      h*      H   0.410
H2217   28.785477741   89.051996324   26.134430793 XXXX 3      h*      H   0.410
H2218   15.552322914   85.288014147   27.472713019 XXXX 3      h*      H   0.410
H2219   16.901428636   90.123162611   29.781262972 XXXX 3      h*      H   0.410
H2220   14.080678327   61.266991200    4.078612644 XXXX 3      h*      H   0.410
O1111    1.885646873   61.831983834   -1.254693754 XXXX 3      o*      O  -0.820
H2221    2.162471138   62.736266328   -0.995042012 XXXX 3      h*      H   0.410
H2222    0.964454154   61.952359183   -1.444033836 XXXX 3      h*      H   0.410
O1112   17.319563478   73.199126979   22.202378777 XXXX 3      o*      O  -0.820
H2223   17.244985581   74.120608805   22.614186110 XXXX 3      h*      H   0.410
H2224   18.277597723   73.017340939   22.220204023 XXXX 3      h*      H   0.410
O1113    3.883045968   71.334724664    6.501437105 XXXX 3      o*      O  -0.820
O1114    6.370175283   89.220363396    8.342096069 XXXX 3      o*      O  -0.820
O1115    2.941670335   34.676246142    5.388445012 XXXX 3      o*      O  -0.820
O1116   24.467548625   69.156248646   30.663264911 XXXX 3      o*      O  -0.820
O1117   -2.490796372   83.326802184   16.465218966 XXXX 3      o*      O  -0.820
O1118    4.545822008   88.586882814   -1.158479632 XXXX 3      o*      O  -0.820
O1119   14.375434314   39.545179606   12.148274575 XXXX 3      o*      O  -0.820
H2225    3.929193972   70.609192636    5.847890558 XXXX 3      h*      H   0.410
H2226    6.717766051   88.408746247    8.639176159 XXXX 3      h*      H   0.410
H2227    3.521383434   33.926418484    4.962467069 XXXX 3      h*      H   0.410
H2228   24.801349841   68.297520441   30.410757930 XXXX 3      h*      H   0.410
H2229   -2.084045464   82.449160790   16.218439347 XXXX 3      h*      H   0.410
H2230    4.802299198   89.411335192   -0.685498903 XXXX 3      h*      H   0.410
H2231   13.442652090   39.800889847   11.832959811 XXXX 3      h*      H   0.410
H2232    4.743883557   71.166075239    6.966146531 XXXX 3      h*      H   0.410
H2233    5.705147388   88.883494502    7.689192316 XXXX 3      h*      H   0.410
H2234    2.766821614   35.183129624    4.512301491 XXXX 3      h*      H   0.410
H2235   24.329223502   69.593998350   29.781242197 XXXX 3      h*      H   0.410
H2236   -2.927821681   83.071038664   17.343333858 XXXX 3      h*      H   0.410
H2237    3.601781849   88.752176598   -1.391024466 XXXX 3      h*      H   0.410
H2238   14.304614677   39.880412038   13.064119882 XXXX 3      h*      H   0.410
O1120    1.300945595   58.416805833    8.586564705 XXXX 3      o*      O  -0.820
O1121   23.990948522   67.450082075    8.859295121 XXXX 3      o*      O  -0.820
H2239    1.696406545   58.568074969    7.654576143 XXXX 3      h*      H   0.410
H2240   23.350989260   66.937610781    9.450061762 XXXX 3      h*      H   0.410
H2241    1.590459090   59.238805515    9.026585638 XXXX 3      h*      H   0.410
H2242   23.889519670   66.944196497    7.986272679 XXXX 3      h*      H   0.410
O1122   26.719090625   49.782422786   31.556831623 XXXX 3      o*      O  -0.820
O1123    9.333662275   50.013777399   27.843239894 XXXX 3      o*      O  -0.820
O1124    3.727927349   64.508498315   20.773590154 XXXX 3      o*      O  -0.820
H2243   26.950919551   50.248130573   30.755959518 XXXX 3      h*      H   0.410
H2244    8.706916686   49.232689697   27.938132100 XXXX 3      h*      H   0.410
H2245    4.391211495   64.421426002   21.471379259 XXXX 3      h*      H   0.410
H2246   26.903363058   48.870204296   31.377707012 XXXX 3      h*      H   0.410
H2247    9.873059311   49.739389329   28.631975069 XXXX 3      h*      H   0.410
H2248    4.039888051   63.957293879   19.982799187 XXXX 3      h*      H   0.410
O1125   22.308515260   88.240123582   26.816553210 XXXX 3      o*      O  -0.820
H2249   22.950050714   87.716551048   26.308161241 XXXX 3      h*      H   0.410
H2250   22.171520193   87.713776472   27.592229493 XXXX 3      h*      H   0.410
O1126   29.700821079   63.001705014   29.092279118 XXXX 3      o*      O  -0.820
H2251   29.762259411   62.340493323   28.306564262 XXXX 3      h*      H   0.410
H2252   29.144615947   63.594236154   28.524065041 XXXX 3      h*      H   0.410
O1127    4.097055764   76.320752429    3.547652875 XXXX 3      o*      O  -0.820
H2253    3.991557730   76.799278706    2.726591182 XXXX 3      h*      H   0.410
H2254    3.330595327   75.735139547    3.557308836 XXXX 3      h*      H   0.410
O1128    3.488457226   85.500514611   12.992379195 XXXX 3      o*      O  -0.820
H2255    2.949124236   84.711894916   12.757330161 XXXX 3      h*      H   0.410
H2256    3.244392957   85.472730124   13.977176694 XXXX 3      h*      H   0.410
O1129    8.437611936   79.054539015   -1.728965781 XXXX 3      o*      O  -0.820
H2257    8.282133448   79.211027950   -2.706971722 XXXX 3      h*      H   0.410
H2258    8.120517658   78.046709505   -1.723523925 XXXX 3      h*      H   0.410
O1130   22.531095235   56.624019249    5.471224501 XXXX 3      o*      O  -0.820
H2259   21.988619617   57.190812049    6.106076619 XXXX 3      h*      H   0.410
H2260   21.780539255   56.281221480    4.993047472 XXXX 3      h*      H   0.410
O1131    3.790622587   70.362379626   21.338545756 XXXX 3      o*      O  -0.820
H2261    4.045303849   69.423995070   21.568795143 XXXX 3      h*      H   0.410
H2262    2.835580323   70.186000145   21.019361357 XXXX 3      h*      H   0.410
O1132   22.772835654   79.686268863   -0.728030123 XXXX 3      o*      O  -0.820
H2263   23.024970846   78.779301491   -1.010539709 XXXX 3      h*      H   0.410
H2264   23.257147846   79.756401194    0.056246415 XXXX 3      h*      H   0.410
O1133   25.314583307   81.203805426   11.900924147 XXXX 3      o*      O  -0.820
H2265   25.219998151   81.790977643   12.653887823 XXXX 3      h*      H   0.410
H2266   26.300807944   81.054965518   11.978803547 XXXX 3      h*      H   0.410
O1134   15.067989586   82.326260109   11.727262207 XXXX 3      o*      O  -0.820
H2267   14.565317207   81.530574610   11.930348102 XXXX 3      h*      H   0.410
H2268   15.668964042   81.895683827   11.058625883 XXXX 3      h*      H   0.410
O1135   26.208976163   83.575119739   26.569696969 XXXX 3      o*      O  -0.820
H2269   25.536592179   83.418986327   25.872824958 XXXX 3      h*      H   0.410
H2270   25.890170996   82.960733192   27.250412032 XXXX 3      h*      H   0.410
O1136   24.477089630   86.171758425   -3.008789207 XXXX 3      o*      O  -0.820
H2271   25.317567090   85.828403077   -3.394172290 XXXX 3      h*      H   0.410
H2272   24.558303854   85.840953261   -2.039395089 XXXX 3      h*      H   0.410
O1137   18.070488959   83.401525457   17.699944959 XXXX 3      o*      O  -0.820
H2273   17.727022106   82.857204541   18.430583452 XXXX 3      h*      H   0.410
H2274   18.494327451   82.777061316   17.129833761 XXXX 3      h*      H   0.410
O1138    5.491914389   88.255147221    4.454402015 XXXX 3      o*      O  -0.820
H2275    4.927977177   89.076462447    4.346473039 XXXX 3      h*      H   0.410
H2276    5.032702930   87.911420661    5.271134508 XXXX 3      h*      H   0.410
O1139   13.509760829   83.860861970   13.901949043 XXXX 3      o*      O  -0.820
H2277   14.213967080   84.283923717   14.450380981 XXXX 3      h*      H   0.410
H2278   14.035549943   83.617143378   13.098382123 XXXX 3      h*      H   0.410
O1140   15.975669481   72.531861745   13.963833737 XXXX 3      o*      O  -0.820
H2279   15.214996650   71.986371467   14.160103355 XXXX 3      h*      H   0.410
H2280   16.614566809   71.970167790   13.438900171 XXXX 3      h*      H   0.410
O1141   -2.749026796   78.126165217   17.111543168 XXXX 3      o*      O  -0.820
H2281   -3.498169195   78.195552526   16.387129785 XXXX 3      h*      H   0.410
H2282   -2.615480621   77.145267789   16.975448272 XXXX 3      h*      H   0.410
O1142   20.598007663   52.862350558    8.361773033 XXXX 3      o*      O  -0.820
H2283   19.781564761   52.784823207    8.960593428 XXXX 3      h*      H   0.410
H2284   21.187924741   52.271972862    8.909419921 XXXX 3      h*      H   0.410
O1143    9.330818711   83.532349199   13.822841365 XXXX 3      o*      O  -0.820
H2285    8.360371056   83.566794372   13.878769367 XXXX 3      h*      H   0.410
H2286    9.396149409   83.251411789   12.892471884 XXXX 3      h*      H   0.410
O1144   22.299730709   91.594918811   25.635045895 XXXX 3      o*      O  -0.820
H2287   21.614251456   91.357523818   26.233987988 XXXX 3      h*      H   0.410
H2288   22.332042136   90.725231528   25.264424651 XXXX 3      h*      H   0.410
O1145   28.801174937   56.806557643   14.865394972 XXXX 3      o*      O  -0.820
H2289   28.125136633   56.098826840   14.961566985 XXXX 3      h*      H   0.410
H2290   29.171248123   56.706650090   13.950160834 XXXX 3      h*      H   0.410
O1146    6.549557094   86.205406732    7.265104097 XXXX 3      o*      O  -0.820
H2291    5.651125429   86.482008753    6.979016715 XXXX 3      h*      H   0.410
H2292    6.488095942   85.225979347    7.061985131 XXXX 3      h*      H   0.410
O1147    5.309803002   75.870243753   28.827135006 XXXX 3      o*      O  -0.820
H2293    5.244222689   74.917701766   28.499886474 XXXX 3      h*      H   0.410
H2294    5.712317788   76.299747194   28.032794799 XXXX 3      h*      H   0.410
O1148   15.013953150   71.308562319   24.274432136 XXXX 3      o*      O  -0.820
O1149   10.319680720   81.772789979   21.256430577 XXXX 3      o*      O  -0.820
O1150   12.616499930   86.475760788   26.684587137 XXXX 3      o*      O  -0.820
O1151    6.676711413   82.428914198    2.637811202 XXXX 3      o*      O  -0.820
H2295   15.458370291   71.619141308   25.117119365 XXXX 3      h*      H   0.410
H2296    9.431213006   81.480548039   21.041645551 XXXX 3      h*      H   0.410
H2297   12.174034205   86.123829696   27.482353919 XXXX 3      h*      H   0.410
H2298    7.248032037   81.942792055    3.260284216 XXXX 3      h*      H   0.410
H2299   15.888081902   70.994775072   23.871276329 XXXX 3      h*      H   0.410
H2300   10.340455486   82.588593922   20.736633048 XXXX 3      h*      H   0.410
H2301   12.577019050   85.649368522   26.136347329 XXXX 3      h*      H   0.410
H2302    6.779044851   81.839457437    1.886764720 XXXX 3      h*      H   0.410
O1152   22.834207174   81.916168442    4.771341401 XXXX 3      o*      O  -0.820
O1153   11.614190689   73.907766098    7.380633466 XXXX 3      o*      O  -0.820
H2303   23.554584618   82.595489424    4.508802810 XXXX 3      h*      H   0.410
H2304   12.501299927   73.649809974    6.976977054 XXXX 3      h*      H   0.410
H2305   23.425051752   81.161118117    5.073977312 XXXX 3      h*      H   0.410
H2306   11.245818700   73.014495063    7.474945241 XXXX 3      h*      H   0.410
O1154    6.211640048   56.481560185    3.142757300 XXXX 3      o*      O  -0.820
H2307    6.393395650   56.813096135    2.220400102 XXXX 3      h*      H   0.410
H2308    7.127449957   56.210752393    3.312308464 XXXX 3      h*      H   0.410
O1155    1.099961752   42.286734611    5.624368158 XXXX 3      o*      O  -0.820
H2309    1.858217580   42.552394298    6.214792130 XXXX 3      h*      H   0.410
H2310    1.738466519   41.983844590    4.899112006 XXXX 3      h*      H   0.410
O1156   15.768372778   50.946278223    5.501545841 XXXX 3      o*      O  -0.820
H2311   16.433289599   50.245840917    5.468846213 XXXX 3      h*      H   0.410
H2312   15.315876722   50.849332651    4.625249945 XXXX 3      h*      H   0.410
O1157    9.418996255   48.408031553   19.856338517 XXXX 3      o*      O  -0.820
H2313    9.005918015   48.187587225   20.692953227 XXXX 3      h*      H   0.410
H2314    8.647662773   48.202347201   19.304535529 XXXX 3      h*      H   0.410
O1158   29.908393257   33.376431086    0.558424206 XXXX 3      o*      O  -0.820
H2315   29.301516988   32.574908174    0.405301348 XXXX 3      h*      H   0.410
H2316   29.747023763   33.576785806    1.520723184 XXXX 3      h*      H   0.410
O1159   18.356598251   60.278202542    9.983868642 XXXX 3      o*      O  -0.820
H2317   17.754738465   59.644214935    9.523421190 XXXX 3      h*      H   0.410
H2318   18.443170906   59.737875559   10.784462305 XXXX 3      h*      H   0.410
O1160   12.444434493   58.948553327   24.662209072 XXXX 3      o*      O  -0.820
O1161    8.227525053   52.297135209   -0.139208285 XXXX 3      o*      O  -0.820
H2319   13.039444191   58.395637139   24.006990376 XXXX 3      h*      H   0.410
H2320    8.290815961   52.439320358   -1.123727027 XXXX 3      h*      H   0.410
H2321   12.352652702   58.348917296   25.420153325 XXXX 3      h*      H   0.410
H2322    9.086413416   51.786540180    0.035313315 XXXX 3      h*      H   0.410
O1162   31.334266467   65.281565584   10.945918768 XXXX 3      o*      O  -0.820
H2323   31.352953983   64.430767929   11.405981115 XXXX 3      h*      H   0.410
H2324   31.202974801   64.942406165    9.978603244 XXXX 3      h*      H   0.410
O1163   16.152833916   70.697859810    4.398427576 XXXX 3      o*      O  -0.820
H2325   15.769222158   69.889628585    3.989367143 XXXX 3      h*      H   0.410
H2326   15.348900225   71.297010257    4.314135700 XXXX 3      h*      H   0.410
O1164   22.763129282   72.632157415   23.338079546 XXXX 3      o*      O  -0.820
H2327   22.894174915   71.779271832   23.887275315 XXXX 3      h*      H   0.410
H2328   22.481480276   73.263652776   23.996076224 XXXX 3      h*      H   0.410
O1165   16.554943748   56.670013822   31.357299706 XXXX 3      o*      O  -0.820
H2329   17.250083820   56.333858578   32.008087660 XXXX 3      h*      H   0.410
H2330   16.877895854   56.241505330   30.512439898 XXXX 3      h*      H   0.410
O1166   11.679439793   42.992338158   12.267299257 XXXX 3      o*      O  -0.820
H2331   11.335886623   42.123856336   12.382976892 XXXX 3      h*      H   0.410
H2332   12.661199420   42.960167458   12.504840891 XXXX 3      h*      H   0.410
O1167    6.926497822   40.673982473    8.298551115 XXXX 3      o*      O  -0.820
H2333    6.247748144   40.481890237    9.009934837 XXXX 3      h*      H   0.410
H2334    7.096817165   39.732278779    7.969493111 XXXX 3      h*      H   0.410
O1168   25.254589039   55.955852103   25.373733848 XXXX 3      o*      O  -0.820
H2335   24.785865136   55.197123659   25.891460357 XXXX 3      h*      H   0.410
H2336   24.905436855   55.839112246   24.411028044 XXXX 3      h*      H   0.410
O1169   26.359836322   41.384673516   -1.354244460 XXXX 3      o*      O  -0.820
H2337   27.036268919   40.658047331   -1.185728695 XXXX 3      h*      H   0.410
H2338   25.709386033   40.967011485   -0.755694206 XXXX 3      h*      H   0.410
O1170   18.135577960   40.592367757   33.702718960 XXXX 3      o*      O  -0.820
O1171   25.030299063   50.529198964    4.292736456 XXXX 3      o*      O  -0.820
H2339   18.651329049   40.986829006   34.385672114 XXXX 3      h*      H   0.410
H2340   25.118302838   49.632879085    4.622973929 XXXX 3      h*      H   0.410
H2341   18.096864335   39.651773428   33.926971248 XXXX 3      h*      H   0.410
H2342   24.722399465   50.342448154    3.331267387 XXXX 3      h*      H   0.410
O1172    3.662401460   53.272336041   19.182505753 XXXX 3      o*      O  -0.820
H2343    3.965709227   52.372570298   19.509209318 XXXX 3      h*      H   0.410
H2344    3.783999267   53.140036723   18.221152273 XXXX 3      h*      H   0.410
O1173   18.459469117   49.004236229    1.843769443 XXXX 3      o*      O  -0.820
H2345   17.905937272   48.251152158    1.510597037 XXXX 3      h*      H   0.410
H2346   19.379910356   48.820351610    1.562664036 XXXX 3      h*      H   0.410
O1174   10.446114538   52.209091547   23.334754137 XXXX 3      o*      O  -0.820
H2347   11.312124235   51.747074982   23.356787018 XXXX 3      h*      H   0.410
H2348    9.984858716   51.626217486   22.701659009 XXXX 3      h*      H   0.410
O1175   29.404505197   69.770091041   28.362761884 XXXX 3      o*      O  -0.820
H2349   28.443348103   69.592355409   28.122998420 XXXX 3      h*      H   0.410
H2350   29.838982249   69.531168877   27.481241304 XXXX 3      h*      H   0.410
O1176   31.816301290   47.510109279   16.253388049 XXXX 3      o*      O  -0.820
H2351   30.797903746   47.501897726   16.402632650 XXXX 3      h*      H   0.410
H2352   32.005938798   46.595859110   16.574980382 XXXX 3      h*      H   0.410
O1177   17.339559248   48.723619061   26.596362230 XXXX 3      o*      O  -0.820
H2353   16.944844975   47.937636718   26.161756058 XXXX 3      h*      H   0.410
H2354   17.321387873   48.518703043   27.558107837 XXXX 3      h*      H   0.410
O1178   -0.181111840   91.548787503   25.042524999 XXXX 3      o*      O  -0.820
H2355   -0.103111141   90.681440079   25.479204923 XXXX 3      h*      H   0.410
H2356   -1.121207271   91.443314105   24.712908408 XXXX 3      h*      H   0.410
O1179    2.314648240   88.596042605    2.436828509 XXXX 3      o*      O  -0.820
H2357    2.911470627   89.189981668    3.054914793 XXXX 3      h*      H   0.410
H2358    2.785104876   87.834561025    2.149780446 XXXX 3      h*      H   0.410
O1180    6.397456739   69.712906383   -0.348436607 XXXX 3      o*      O  -0.820
H2359    7.278994858   69.475556215   -0.556096163 XXXX 3      h*      H   0.410
H2360    5.819795426   69.183423261   -0.902127850 XXXX 3      h*      H   0.410
O1181   21.682406449   86.826328106   -1.352673616 XXXX 3      o*      O  -0.820
H2361   20.729005584   86.802448202   -1.382850719 XXXX 3      h*      H   0.410
H2362   21.836733602   85.886486932   -1.411041745 XXXX 3      h*      H   0.410
O1182   29.902841784   32.996286211   21.103262946 XXXX 3      o*      O  -0.820
H2363   29.988790466   33.355242844   22.046681709 XXXX 3      h*      H   0.410
H2364   29.314973065   32.174775852   21.374937273 XXXX 3      h*      H   0.410
O1183   12.522704550   45.294225642   -0.368727295 XXXX 3      o*      O  -0.820
H2365   13.308012340   44.809852196   -0.194010461 XXXX 3      h*      H   0.410
H2366   11.916436597   44.638685019    0.040505600 XXXX 3      h*      H   0.410
O1184    7.979114671   66.285424656    5.265316193 XXXX 3      o*      O  -0.820
H2367    7.392429203   66.909516669    5.808215203 XXXX 3      h*      H   0.410
H2368    7.293221783   65.679188120    4.902581457 XXXX 3      h*      H   0.410
O1185   12.748594226   40.002989275    9.877390303 XXXX 3      o*      O  -0.820
H2369   12.451979189   39.164415709   10.283804190 XXXX 3      h*      H   0.410
H2370   12.024422246   40.675949952   10.087990896 XXXX 3      h*      H   0.410
O1186   26.540217981   66.953766026   17.460056172 XXXX 3      o*      O  -0.820
H2371   26.958224961   66.636082392   18.254611545 XXXX 3      h*      H   0.410
H2372   26.913028914   66.225106511   16.917235440 XXXX 3      h*      H   0.410
O1187   11.175181466   35.464968469   28.328886788 XXXX 3      o*      O  -0.820
H2373   10.322518680   35.944712904   28.300923119 XXXX 3      h*      H   0.410
H2374   11.773089183   36.207657299   28.057343369 XXXX 3      h*      H   0.410
O1188    3.643997193   64.005301994    8.618127064 XXXX 3      o*      O  -0.820
O1189   13.492121354   48.558039691   -0.001843672 XXXX 3      o*      O  -0.820
H2375    3.164454080   64.375520115    7.877373987 XXXX 3      h*      H   0.410
H2376   12.741971027   48.406591624   -0.635341775 XXXX 3      h*      H   0.410
H2377    3.741896630   62.992218318    8.441245552 XXXX 3      h*      H   0.410
H2378   13.371809940   47.827259807    0.644832814 XXXX 3      h*      H   0.410
O1190   11.600231135   60.594824508   19.781049442 XXXX 3      o*      O  -0.820
O1191   23.289549258   76.120344106    9.925396735 XXXX 3      o*      O  -0.820
H2379   12.071506072   59.785457929   19.403883478 XXXX 3      h*      H   0.410
H2380   22.813477380   76.092633852    9.084548316 XXXX 3      h*      H   0.410
H2381   11.115137376   60.963746590   19.033876754 XXXX 3      h*      H   0.410
H2382   24.152578623   76.532906948    9.714061812 XXXX 3      h*      H   0.410
O1192   13.799725834   50.670189600    2.379232839 XXXX 3      o*      O  -0.820
O1193   14.296109107   61.724314841   11.316277907 XXXX 3      o*      O  -0.820
O1194   11.443143712   74.725416601    4.034076473 XXXX 3      o*      O  -0.820
H2383   13.718790846   49.984321580    1.645657241 XXXX 3      h*      H   0.410
H2384   14.218627832   61.875419958   12.326351069 XXXX 3      h*      H   0.410
H2385   11.268121428   74.786373898    4.999929935 XXXX 3      h*      H   0.410
H2386   13.417311775   50.161362188    3.093297920 XXXX 3      h*      H   0.410
H2387   14.037886416   60.802506362   11.228716322 XXXX 3      h*      H   0.410
H2388   10.858281506   74.028511655    3.772206004 XXXX 3      h*      H   0.410
O1195   -3.053566040   83.291741090   21.516877912 XXXX 3      o*      O  -0.820
O1196   27.143330931   89.362575075   25.109573246 XXXX 3      o*      O  -0.820
H2389   -3.269894565   82.471873315   21.931695242 XXXX 3      h*      H   0.410
H2390   27.541984006   90.228178824   24.742016087 XXXX 3      h*      H   0.410
H2391   -3.601414754   83.069705192   20.717988169 XXXX 3      h*      H   0.410
H2392   26.875890574   89.117556026   24.185460790 XXXX 3      h*      H   0.410
O1197   14.581182624   88.327431705   17.473950497 XXXX 3      o*      O  -0.820
O1198    7.551038875   56.304576766    9.907131552 XXXX 3      o*      O  -0.820
O1199    2.141181176   85.765057692   29.136084470 XXXX 3      o*      O  -0.820
O1200   21.395846288   83.672069593    6.369766142 XXXX 3      o*      O  -0.820
H2393   14.930611267   87.380450232   17.549685445 XXXX 3      h*      H   0.410
H2394    7.662884668   55.628381704    9.118496478 XXXX 3      h*      H   0.410
H2395    1.821000178   85.034862053   29.661108836 XXXX 3      h*      H   0.410
H2396   21.911785665   82.927585372    5.845133273 XXXX 3      h*      H   0.410
H2397   13.688944003   88.225626195   17.159286637 XXXX 3      h*      H   0.410
H2398    6.657626146   56.687910566    9.719996113 XXXX 3      h*      H   0.410
H2399    2.859573665   86.000218072   29.797061634 XXXX 3      h*      H   0.410
H2400   21.987301674   83.688917477    7.275855890 XXXX 3      h*      H   0.410
O1201   -0.145817342   75.061540524   15.297984989 XXXX 3      o*      O  -0.820
H2401   -1.018273860   74.779894427   15.845604174 XXXX 3      h*      H   0.410
H2402    0.409087997   74.293715091   15.526482265 XXXX 3      h*      H   0.410
O1202    6.698542052   83.610906636    6.145493041 XXXX 3      o*      O  -0.820
H2403    6.436853716   82.707636206    6.288034047 XXXX 3      h*      H   0.410
H2404    7.641479183   83.468462137    5.771576093 XXXX 3      h*      H   0.410
O1203   11.915100908   79.339960665   21.024338137 XXXX 3      o*      O  -0.820
H2405   11.315457035   80.105605770   21.156534911 XXXX 3      h*      H   0.410
H2406   12.238073942   79.172761342   21.968503332 XXXX 3      h*      H   0.410
O1204    6.547652617   37.536648877   22.648625313 XXXX 3      o*      O  -0.820
H2407    5.644048291   37.070951060   22.782708552 XXXX 3      h*      H   0.410
H2408    6.924485462   37.247177091   23.523871182 XXXX 3      h*      H   0.410
O1205   17.990443982   59.016085897   -0.658340291 XXXX 3      o*      O  -0.820
H2409   17.801545274   59.096271350    0.291022091 XXXX 3      h*      H   0.410
H2410   17.165032523   58.538862823   -0.892612539 XXXX 3      h*      H   0.410
O1206   29.802901269   34.078411250   13.773024384 XXXX 3      o*      O  -0.820
H2411   30.207635590   33.235576146   13.559027472 XXXX 3      h*      H   0.410
H2412   28.963125328   33.822431024   13.260419112 XXXX 3      h*      H   0.410
O1207   19.045561395   89.526310551   22.477289593 XXXX 3      o*      O  -0.820
O1208   19.588195834   88.892357903   -0.439538677 XXXX 3      o*      O  -0.820
O1209   12.520781847   81.306588997   18.909776264 XXXX 3      o*      O  -0.820
H2413   19.598219852   89.462855969   21.630357555 XXXX 3      h*      H   0.410
H2414   19.422773940   88.542491434   -1.322903212 XXXX 3      h*      H   0.410
H2415   12.418633719   80.975802994   18.029653255 XXXX 3      h*      H   0.410
H2416   18.671383171   88.656355271   22.482599206 XXXX 3      h*      H   0.410
H2417   19.892433423   89.843000973   -0.634756162 XXXX 3      h*      H   0.410
H2418   12.322706248   80.506735266   19.406940003 XXXX 3      h*      H   0.410
O1210   24.690583140   53.338745383   26.335784425 XXXX 3      o*      O  -0.820
O1211   22.446684660   84.157739163   21.966871234 XXXX 3      o*      O  -0.820
H2419   24.280384281   52.652694366   25.726546409 XXXX 3      h*      H   0.410
H2420   21.548879550   83.840406752   22.201497748 XXXX 3      h*      H   0.410
H2421   24.432602662   53.135619341   27.222164684 XXXX 3      h*      H   0.410
H2422   22.884114821   84.499403346   22.783783296 XXXX 3      h*      H   0.410
O1212   14.143677095   64.464197393   10.941960342 XXXX 3      o*      O  -0.820
H2423   13.930808733   64.734618312    9.984141657 XXXX 3      h*      H   0.410
H2424   13.919907578   63.540381544   10.945793688 XXXX 3      h*      H   0.410
O1213    1.901136792   60.802096056   25.580715929 XXXX 3      o*      O  -0.820
O1214   17.943774834   34.103709912   -0.566106046 XXXX 3      o*      O  -0.820
H2425    1.891390030   60.732342550   24.609683795 XXXX 3      h*      H   0.410
H2426   18.408464739   33.983040021    0.348445557 XXXX 3      h*      H   0.410
H2427    0.919904747   60.746573109   25.765267425 XXXX 3      h*      H   0.410
H2428   17.571747491   33.209976927   -0.682913646 XXXX 3      h*      H   0.410
O1215   21.993389314   79.288083204   20.564089511 XXXX 3      o*      O  -0.820
O1216   24.087362750   85.936867109    7.291426555 XXXX 3      o*      O  -0.820
O1217    2.479334799   70.530472275   28.516465704 XXXX 3      o*      O  -0.820
H2429   21.119604217   78.973512637   20.242768648 XXXX 3      h*      H   0.410
H2430   24.113218896   86.380264148    8.151178623 XXXX 3      h*      H   0.410
H2431    3.135545213   69.818873969   28.564376531 XXXX 3      h*      H   0.410
H2432   22.452852471   78.430863357   20.378899099 XXXX 3      h*      H   0.410
H2433   23.494753115   85.193385232    7.477037798 XXXX 3      h*      H   0.410
H2434    1.674340042   70.076027013   28.085669696 XXXX 3      h*      H   0.410
O1218   12.749193293   83.356805400   20.625083132 XXXX 3      o*      O  -0.820
H2435   12.431349830   82.587911210   20.043022302 XXXX 3      h*      H   0.410
H2436   13.690202101   83.331756892   20.346913058 XXXX 3      h*      H   0.410
O1219   17.032915833   59.954105185   25.273162589 XXXX 3      o*      O  -0.820
H2437   16.176642199   60.347951159   24.995117614 XXXX 3      h*      H   0.410
H2438   16.945840903   60.031708292   26.214841529 XXXX 3      h*      H   0.410
O1220   10.657642714   61.599761987   17.001577940 XXXX 3      o*      O  -0.820
H2439    9.752401533   61.277605278   16.869513929 XXXX 3      h*      H   0.410
H2440   11.134481151   61.234126124   16.244581891 XXXX 3      h*      H   0.410
O1221    6.138061768   39.930744454   15.284469474 XXXX 3      o*      O  -0.820
H2441    6.899785578   40.034946849   14.631016015 XXXX 3      h*      H   0.410
H2442    6.459559377   40.619289252   15.945369297 XXXX 3      h*      H   0.410
O1222   33.764135937   57.052963466   11.305718482 XXXX 3      o*      O  -0.820
H2443   34.467066806   56.399771672   11.510532352 XXXX 3      h*      H   0.410
H2444   32.984148812   56.390985632   11.391445288 XXXX 3      h*      H   0.410
O1223   25.072191832   87.090864139    4.171257556 XXXX 3      o*      O  -0.820
H2445   25.584359734   87.958855940    4.301100857 XXXX 3      h*      H   0.410
H2446   24.710793045   87.285736262    3.280588374 XXXX 3      h*      H   0.410
O1224   12.454823002   47.393467669   21.137021413 XXXX 3      o*      O  -0.820
H2447   12.331495130   47.139163246   22.072229442 XXXX 3      h*      H   0.410
H2448   11.600360149   47.888435607   21.092770275 XXXX 3      h*      H   0.410
O1225   20.182169764   44.542608762   23.865444006 XXXX 3      o*      O  -0.820
H2449   19.385304710   44.910938089   23.405897727 XXXX 3      h*      H   0.410
H2450   20.460778522   43.964388096   23.101461054 XXXX 3      h*      H   0.410
O1226   28.002778336   37.881136645    9.498098514 XXXX 3      o*      O  -0.820
O1227   12.798848741   46.455941453   23.799088116 XXXX 3      o*      O  -0.820
H2451   27.451625784   37.411452786    8.855619694 XXXX 3      h*      H   0.410
H2452   12.420234414   45.575416531   23.808635472 XXXX 3      h*      H   0.410
H2453   27.636619899   38.753881890    9.366018123 XXXX 3      h*      H   0.410
H2454   12.633662661   46.686785924   24.727280397 XXXX 3      h*      H   0.410
O1228   23.987575157   40.161801312   26.533437600 XXXX 3      o*      O  -0.820
H2455   23.196506673   40.364545830   27.035853719 XXXX 3      h*      H   0.410
H2456   23.589239663   39.328271969   26.202265428 XXXX 3      h*      H   0.410
O1229    1.208618124   50.543155918   21.262764892 XXXX 3      o*      O  -0.820
H2457    1.668394378   50.132857262   20.475164201 XXXX 3      h*      H   0.410
H2458    1.088224291   49.783933151   21.876411738 XXXX 3      h*      H   0.410
O1230    7.720069212   71.884885206   28.229260085 XXXX 3      o*      O  -0.820
H2459    7.064177256   71.940206585   28.963612620 XXXX 3      h*      H   0.410
H2460    8.457461617   72.427394333   28.548629130 XXXX 3      h*      H   0.410
O1231   26.782751152   71.235250581   27.884719395 XXXX 3      o*      O  -0.820
H2461   27.306291908   71.883486327   28.428532431 XXXX 3      h*      H   0.410
H2462   27.213210665   71.244904558   27.017871866 XXXX 3      h*      H   0.410
O1232   18.825574798   55.451734421    1.670132222 XXXX 3      o*      O  -0.820
H2463   19.440020977   54.721652791    1.603927067 XXXX 3      h*      H   0.410
H2464   19.363339416   56.128162536    1.256209857 XXXX 3      h*      H   0.410
O1233   12.528163108   86.745850557   14.400540500 XXXX 3      o*      O  -0.820
H2465   12.473925211   85.814683699   14.114473126 XXXX 3      h*      H   0.410
H2466   12.444605166   86.716424132   15.414691685 XXXX 3      h*      H   0.410
O1234    2.645425861   33.951019191   14.370689139 XXXX 3      o*      O  -0.820
O1235    6.326261985   40.042007611   11.215640085 XXXX 3      o*      O  -0.820
O1236   14.483797172   52.901683821    7.015880858 XXXX 3      o*      O  -0.820
H2467    2.859272179   32.966160764   14.344733337 XXXX 3      h*      H   0.410
H2468    5.943749050   39.195016241   10.882572212 XXXX 3      h*      H   0.410
H2469   14.993386316   52.199249725    6.629114640 XXXX 3      h*      H   0.410
H2470    3.165245961   34.370354957   13.595372526 XXXX 3      h*      H   0.410
H2471    7.314246265   39.798339775   11.381840480 XXXX 3      h*      H   0.410
H2472   14.404684237   52.669860807    8.003350954 XXXX 3      h*      H   0.410
O1237   17.658930706   80.951111360   22.385568381 XXXX 3      o*      O  -0.820
H2473   18.599954811   80.584482145   22.442414295 XXXX 3      h*      H   0.410
H2474   17.709513687   81.345799020   23.277746212 XXXX 3      h*      H   0.410
O1238    6.899502157   82.977760163   24.503785659 XXXX 3      o*      O  -0.820
O1239    7.382960932   86.128879743   21.368354307 XXXX 3      o*      O  -0.820
O1240   15.088903828   88.931194599   14.121769694 XXXX 3      o*      O  -0.820
O1241   15.945954968   67.986820388   20.193407664 XXXX 3      o*      O  -0.820
O1242    2.342130384   91.481108998    7.147584041 XXXX 3      o*      O  -0.820
O1243   12.041136255   48.974835665    8.308316584 XXXX 3      o*      O  -0.820
H2475    6.954617456   81.966954284   24.475919309 XXXX 3      h*      H   0.410
H2476    7.046181903   86.839749490   21.941340883 XXXX 3      h*      H   0.410
H2477   15.869663428   88.340837860   13.901916309 XXXX 3      h*      H   0.410
H2478   15.465725043   68.011069181   21.032053656 XXXX 3      h*      H   0.410
H2479    2.145252658   90.655337006    7.694072516 XXXX 3      h*      H   0.410
H2480   11.911063945   48.022327479    8.005201813 XXXX 3      h*      H   0.410
H2481    6.622362537   83.042343353   25.465347802 XXXX 3      h*      H   0.410
H2482    8.346666666   86.222888109   21.404599899 XXXX 3      h*      H   0.410
H2483   14.450512897   88.197332905   14.155090310 XXXX 3      h*      H   0.410
H2484   16.657613944   67.313952565   20.292083130 XXXX 3      h*      H   0.410
H2485    2.978612667   91.028708215    6.558034115 XXXX 3      h*      H   0.410
H2486   11.162754733   49.070463701    8.843812652 XXXX 3      h*      H   0.410
O1244    7.197935077   70.053184449   21.288331428 XXXX 3      o*      O  -0.820
O1245   20.161479133   75.744036872   12.363027984 XXXX 3      o*      O  -0.820
H2487    7.243610049   69.648730937   20.400348917 XXXX 3      h*      H   0.410
H2488   20.163361547   75.498742055   13.321099600 XXXX 3      h*      H   0.410
H2489    6.420895691   69.568166711   21.594011766 XXXX 3      h*      H   0.410
H2490   19.866105352   74.903777744   11.872561897 XXXX 3      h*      H   0.410
O1246   14.524434920   91.132224724   12.688129755 XXXX 3      o*      O  -0.820
H2491   14.714755141   90.294140944   13.117598558 XXXX 3      h*      H   0.410
H2492   13.986265143   90.659947682   12.039610032 XXXX 3      h*      H   0.410
O1247   17.630778766   88.402640153   16.836645945 XXXX 3      o*      O  -0.820
H2493   17.537793229   87.408057852   17.027680475 XXXX 3      h*      H   0.410
H2494   18.025032558   88.842939094   17.668223351 XXXX 3      h*      H   0.410
O1248    0.351951487   85.438795807   25.858865061 XXXX 3      o*      O  -0.820
H2495   -0.299110920   84.738551042   25.929495576 XXXX 3      h*      H   0.410
H2496    1.112628355   85.131817109   26.473587683 XXXX 3      h*      H   0.410
O1249   28.807125996   66.243603799    7.374059214 XXXX 3      o*      O  -0.820
H2497   29.290601710   65.525829079    7.946347393 XXXX 3      h*      H   0.410
H2498   28.884354358   65.819136368    6.422212175 XXXX 3      h*      H   0.410
O1250   26.029579474   79.424858756   14.731213220 XXXX 3      o*      O  -0.820
H2499   26.549861147   79.740085272   13.965917661 XXXX 3      h*      H   0.410
H2500   25.726652764   80.272078355   15.170896475 XXXX 3      h*      H   0.410
O1251   26.954352773   68.528769484    6.378230128 XXXX 3      o*      O  -0.820
H2501   26.810415971   67.979369765    5.598507837 XXXX 3      h*      H   0.410
H2502   27.317112542   67.882680844    6.981070979 XXXX 3      h*      H   0.410
O1252   10.710128820   39.329765058    7.210340094 XXXX 3      o*      O  -0.820
H2503   10.238264694   38.807789775    6.588533196 XXXX 3      h*      H   0.410
H2504   11.427143119   38.707110731    7.538569338 XXXX 3      h*      H   0.410
O1253   29.591139624   52.397797111   21.432850442 XXXX 3      o*      O  -0.820
H2505   30.216207473   51.951359560   20.717752879 XXXX 3      h*      H   0.410
H2506   30.137220029   52.055845091   22.193496268 XXXX 3      h*      H   0.410
O1254   11.914167094   42.675842966   15.891871234 XXXX 3      o*      O  -0.820
H2507   12.324483241   43.557490172   15.731616127 XXXX 3      h*      H   0.410
H2508   10.923862396   42.867374575   15.711916495 XXXX 3      h*      H   0.410
O1255   20.902745318   42.308896010    9.710922405 XXXX 3      o*      O  -0.820
H2509   20.162139550   41.732698953    9.279624929 XXXX 3      h*      H   0.410
H2510   21.646913052   42.337827840    8.986815350 XXXX 3      h*      H   0.410
O1256   22.036285474   64.586390031    0.936148586 XXXX 3      o*      O  -0.820
H2511   22.432678672   65.545913988    1.163794157 XXXX 3      h*      H   0.410
H2512   22.763569005   64.227682360    0.401672821 XXXX 3      h*      H   0.410
O1257   20.381565603   43.624573995   18.945396670 XXXX 3      o*      O  -0.820
H2513   19.471655596   43.414539904   18.707681381 XXXX 3      h*      H   0.410
H2514   20.507696832   44.215134364   18.164693546 XXXX 3      h*      H   0.410
O1258   30.517386970   87.330532674   -0.118411071 XXXX 3      o*      O  -0.820
H2515   31.309541693   86.881814287   -0.439834279 XXXX 3      h*      H   0.410
H2516   29.853307304   86.620528902   -0.365468405 XXXX 3      h*      H   0.410
O1259   23.336954112   88.752285351   18.053267508 XXXX 3      o*      O  -0.820
H2517   24.144953024   88.930449852   17.516092318 XXXX 3      h*      H   0.410
H2518   23.038166283   89.701308429   17.971499837 XXXX 3      h*      H   0.410
O1260    5.835917771   47.856375232   23.973976231 XXXX 3      o*      O  -0.820
H2519    6.152136365   47.271979701   24.751242619 XXXX 3      h*      H   0.410
H2520    5.003880282   47.316708784   23.652729457 XXXX 3      h*      H   0.410
O1261    8.501384325   89.418773286   27.533789923 XXXX 3      o*      O  -0.820
H2521    8.071597908   88.606642179   27.808739440 XXXX 3      h*      H   0.410
H2522    9.172272954   89.168601741   26.925818385 XXXX 3      h*      H   0.410
O1262   10.899005870   47.842815849   29.165140797 XXXX 3      o*      O  -0.820
H2523    9.952020242   47.502822339   29.163026963 XXXX 3      h*      H   0.410
H2524   11.345082171   47.065690518   29.475385482 XXXX 3      h*      H   0.410
O1263   10.617000380   53.151450893    9.722202103 XXXX 3      o*      O  -0.820
H2525   10.112453575   52.311899508    9.494425744 XXXX 3      h*      H   0.410
H2526   10.433650643   53.121251709   10.663722604 XXXX 3      h*      H   0.410
O1264    2.265170447   58.461048259   22.318846285 XXXX 3      o*      O  -0.820
H2527    1.514421381   58.714578789   22.921648341 XXXX 3      h*      H   0.410
H2528    2.005781094   57.519938416   22.014014963 XXXX 3      h*      H   0.410
O1265   -8.157905267   42.347587171   24.758955707 XXXX 3      o*      O  -0.820
H2529   -8.783643427   41.622711662   24.844450053 XXXX 3      h*      H   0.410
H2530   -8.718310197   43.147427467   24.511840907 XXXX 3      h*      H   0.410
O1266   13.127190224   89.010093997   22.649379489 XXXX 3      o*      O  -0.820
H2531   12.879623679   89.916281085   22.950095541 XXXX 3      h*      H   0.410
H2532   14.051852141   88.957013961   22.894519543 XXXX 3      h*      H   0.410
O1267   19.381215807   68.559646420    5.218128897 XXXX 3      o*      O  -0.820
H2533   18.413628967   68.442428379    5.226956273 XXXX 3      h*      H   0.410
H2534   19.661358990   67.584604595    5.117222164 XXXX 3      h*      H   0.410
O1268    6.642397138   50.313902547   16.009687317 XXXX 3      o*      O  -0.820
H2535    7.399384305   50.623681455   15.466949912 XXXX 3      h*      H   0.410
H2536    6.404878453   49.486707542   15.500345599 XXXX 3      h*      H   0.410
O1269    6.635029209   54.256040283   21.462824991 XXXX 3      o*      O  -0.820
H2537    7.304042535   54.905651681   21.687546987 XXXX 3      h*      H   0.410
H2538    6.887176026   53.998062550   20.516196573 XXXX 3      h*      H   0.410
O1270   15.026403347   58.297177695   15.925836464 XXXX 3      o*      O  -0.820
H2539   14.090470339   58.030900331   16.023092609 XXXX 3      h*      H   0.410
H2540   15.522787523   57.493334772   16.288855541 XXXX 3      h*      H   0.410
O1271   14.372838303   74.422193245   12.392987237 XXXX 3      o*      O  -0.820
H2541   13.778047457   73.609845059   12.284918274 XXXX 3      h*      H   0.410
H2542   15.105181647   73.931731312   12.838266348 XXXX 3      h*      H   0.410
O1272   26.537421772   43.409019616    8.806468419 XXXX 3      o*      O  -0.820
O1273    3.961661063   42.734852998   15.108867003 XXXX 3      o*      O  -0.820
H2543   27.256288399   43.781597520    8.266798921 XXXX 3      h*      H   0.410
H2544    3.966807451   41.833516711   14.698845505 XXXX 3      h*      H   0.410
H2545   26.409998876   42.560549689    8.281647993 XXXX 3      h*      H   0.410
H2546    4.152988729   42.360167719   16.003326854 XXXX 3      h*      H   0.410
O1274   29.155381046   64.670911155    4.688066391 XXXX 3      o*      O  -0.820
O1275   22.322890653   69.839933612   24.276628105 XXXX 3      o*      O  -0.820
O1276    6.325236511   47.329929967    3.429024847 XXXX 3      o*      O  -0.820
O1277   17.513189141   56.549891216    4.014776123 XXXX 3      o*      O  -0.820
H2547   28.372362984   64.039719058    4.804538572 XXXX 3      h*      H   0.410
H2548   21.407534765   70.132929844   24.165546853 XXXX 3      h*      H   0.410
H2549    5.497874400   47.144299819    3.956555134 XXXX 3      h*      H   0.410
H2550   18.174907770   56.344106083    3.344728760 XXXX 3      h*      H   0.410
H2551   29.700473229   64.167755637    4.071601256 XXXX 3      h*      H   0.410
H2552   22.284380026   68.970655649   23.879141694 XXXX 3      h*      H   0.410
H2553    6.935808981   46.791780009    3.948034767 XXXX 3      h*      H   0.410
H2554   18.121592306   56.657713282    4.775733420 XXXX 3      h*      H   0.410
O1278   -0.651494230   46.907635886   24.685010048 XXXX 3      o*      O  -0.820
H2555   -1.316932790   47.512580652   25.212968565 XXXX 3      h*      H   0.410
H2556   -0.912471888   46.087760342   25.107214266 XXXX 3      h*      H   0.410
O1279   17.046889843   88.825933298   20.405472044 XXXX 3      o*      O  -0.820
O1280   28.306943082   40.065350764   14.035730555 XXXX 3      o*      O  -0.820
O1281   10.376428976   66.548273339   18.567039334 XXXX 3      o*      O  -0.820
O1282    5.811707027   44.834044473    8.692723238 XXXX 3      o*      O  -0.820
O1283   20.222248884   64.882068242   23.212586266 XXXX 3      o*      O  -0.820
H2557   16.689741515   89.585099486   19.856582666 XXXX 3      h*      H   0.410
H2558   28.997752451   39.483248924   13.613846787 XXXX 3      h*      H   0.410
H2559   10.073489334   67.194351173   17.904583292 XXXX 3      h*      H   0.410
H2560    4.900623801   44.788201211    8.390948169 XXXX 3      h*      H   0.410
H2561   20.413501660   64.141455604   23.802116267 XXXX 3      h*      H   0.410
H2562   18.000355437   88.889043524   19.973840919 XXXX 3      h*      H   0.410
H2563   28.844865851   40.301914567   14.872671386 XXXX 3      h*      H   0.410
H2564    9.869681262   65.771244442   18.250940871 XXXX 3      h*      H   0.410
H2565    5.870425598   43.954239505    9.142719621 XXXX 3      h*      H   0.410
H2566   19.561658348   64.383944214   22.699041590 XXXX 3      h*      H   0.410
O1284    0.144017902   66.272650951   33.250436480 XXXX 3      o*      O  -0.820
H2567   -0.451280128   66.374900564   34.002003362 XXXX 3      h*      H   0.410
H2568   -0.512414593   66.434234981   32.542659830 XXXX 3      h*      H   0.410
O1285    5.284074849   45.038976074   29.346646595 XXXX 3      o*      O  -0.820
O1286   26.116697798   69.744039201   16.942713429 XXXX 3      o*      O  -0.820
O1287   15.152603796   34.940933964   26.529890883 XXXX 3      o*      O  -0.820
H2569    6.048950480   44.596575326   29.823872526 XXXX 3      h*      H   0.410
H2570   26.245620103   68.795651962   17.170638341 XXXX 3      h*      H   0.410
H2571   15.019278477   34.751772300   27.471264632 XXXX 3      h*      H   0.410
H2572    5.410920019   46.000922187   29.526033422 XXXX 3      h*      H   0.410
H2573   26.841719611   69.832589591   16.267936992 XXXX 3      h*      H   0.410
H2574   15.632479087   35.809279599   26.658311535 XXXX 3      h*      H   0.410
O1288    0.902494760   92.288024229   12.608466832 XXXX 3      o*      O  -0.820
O1289    6.066302176   89.218300597   15.318357634 XXXX 3      o*      O  -0.820
O1290    7.300291707   44.943859182    4.630455959 XXXX 3      o*      O  -0.820
O1291    8.550176799   32.205957050    0.736551730 XXXX 3      o*      O  -0.820
H2575    1.553623568   92.213341606   13.439828387 XXXX 3      h*      H   0.410
H2576    6.057986598   88.353010294   14.820809753 XXXX 3      h*      H   0.410
H2577    7.723677132   44.524400375    5.420728924 XXXX 3      h*      H   0.410
H2578    9.334846965   31.652020257    0.559535709 XXXX 3      h*      H   0.410
H2579    0.715401944   91.311769900   12.602919057 XXXX 3      h*      H   0.410
H2580    5.507437451   89.823358417   14.773733026 XXXX 3      h*      H   0.410
H2581    6.527202820   44.410468154    4.734706869 XXXX 3      h*      H   0.410
H2582    8.862484655   32.513091260    1.581230515 XXXX 3      h*      H   0.410
O1292   -4.014418298   46.390775934   23.387710833 XXXX 3      o*      O  -0.820
O1293   18.952880189   64.931842272    5.339699153 XXXX 3      o*      O  -0.820
O1294    4.750158956   68.008352176    2.072643868 XXXX 3      o*      O  -0.820
O1295   21.080118455   68.230544620   16.568127874 XXXX 3      o*      O  -0.820
O1296   30.305973292   64.081457274    8.333082974 XXXX 3      o*      O  -0.820
H2583   -4.284508779   45.484627927   23.669189840 XXXX 3      h*      H   0.410
H2584   19.585688584   64.610208723    4.615367718 XXXX 3      h*      H   0.410
H2585    4.442438163   67.203771097    2.636477772 XXXX 3      h*      H   0.410
H2586   21.909135967   67.914925851   16.179198827 XXXX 3      h*      H   0.410
H2587   30.215562645   63.104390388    8.214145971 XXXX 3      h*      H   0.410
H2588   -3.100309986   46.223363906   23.624815821 XXXX 3      h*      H   0.410
H2589   18.158080748   64.978848596    4.806768547 XXXX 3      h*      H   0.410
H2590    5.276792888   67.461883743    1.429117749 XXXX 3      h*      H   0.410
H2591   21.405550246   68.188664797   17.486491735 XXXX 3      h*      H   0.410
H2592   30.726316189   64.298972482    7.501175989 XXXX 3      h*      H   0.410
O1297    8.198715315   37.420506384   15.848574070 XXXX 3      o*      O  -0.820
O1298    5.134908121   52.561607731   29.300529129 XXXX 3      o*      O  -0.820
H2593    8.317649358   37.337173637   14.828136053 XXXX 3      h*      H   0.410
H2594    6.017962303   52.746173706   28.785058054 XXXX 3      h*      H   0.410
H2595    7.251868915   37.769762258   15.801791507 XXXX 3      h*      H   0.410
H2596    5.186297544   51.549455405   29.272887149 XXXX 3      h*      H   0.410
O1299   25.217228308   44.459578977    0.251431133 XXXX 3      o*      O  -0.820
H2597   24.428177927   44.620099222   -0.260586997 XXXX 3      h*      H   0.410
H2598   25.686713381   43.816390662   -0.311226339 XXXX 3      h*      H   0.410
O1300   25.812140834   77.081381548   20.778120349 XXXX 3      o*      O  -0.820
O1301   23.618185126   39.286819307   15.364891102 XXXX 3      o*      O  -0.820
O1302   -0.241857423   75.610814559   20.006922712 XXXX 3      o*      O  -0.820
O1303    2.302337411   44.876861502   13.133526357 XXXX 3      o*      O  -0.820
O1304   20.026410287   77.236993066    8.999223553 XXXX 3      o*      O  -0.820
O1305   15.062591227   76.894278260   13.813812731 XXXX 3      o*      O  -0.820
O1306    4.203284668   53.885798843   16.259809632 XXXX 3      o*      O  -0.820
H2599   25.272393874   76.560048265   20.198340175 XXXX 3      h*      H   0.410
H2600   24.292501944   39.951178871   15.390598877 XXXX 3      h*      H   0.410
H2601   -0.309308110   74.880126838   19.343369129 XXXX 3      h*      H   0.410
H2602    3.023155634   44.423328770   13.678440212 XXXX 3      h*      H   0.410
H2603   20.250537851   76.674348325    9.792354260 XXXX 3      h*      H   0.410
H2604   14.854839520   76.115739236   13.197579782 XXXX 3      h*      H   0.410
H2605    3.494470248   53.294782107   15.937971349 XXXX 3      h*      H   0.410
H2606   26.553969228   76.567839808   21.002726571 XXXX 3      h*      H   0.410
H2607   22.992051318   39.751573202   14.710921791 XXXX 3      h*      H   0.410
H2608    0.293546063   76.217338368   19.431483653 XXXX 3      h*      H   0.410
H2609    1.517907971   44.538899264   13.601664611 XXXX 3      h*      H   0.410
H2610   19.084175643   77.147517344    8.933723095 XXXX 3      h*      H   0.410
H2611   15.473289809   76.448120135   14.586565214 XXXX 3      h*      H   0.410
H2612    4.896987489   53.605020306   15.572694638 XXXX 3      h*      H   0.410
O1307   14.738443654   87.377803491    4.544434812 XXXX 3      o*      O  -0.820
O1308   -1.412376195   44.636535795    0.652175157 XXXX 3      o*      O  -0.820
O1309   27.651042328   41.958323479   15.792401342 XXXX 3      o*      O  -0.820
H2613   15.735448831   87.385866433    4.362115795 XXXX 3      h*      H   0.410
H2614   -0.622415439   45.131072977    1.083263220 XXXX 3      h*      H   0.410
H2615   28.280632609   42.397568875   16.342609967 XXXX 3      h*      H   0.410
H2616   14.539940548   86.415760559    4.330456665 XXXX 3      h*      H   0.410
H2617   -1.286034035   43.819082862    1.076551147 XXXX 3      h*      H   0.410
H2618   26.922980906   41.667283431   16.375369489 XXXX 3      h*      H   0.410
O1310    3.073639816   43.288384470   10.568636072 XXXX 3      o*      O  -0.820
O1311   19.629380278   37.673750000   13.429754543 XXXX 3      o*      O  -0.820
H2619    3.050220077   43.928608314   11.313575394 XXXX 3      h*      H   0.410
H2620   19.340898178   36.907125832   14.057456642 XXXX 3      h*      H   0.410
H2621    4.024891424   43.198794272   10.496768314 XXXX 3      h*      H   0.410
H2622   18.838107900   38.302588209   13.485702762 XXXX 3      h*      H   0.410
O1312   23.518685545   56.382177665   23.331850948 XXXX 3      o*      O  -0.820
O1313   19.129630781   63.081440147   11.125469789 XXXX 3      o*      O  -0.820
H2623   23.672965309   56.939971131   22.600533347 XXXX 3      h*      H   0.410
H2624   18.805145669   62.248321958   10.754509811 XXXX 3      h*      H   0.410
H2625   22.534188124   56.286425455   23.267279069 XXXX 3      h*      H   0.410
H2626   19.252880559   62.743086989   12.064640806 XXXX 3      h*      H   0.410
O1314   32.011879340   50.462530470   -2.051424977 XXXX 3      o*      O  -0.820
H2627   32.411222848   49.750939115   -2.638135266 XXXX 3      h*      H   0.410
H2628   31.115312553   50.202042243   -1.894668744 XXXX 3      h*      H   0.410
O1315    7.548897779   40.097309267   25.133597128 XXXX 3      o*      O  -0.820
H2629    8.505910903   40.138054404   24.825591467 XXXX 3      h*      H   0.410
H2630    7.430462717   39.133962971   24.936901438 XXXX 3      h*      H   0.410
O1316    4.783782893   58.631689430   34.938785789 XXXX 3      o*      O  -0.820
H2631    5.533612234   58.024419644   34.632091593 XXXX 3      h*      H   0.410
H2632    4.194576592   58.504111981   34.121760210 XXXX 3      h*      H   0.410
O1317    5.559360716   70.973676103   25.666711415 XXXX 3      o*      O  -0.820
H2633    6.235530018   71.141021629   26.353144928 XXXX 3      h*      H   0.410
H2634    4.790346193   71.400845230   26.088104198 XXXX 3      h*      H   0.410
O1318   23.656484514   77.503852330   18.347521197 XXXX 3      o*      O  -0.820
H2635   23.748982616   77.179152150   17.446465045 XXXX 3      h*      H   0.410
H2636   23.035369721   78.233396319   18.094445855 XXXX 3      h*      H   0.410
O1319    5.694082245   84.918009325   15.200356634 XXXX 3      o*      O  -0.820
H2637    5.904017747   85.792658566   14.908870515 XXXX 3      h*      H   0.410
H2638    6.322441226   84.723535530   15.920450667 XXXX 3      h*      H   0.410
O1320    4.853361592   54.044780665    4.100943354 XXXX 3      o*      O  -0.820
H2639    5.293938575   54.876839388    3.854346339 XXXX 3      h*      H   0.410
H2640    4.889133049   53.701235336    3.181211816 XXXX 3      h*      H   0.410
O1321   20.543035256   56.189439893   21.169117017 XXXX 3      o*      O  -0.820
H2641   21.455129723   55.861273223   21.104153503 XXXX 3      h*      H   0.410
H2642   20.100822820   55.714067748   21.874352519 XXXX 3      h*      H   0.410
O1322   29.574040017   53.436779297    9.152942087 XXXX 3      o*      O  -0.820
O1323   21.418678569   73.558010519    9.762215702 XXXX 3      o*      O  -0.820
H2643   29.251652070   52.516220568    9.194624168 XXXX 3      h*      H   0.410
H2644   21.563139479   72.712310189   10.256459083 XXXX 3      h*      H   0.410
H2645   28.681329565   53.817952773    9.236782434 XXXX 3      h*      H   0.410
H2646   22.221929421   74.020126525   10.162036900 XXXX 3      h*      H   0.410
O1324    4.187665818   84.167315400   18.322215158 XXXX 3      o*      O  -0.820
H2647    4.835081144   84.379606204   19.018633643 XXXX 3      h*      H   0.410
H2648    3.719846878   83.422701890   18.694063252 XXXX 3      h*      H   0.410
O1325   -0.022914434   64.324972343   24.384811518 XXXX 3      o*      O  -0.820
O1326    1.348023373   77.013586719   29.278429198 XXXX 3      o*      O  -0.820
H2649    0.496954035   63.595349682   24.849907248 XXXX 3      h*      H   0.410
H2650    0.958686463   76.110508474   29.234427110 XXXX 3      h*      H   0.410
H2651    0.553642306   65.098639637   24.722322616 XXXX 3      h*      H   0.410
H2652    1.139388576   77.303210318   28.315256471 XXXX 3      h*      H   0.410
O1327    8.043307588   63.293157159   -0.481044736 XXXX 3      o*      O  -0.820
H2653    8.463895006   62.936659377    0.352299489 XXXX 3      h*      H   0.410
H2654    7.116960249   63.163403915   -0.212346745 XXXX 3      h*      H   0.410
O1328    7.277933558   77.459447988   20.370922074 XXXX 3      o*      O  -0.820
H2655    7.335067591   77.282195442   21.348646530 XXXX 3      h*      H   0.410
H2656    7.699851345   76.710959441   19.940927939 XXXX 3      h*      H   0.410
O1329   10.986100312   49.419679778   17.672360509 XXXX 3      o*      O  -0.820
H2657   11.360821077   48.537248307   17.574458104 XXXX 3      h*      H   0.410
H2658   10.284023171   49.278234634   18.288767038 XXXX 3      h*      H   0.410
O1330   10.553256638   49.740722519   12.459860132 XXXX 3      o*      O  -0.820
H2659   10.949375174   49.044506711   13.022979518 XXXX 3      h*      H   0.410
H2660   10.711238941   49.240609824   11.592307149 XXXX 3      h*      H   0.410
O1331   25.292943390   38.637641793   11.998748021 XXXX 3      o*      O  -0.820
H2661   25.290950400   37.847283312   11.386192091 XXXX 3      h*      H   0.410
H2662   25.891250083   38.295312841   12.684169183 XXXX 3      h*      H   0.410
O1332    4.182038734   81.950669177    0.373748054 XXXX 3      o*      O  -0.820
H2663    3.825394615   81.225553841   -0.219563392 XXXX 3      h*      H   0.410
H2664    5.174842894   81.823694448    0.421469215 XXXX 3      h*      H   0.410
O1333   17.270578655   65.513190130   20.912728746 XXXX 3      o*      O  -0.820
H2665   17.232235934   65.441441667   21.891806829 XXXX 3      h*      H   0.410
H2666   16.525291300   64.922808850   20.523654127 XXXX 3      h*      H   0.410
O1334   -1.171759742   71.269938839    3.884964472 XXXX 3      o*      O  -0.820
H2667   -1.509352071   70.342414418    4.034258600 XXXX 3      h*      H   0.410
H2668   -1.336980663   71.640492994    4.769307418 XXXX 3      h*      H   0.410
O1335   10.372501794   36.917279885   14.051891661 XXXX 3      o*      O  -0.820
H2669   11.333680733   36.934649646   13.876114857 XXXX 3      h*      H   0.410
H2670   10.025785841   36.618672711   13.216811819 XXXX 3      h*      H   0.410
O1336    4.015951022   46.321343939   22.146596987 XXXX 3      o*      O  -0.820
H2671    3.318703404   45.593759389   22.247431024 XXXX 3      h*      H   0.410
H2672    4.544030221   45.952649765   21.356170220 XXXX 3      h*      H   0.410
O1337   23.259990759   80.391395179   24.098841568 XXXX 3      o*      O  -0.820
H2673   24.170465295   80.392867485   23.734496105 XXXX 3      h*      H   0.410
H2674   23.359188475   80.111504037   25.052278426 XXXX 3      h*      H   0.410
O1338   -2.774549920   72.950462122   19.408155527 XXXX 3      o*      O  -0.820
H2675   -2.374751163   72.344539820   18.799150660 XXXX 3      h*      H   0.410
H2676   -3.706313050   72.672199862   19.384133023 XXXX 3      h*      H   0.410
O1339   21.400758637   77.897574866   25.003419187 XXXX 3      o*      O  -0.820
H2677   20.757093004   77.303766100   24.526863336 XXXX 3      h*      H   0.410
H2678   21.920942064   78.171457893   24.213100117 XXXX 3      h*      H   0.410
O1340    6.524018281   67.165845373   27.126209518 XXXX 3      o*      O  -0.820
H2679    6.464008763   66.284180154   27.494866269 XXXX 3      h*      H   0.410
H2680    6.482388497   66.965026098   26.224421876 XXXX 3      h*      H   0.410
O1341   17.335151115   68.009180942   -4.435648304 XXXX 3      o*      O  -0.820
H2681   17.694554974   67.434643377   -3.693088256 XXXX 3      h*      H   0.410
H2682   16.406858232   67.609356495   -4.648113703 XXXX 3      h*      H   0.410
O1342   13.902028393   66.912281207    5.966517799 XXXX 3      o*      O  -0.820
H2683   14.086971903   66.593185676    6.857351643 XXXX 3      h*      H   0.410
H2684   13.455808358   66.174846251    5.529341974 XXXX 3      h*      H   0.410
O1343   23.845993942   77.327137292   15.402108060 XXXX 3      o*      O  -0.820
H2685   24.267960891   77.989728745   14.780528158 XXXX 3      h*      H   0.410
H2686   22.940169244   77.220674704   14.977308767 XXXX 3      h*      H   0.410
O1344   24.826019637   62.373792506    1.780364596 XXXX 3      o*      O  -0.820
H2687   24.759315118   61.933457028    2.630409315 XXXX 3      h*      H   0.410
H2688   23.920922268   62.176868156    1.423209276 XXXX 3      h*      H   0.410
O1345    4.569004573   81.108017939    5.933814238 XXXX 3      o*      O  -0.820
H2689    4.314035935   80.294063057    6.381116520 XXXX 3      h*      H   0.410
H2690    3.707086808   81.513332582    5.743753309 XXXX 3      h*      H   0.410
O1346    0.155050924   90.620393704   30.694213518 XXXX 3      o*      O  -0.820
O1347   -2.184126263   84.054502088    8.002528673 XXXX 3      o*      O  -0.820
H2691    1.114349589   91.002801953   30.581314262 XXXX 3      h*      H   0.410
H2692   -1.532561235   83.391398568    7.648768256 XXXX 3      h*      H   0.410
H2693   -0.131099204   90.977269853   31.574295458 XXXX 3      h*      H   0.410
H2694   -1.616318282   84.521366701    8.610620427 XXXX 3      h*      H   0.410
O1348    5.063172754   46.599355529   26.721422658 XXXX 3      o*      O  -0.820
O1349   14.011586176   79.491581356   13.984306659 XXXX 3      o*      O  -0.820
H2695    4.223812368   47.107695888   26.596971798 XXXX 3      h*      H   0.410
H2696   14.540913901   78.697930741   13.605687882 XXXX 3      h*      H   0.410
H2697    4.643523692   45.706063796   26.686999559 XXXX 3      h*      H   0.410
H2698   13.106270012   79.115150823   13.905155486 XXXX 3      h*      H   0.410
O1350   29.964791401   81.252368111    8.505843106 XXXX 3      o*      O  -0.820
H2699   29.377529548   80.411833340    8.617618167 XXXX 3      h*      H   0.410
H2700   30.047480201   81.227875569    7.470302682 XXXX 3      h*      H   0.410
O1351   17.890265244   70.938633054   16.221313927 XXXX 3      o*      O  -0.820
H2701   17.585378824   71.829848952   16.205360785 XXXX 3      h*      H   0.410
H2702   17.144192406   70.449996247   16.585762116 XXXX 3      h*      H   0.410
O1352    7.804398287   42.727043035    6.735586491 XXXX 3      o*      O  -0.820
O1353   17.226896357   43.210367144   25.247392292 XXXX 3      o*      O  -0.820
H2703    7.435117162   42.230940975    7.468779250 XXXX 3      h*      H   0.410
H2704   17.740139030   42.501184073   25.690351984 XXXX 3      h*      H   0.410
H2705    7.672283439   42.017041570    6.069793937 XXXX 3      h*      H   0.410
H2706   17.752897710   43.324224351   24.438638216 XXXX 3      h*      H   0.410
O1354    7.441399279   40.926604173   31.473081580 XXXX 3      o*      O  -0.820
H2707    7.632171885   41.028723398   30.486019638 XXXX 3      h*      H   0.410
H2708    7.534419094   39.987453978   31.631845272 XXXX 3      h*      H   0.410
O1355   22.353256375   58.937642877   12.476223509 XXXX 3      o*      O  -0.820
O1356   20.079009336   40.135565729    5.389148659 XXXX 3      o*      O  -0.820
H2709   21.429468439   58.684227429   12.173818747 XXXX 3      h*      H   0.410
H2710   20.028250391   39.200914232    5.775212070 XXXX 3      h*      H   0.410
H2711   22.745417509   58.044625525   12.301994062 XXXX 3      h*      H   0.410
H2712   21.017398688   40.058085953    5.090560806 XXXX 3      h*      H   0.410
O1357   26.287785343   45.627580585    6.008403841 XXXX 3      o*      O  -0.820
H2713   25.602616104   44.880603276    5.804961457 XXXX 3      h*      H   0.410
H2714   27.011716306   45.056241291    6.477454971 XXXX 3      h*      H   0.410
O1358   12.958444959   68.960525103   11.370695025 XXXX 3      o*      O  -0.820
H2715   13.243929768   69.861282389   11.745245813 XXXX 3      h*      H   0.410
H2716   13.496175487   68.343342343   11.862694332 XXXX 3      h*      H   0.410
O1359   13.548891946   62.682972088    5.862836625 XXXX 3      o*      O  -0.820
H2717   13.338093952   62.227922842    6.726461023 XXXX 3      h*      H   0.410
H2718   14.493267466   62.400173091    5.913790405 XXXX 3      h*      H   0.410
O1360   21.961673346   91.261971649    9.710353475 XXXX 3      o*      O  -0.820
H2719   22.488573852   90.468541649    9.559492457 XXXX 3      h*      H   0.410
H2720   21.542690023   90.899105159   10.560298928 XXXX 3      h*      H   0.410
O1361    9.707551948   91.872246195   15.698820316 XXXX 3      o*      O  -0.820
O1362   17.526339642   82.118577115    2.563237010 XXXX 3      o*      O  -0.820
H2721   10.702845417   91.830473173   15.652162600 XXXX 3      h*      H   0.410
H2722   18.313764807   82.031810685    3.177701121 XXXX 3      h*      H   0.410
H2723    9.459767893   90.958441557   15.557728006 XXXX 3      h*      H   0.410
H2724   17.948006782   81.635693936    1.767689768 XXXX 3      h*      H   0.410
O1363    4.668310878   52.817355067    6.553518748 XXXX 3      o*      O  -0.820
H2725    4.239662958   52.000464354    6.483581687 XXXX 3      h*      H   0.410
H2726    4.569286711   53.059825344    5.609081102 XXXX 3      h*      H   0.410
O1364   18.848263756   42.324662433    0.866233566 XXXX 3      o*      O  -0.820
H2727   19.768944759   42.406027395    0.470641009 XXXX 3      h*      H   0.410
H2728   18.978777079   41.712836699    1.665259693 XXXX 3      h*      H   0.410
O1365    9.870293768   42.483334623   26.364257592 XXXX 3      o*      O  -0.820
H2729    9.772568063   41.839802770   25.663427231 XXXX 3      h*      H   0.410
H2730   10.861637484   42.277393473   26.609924670 XXXX 3      h*      H   0.410
O1366   27.616634399   64.897727786   15.456368999 XXXX 3      o*      O  -0.820
H2731   27.244238973   64.215459691   15.980210873 XXXX 3      h*      H   0.410
H2732   28.425867796   64.509065356   15.095228760 XXXX 3      h*      H   0.410
O1367   19.019800828   92.369809061   10.865445990 XXXX 3      o*      O  -0.820
H2733   19.650441587   91.845632297   11.416709952 XXXX 3      h*      H   0.410
H2734   18.260750638   91.863066376   11.263309610 XXXX 3      h*      H   0.410
O1368   24.047576286   53.301085566    6.686297929 XXXX 3      o*      O  -0.820
O1369    9.362430671   91.336751585   29.460880276 XXXX 3      o*      O  -0.820
H2735   23.378685644   53.311270617    6.022118683 XXXX 3      h*      H   0.410
H2736   10.142071173   90.870761954   29.934988428 XXXX 3      h*      H   0.410
H2737   24.141157189   52.325773621    6.525138860 XXXX 3      h*      H   0.410
H2738    9.195029376   90.419757137   28.897664601 XXXX 3      h*      H   0.410
O1370   11.006226927   76.909422322   19.130445285 XXXX 3      o*      O  -0.820
O1371   23.682042229   40.259067094   10.631739375 XXXX 3      o*      O  -0.820
H2739   10.056054510   76.568128091   19.375820053 XXXX 3      h*      H   0.410
H2740   23.601625187   41.179125491   10.964509850 XXXX 3      h*      H   0.410
H2741   11.401538079   75.995248809   19.017932752 XXXX 3      h*      H   0.410
H2742   24.080581806   39.901749969   11.431417946 XXXX 3      h*      H   0.410
O1372   31.004373353   33.878600335   28.588649642 XXXX 3      o*      O  -0.820
H2743   31.203469736   33.155375058   27.948990647 XXXX 3      h*      H   0.410
H2744   30.925236137   33.464545837   29.481630168 XXXX 3      h*      H   0.410
O1373    9.359630517   72.616501557   12.495789883 XXXX 3      o*      O  -0.820
H2745    9.466628277   71.633960884   12.201300527 XXXX 3      h*      H   0.410
H2746    9.815391768   72.569836919   13.385299622 XXXX 3      h*      H   0.410
O1374   19.376675317   85.706610861   -0.263126545 XXXX 3      o*      O  -0.820
H2747   19.731206536   84.890821622    0.175034671 XXXX 3      h*      H   0.410
H2748   18.863520812   86.150280563    0.494568363 XXXX 3      h*      H   0.410
O1375    3.829458202   58.582804765   24.925716573 XXXX 3      o*      O  -0.820
H2749    4.020337695   57.668640056   24.611301191 XXXX 3      h*      H   0.410
H2750    2.859520152   58.585156988   24.711283967 XXXX 3      h*      H   0.410
O1376   23.364380028   85.091136762   24.544844030 XXXX 3      o*      O  -0.820
H2751   23.136076969   84.334137468   25.161027248 XXXX 3      h*      H   0.410
H2752   24.331476295   85.175927380   24.656319091 XXXX 3      h*      H   0.410
O1377   26.862968480   48.419973190   18.313634709 XXXX 3      o*      O  -0.820
H2753   26.397093094   49.150763094   17.875938845 XXXX 3      h*      H   0.410
H2754   26.250830234   47.688299222   17.960301948 XXXX 3      h*      H   0.410
O1378   36.254560896   80.424564605   20.968065845 XXXX 3      o*      O  -0.820
H2755   36.215657276   79.475045510   20.719008854 XXXX 3      h*      H   0.410
H2756   36.886227396   80.354392964   21.722405225 XXXX 3      h*      H   0.410
O1379   25.038849266   55.192215992   -1.336658269 XXXX 3      o*      O  -0.820
O1380   11.799151732   84.046947558   25.525329620 XXXX 3      o*      O  -0.820
H2757   24.304756942   54.859174842   -0.764395276 XXXX 3      h*      H   0.410
H2758   11.372478307   83.424477691   26.162058577 XXXX 3      h*      H   0.410
H2759   24.521037562   55.335807779   -2.141804555 XXXX 3      h*      H   0.410
H2760   11.124746842   83.950733155   24.790981501 XXXX 3      h*      H   0.410
O1381   20.317730056   31.464744718   30.073651863 XXXX 3      o*      O  -0.820
H2761   20.712439988   30.645640198   29.808153297 XXXX 3      h*      H   0.410
H2762   20.285091274   31.886532339   29.202833604 XXXX 3      h*      H   0.410
O1382    9.685158623   62.008488558   10.669217667 XXXX 3      o*      O  -0.820
H2763    8.726905140   62.051223387   10.724171095 XXXX 3      h*      H   0.410
H2764    9.877360377   61.202827610   11.165347633 XXXX 3      h*      H   0.410
O1383   27.087009986   50.133848663   13.586055434 XXXX 3      o*      O  -0.820
H2765   27.615752966   49.415533991   13.107309144 XXXX 3      h*      H   0.410
H2766   26.566773550   49.448296779   13.996291787 XXXX 3      h*      H   0.410
O1384   21.196736705   47.809804935   24.262177811 XXXX 3      o*      O  -0.820
H2767   21.015419444   46.935051649   24.457044538 XXXX 3      h*      H   0.410
H2768   22.134812925   47.731302194   23.969873849 XXXX 3      h*      H   0.410
O1385   34.203053226   62.553962409   12.988962927 XXXX 3      o*      O  -0.820
H2769   35.000941610   62.346956640   12.489193007 XXXX 3      h*      H   0.410
H2770   34.284415542   62.100749597   13.835069186 XXXX 3      h*      H   0.410
O1386   19.238963786   50.547539266   10.088971790 XXXX 3      o*      O  -0.820
H2771   18.731593687   50.046120295    9.345184835 XXXX 3      h*      H   0.410
H2772   20.094025067   50.163770080    9.950308776 XXXX 3      h*      H   0.410
O1387   15.791272578   91.566107367    9.842546543 XXXX 3      o*      O  -0.820
H2773   14.948335737   91.662513560   10.368620221 XXXX 3      h*      H   0.410
H2774   15.865540623   90.559836388    9.923616144 XXXX 3      h*      H   0.410
O1388   24.692319335   84.322108005    4.539065093 XXXX 3      o*      O  -0.820
H2775   24.914930031   85.177786177    4.111175829 XXXX 3      h*      H   0.410
H2776   24.643519018   84.648916347    5.449175494 XXXX 3      h*      H   0.410
O1389   27.398917559   58.119218180    5.618217658 XXXX 3      o*      O  -0.820
H2777   27.146878056   57.189016225    5.683576534 XXXX 3      h*      H   0.410
H2778   28.265602691   58.021235428    5.181290324 XXXX 3      h*      H   0.410
O1390    1.886141813   37.397459346   29.268075336 XXXX 3      o*      O  -0.820
H2779    1.018346154   37.742790818   28.930411061 XXXX 3      h*      H   0.410
H2780    2.361188100   38.212508075   29.476465976 XXXX 3      h*      H   0.410
O1391   11.970170586   65.520625908   14.479987359 XXXX 3      o*      O  -0.820
O1392   29.637931875   45.745492657   12.327547085 XXXX 3      o*      O  -0.820
O1393   13.570478132   47.507765489   17.697506033 XXXX 3      o*      O  -0.820
O1394   23.959968254   52.326672918   23.602683537 XXXX 3      o*      O  -0.820
O1395   31.446282768   41.842768206    9.128952102 XXXX 3      o*      O  -0.820
H2781   12.511908800   64.709727905   14.830578282 XXXX 3      h*      H   0.410
H2782   30.191001727   45.480748104   11.574943353 XXXX 3      h*      H   0.410
H2783   13.823594512   48.469283549   17.613640656 XXXX 3      h*      H   0.410
H2784   23.662499493   52.203865296   22.674259954 XXXX 3      h*      H   0.410
H2785   32.217016215   42.269149496    9.573269873 XXXX 3      h*      H   0.410
H2786   11.603014656   65.248644139   13.656186642 XXXX 3      h*      H   0.410
H2787   29.348509318   44.888660969   12.560873120 XXXX 3      h*      H   0.410
H2788   13.703216788   47.217873333   16.763780066 XXXX 3      h*      H   0.410
H2789   24.079607028   51.356255620   23.764395708 XXXX 3      h*      H   0.410
H2790   31.714557735   41.217360434    8.460305941 XXXX 3      h*      H   0.410
O1396   33.325132069   74.173962347   25.326845150 XXXX 3      o*      O  -0.820
O1397   25.361456816   77.741657745   23.793003970 XXXX 3      o*      O  -0.820
O1398   13.026254149   68.321957061    8.564112636 XXXX 3      o*      O  -0.820
O1399   14.366877339   61.248597704   25.382627925 XXXX 3      o*      O  -0.820
O1400   17.725136214   65.138505400    7.895373043 XXXX 3      o*      O  -0.820
O1401    7.803108939   57.746757220   15.217382622 XXXX 3      o*      O  -0.820
O1402    4.584077368   59.781498316   21.167882284 XXXX 3      o*      O  -0.820
O1403   20.305337633   51.187458800   14.599144024 XXXX 3      o*      O  -0.820
O1404    4.613990802   41.034520459   17.600790141 XXXX 3      o*      O  -0.820
O1405   27.798663357   90.901682220   16.498642760 XXXX 3      o*      O  -0.820
O1406   -1.407363625   60.978806433   22.086862802 XXXX 3      o*      O  -0.820
O1407   23.124196906   45.963338894   23.604936480 XXXX 3      o*      O  -0.820
H2791   32.402939855   73.808141152   25.165838064 XXXX 3      h*      H   0.410
H2792   24.887396083   77.165388873   24.418371474 XXXX 3      h*      H   0.410
H2793   13.761038339   67.626335844    8.661875188 XXXX 3      h*      H   0.410
H2794   13.906300540   60.446070744   25.166450222 XXXX 3      h*      H   0.410
H2795   18.694572184   65.317848384    8.181442243 XXXX 3      h*      H   0.410
H2796    6.962456593   57.802555021   14.648476515 XXXX 3      h*      H   0.410
H2797    4.548132883   60.306550200   21.982985575 XXXX 3      h*      H   0.410
H2798   19.998728547   50.299463496   14.936155642 XXXX 3      h*      H   0.410
H2799    5.032268112   40.328095682   18.050514560 XXXX 3      h*      H   0.410
H2800   28.680973807   91.181872964   16.892681975 XXXX 3      h*      H   0.410
H2801   -1.531161071   61.407318955   21.187550713 XXXX 3      h*      H   0.410
H2802   23.762003573   45.241949475   23.895775136 XXXX 3      h*      H   0.410
H2803   33.772488894   73.503032247   25.852742530 XXXX 3      h*      H   0.410
H2804   24.918538154   77.445855168   23.008386231 XXXX 3      h*      H   0.410
H2805   12.787511983   68.384585402    9.579531566 XXXX 3      h*      H   0.410
H2806   13.615646023   61.913979798   25.082628414 XXXX 3      h*      H   0.410
H2807   17.881707246   64.600739003    7.057701422 XXXX 3      h*      H   0.410
H2808    8.380099403   57.527807598   14.470471228 XXXX 3      h*      H   0.410
H2809    3.772049715   59.344707110   21.442619931 XXXX 3      h*      H   0.410
H2810   21.022996150   50.952209720   13.999392216 XXXX 3      h*      H   0.410
H2811    4.752942600   41.724927530   18.229545762 XXXX 3      h*      H   0.410
H2812   27.294810989   90.626370867   17.380911507 XXXX 3      h*      H   0.410
H2813   -1.144342591   60.050163334   21.911611858 XXXX 3      h*      H   0.410
H2814   22.835210886   45.539069067   22.715629283 XXXX 3      h*      H   0.410
O1408    2.578080053   47.763707337    3.908580483 XXXX 3      o*      O  -0.820
O1409   15.114501998   57.357616833   19.004161210 XXXX 3      o*      O  -0.820
O1410   18.427927177   59.585251896   22.552267575 XXXX 3      o*      O  -0.820
H2815    1.717129840   47.984106381    3.473869710 XXXX 3      h*      H   0.410
H2816   15.451236961   58.100242242   19.582235478 XXXX 3      h*      H   0.410
H2817   17.907762899   59.874583126   23.316441615 XXXX 3      h*      H   0.410
H2818    3.115584420   48.525369944    3.592525429 XXXX 3      h*      H   0.410
H2819   15.544906953   56.538876467   19.383803704 XXXX 3      h*      H   0.410
H2820   18.460534246   58.608665640   22.689528629 XXXX 3      h*      H   0.410
O1411   11.363603042   82.649055743   15.271224603 XXXX 3      o*      O  -0.820
O1412   -0.779107146   58.438823574   28.300368860 XXXX 3      o*      O  -0.820
O1413    5.201574467   45.848865338   12.387868353 XXXX 3      o*      O  -0.820
O1414   21.323637706   69.831711924   21.341619427 XXXX 3      o*      O  -0.820
H2821   12.046828965   82.781641482   14.588085702 XXXX 3      h*      H   0.410
H2822   -0.300417974   57.884208654   28.935879868 XXXX 3      h*      H   0.410
H2823    4.293521281   46.079913004   12.195282261 XXXX 3      h*      H   0.410
H2824   22.100323913   69.421726153   20.833808338 XXXX 3      h*      H   0.410
H2825   10.515994529   83.013833184   14.842761055 XXXX 3      h*      H   0.410
H2826   -1.638666992   57.988388369   28.157366667 XXXX 3      h*      H   0.410
H2827    5.147612334   45.187471166   13.113349569 XXXX 3      h*      H   0.410
H2828   20.895506183   69.092554769   21.852119281 XXXX 3      h*      H   0.410
O1415   21.330238757   42.995315439   -2.733857406 XXXX 3      o*      O  -0.820
O1416    0.301687375   78.481059792   11.378380598 XXXX 3      o*      O  -0.820
H2829   21.403091224   42.027663509   -2.454953816 XXXX 3      h*      H   0.410
H2830    1.222177622   78.097104986   11.322938669 XXXX 3      h*      H   0.410
H2831   20.439776805   43.108603178   -2.386455157 XXXX 3      h*      H   0.410
H2832   -0.094147324   77.857002862   12.035498030 XXXX 3      h*      H   0.410
O1417   11.885623735   37.553276993   11.427933880 XXXX 3      o*      O  -0.820
O1418   33.013634628   57.624406205    3.105147361 XXXX 3      o*      O  -0.820
H2833   12.772728098   37.074573644   11.138768968 XXXX 3      h*      H   0.410
H2834   33.202600757   57.125368217    2.282098395 XXXX 3      h*      H   0.410
H2835   11.304906158   36.791527633   11.513960742 XXXX 3      h*      H   0.410
H2836   32.671894912   56.849449716    3.613152019 XXXX 3      h*      H   0.410
O1419   22.830275130   51.801743006   10.258945224 XXXX 3      o*      O  -0.820
H2837   23.213139487   51.346671968    9.476462523 XXXX 3      h*      H   0.410
H2838   23.370274331   51.316544678   10.950960027 XXXX 3      h*      H   0.410
O1420   24.064660203   37.581248439   30.740451527 XXXX 3      o*      O  -0.820
O1421   12.999638151   55.168457219    1.079970753 XXXX 3      o*      O  -0.820
H2839   24.851752996   37.564721194   31.325225579 XXXX 3      h*      H   0.410
H2840   13.069809180   54.369480266    0.524926347 XXXX 3      h*      H   0.410
H2841   23.604927812   36.771745061   31.061291882 XXXX 3      h*      H   0.410
H2842   13.348237203   54.828774963    1.883399148 XXXX 3      h*      H   0.410
O1422   20.686370412   44.361918466   11.594249114 XXXX 3      o*      O  -0.820
O1423   28.228482191   87.698418164   10.915062000 XXXX 3      o*      O  -0.820
O1424   16.973552409   51.734461419   16.236828197 XXXX 3      o*      O  -0.820
O1425   28.927023973   72.346046127    1.101448692 XXXX 3      o*      O  -0.820
O1426    2.910609173   58.447260977   14.503183305 XXXX 3      o*      O  -0.820
O1427    6.988081069   51.703990364   18.611016333 XXXX 3      o*      O  -0.820
O1428   21.474473037   58.902354094   15.667696173 XXXX 3      o*      O  -0.820
O1429    1.961777388   82.150917136    6.849854460 XXXX 3      o*      O  -0.820
O1430   21.554747353   84.520096733   18.136427427 XXXX 3      o*      O  -0.820
O1431   29.897942437   81.243019857   30.595803732 XXXX 3      o*      O  -0.820
H2843   20.259079514   43.773494042   10.976236321 XXXX 3      h*      H   0.410
H2844   27.572213893   86.976180940   10.579934236 XXXX 3      h*      H   0.410
H2845   16.174881293   51.444310474   15.772931009 XXXX 3      h*      H   0.410
H2846   29.314225719   72.528231522    2.021501938 XXXX 3      h*      H   0.410
H2847    2.733432287   57.767181523   15.076507829 XXXX 3      h*      H   0.410
H2848    6.872387575   51.577361041   17.678468365 XXXX 3      h*      H   0.410
H2849   22.033912325   58.069101223   15.571103899 XXXX 3      h*      H   0.410
H2850    1.673797473   81.292212806    7.247499700 XXXX 3      h*      H   0.410
H2851   21.465609224   83.995521039   18.943140466 XXXX 3      h*      H   0.410
H2852   30.623785490   80.742758275   31.044202275 XXXX 3      h*      H   0.410
H2853   21.623734920   44.016290673   11.725242713 XXXX 3      h*      H   0.410
H2854   29.081410233   87.290929025   10.628838355 XXXX 3      h*      H   0.410
H2855   16.779720370   51.383289805   17.083350318 XXXX 3      h*      H   0.410
H2856   29.823673323   72.387163058    0.510912268 XXXX 3      h*      H   0.410
H2857    2.018931554   58.771469586   14.582899338 XXXX 3      h*      H   0.410
H2858    6.108500391   51.403904140   18.935047572 XXXX 3      h*      H   0.410
H2859   20.881763709   58.737049599   14.929638908 XXXX 3      h*      H   0.410
H2860    2.367664165   82.642540626    7.669102508 XXXX 3      h*      H   0.410
H2861   21.601171061   83.727682964   17.570768412 XXXX 3      h*      H   0.410
H2862   30.327569588   81.259496710   29.682571700 XXXX 3      h*      H   0.410
O1432   16.043515859   46.558053059   12.273167285 XXXX 3      o*      O  -0.820
O1433   28.684900287   83.731107310   25.356352805 XXXX 3      o*      O  -0.820
O1434    3.131006158   38.348849930    9.847859525 XXXX 3      o*      O  -0.820
O1435    9.765979296   78.590933467   17.016462279 XXXX 3      o*      O  -0.820
O1436   26.155924586   37.216980775   24.488048670 XXXX 3      o*      O  -0.820
O1437   24.086592174   48.607713832   10.703814305 XXXX 3      o*      O  -0.820
O1438   10.424922334   65.007856034    1.481264255 XXXX 3      o*      O  -0.820
O1439    6.265271632   55.532311973   18.035681665 XXXX 3      o*      O  -0.820
O1440   24.537866565   35.689346001   19.650347592 XXXX 3      o*      O  -0.820
O1441   34.772031343   67.284313737    8.678450464 XXXX 3      o*      O  -0.820
O1442    2.351544741   45.547074451   25.494248012 XXXX 3      o*      O  -0.820
O1443    0.244586334   40.614238654   15.735509359 XXXX 3      o*      O  -0.820
O1444    2.036680191   50.607788555    5.869726097 XXXX 3      o*      O  -0.820
O1445   14.217165900   58.143802079    1.134215385 XXXX 3      o*      O  -0.820
H2863   16.681267557   45.871334306   12.126826347 XXXX 3      h*      H   0.410
H2864   27.995762449   83.250806577   25.899721577 XXXX 3      h*      H   0.410
H2865    2.300085189   38.487505211   10.351170881 XXXX 3      h*      H   0.410
H2866   10.254862121   78.130501804   17.763747651 XXXX 3      h*      H   0.410
H2867   27.060559902   37.059531271   24.995938506 XXXX 3      h*      H   0.410
H2868   23.584098713   47.713024427   10.452201430 XXXX 3      h*      H   0.410
H2869    9.804848802   64.659975803    2.156793080 XXXX 3      h*      H   0.410
H2870    7.139224558   55.863593340   17.702500355 XXXX 3      h*      H   0.410
H2871   23.572158639   35.781050612   19.497726134 XXXX 3      h*      H   0.410
H2872   35.065939823   66.492679172    9.094805674 XXXX 3      h*      H   0.410
H2873    2.059017159   45.557934970   26.379819959 XXXX 3      h*      H   0.410
H2874    1.009826773   39.997160770   15.809707527 XXXX 3      h*      H   0.410
H2875    1.947913686   50.789648996    6.933294870 XXXX 3      h*      H   0.410
H2876   13.883669919   57.883533513    0.226261181 XXXX 3      h*      H   0.410
H2877   16.526112142   47.148726897   12.864096843 XXXX 3      h*      H   0.410
H2878   28.092128286   84.482049403   25.091349835 XXXX 3      h*      H   0.410
H2879    2.823988044   38.136698111    8.945216275 XXXX 3      h*      H   0.410
H2880    9.622471071   77.881843676   16.398247439 XXXX 3      h*      H   0.410
H2881   26.184233229   36.498855710   23.804908000 XXXX 3      h*      H   0.410
H2882   24.480443343   48.766568676    9.811937856 XXXX 3      h*      H   0.410
H2883   11.194760889   64.493054666    1.745822743 XXXX 3      h*      H   0.410
H2884    6.341515981   54.686045557   17.590936166 XXXX 3      h*      H   0.410
H2885   24.640141438   34.622174106   19.659452726 XXXX 3      h*      H   0.410
H2886   34.056127299   67.628572719    9.328952276 XXXX 3      h*      H   0.410
H2887    1.519793126   45.317522052   25.078144761 XXXX 3      h*      H   0.410
H2888   -0.356590002   40.271409382   16.409024552 XXXX 3      h*      H   0.410
H2889    1.070592645   50.495308477    5.722113483 XXXX 3      h*      H   0.410
H2890   14.963497975   57.541260336    1.344914836 XXXX 3      h*      H   0.410
O1446    3.504249403   61.102797173    7.784846161 XXXX 3      o*      O  -0.820
O1447   25.292837720   74.482841825   16.276409036 XXXX 3      o*      O  -0.820
O1448   17.718716894   69.746256761   23.918440038 XXXX 3      o*      O  -0.820
O1449   14.567323640   72.175178966   18.251309125 XXXX 3      o*      O  -0.820
H2891    4.348164736   60.618885159    7.830984223 XXXX 3      h*      H   0.410
H2892   24.943740754   75.171195879   15.646887026 XXXX 3      h*      H   0.410
H2893   17.950252882   69.457298667   24.826994439 XXXX 3      h*      H   0.410
H2894   15.357503533   71.850136644   18.778140770 XXXX 3      h*      H   0.410
H2895    3.514648149   61.214103884    6.813735579 XXXX 3      h*      H   0.410
H2896   24.451386900   74.278388632   16.769988074 XXXX 3      h*      H   0.410
H2897   18.527712114   69.436798206   23.509330848 XXXX 3      h*      H   0.410
H2898   13.921506019   72.253630665   19.019146904 XXXX 3      h*      H   0.410
O1450   23.777140219   48.275633311   29.513119380 XXXX 3      o*      O  -0.820
O1451   14.381860757   59.394054774    8.484281782 XXXX 3      o*      O  -0.820
H2899   23.843300850   47.393626201   29.877706298 XXXX 3      h*      H   0.410
H2900   14.179602757   58.457008707    8.228140709 XXXX 3      h*      H   0.410
H2901   23.819473323   48.157657164   28.509709076 XXXX 3      h*      H   0.410
H2902   15.353351825   59.264127559    8.497393469 XXXX 3      h*      H   0.410
O1452   12.464444853   42.825303954    8.643692887 XXXX 3      o*      O  -0.820
H2903   12.914049458   42.112984616    8.080728179 XXXX 3      h*      H   0.410
H2904   11.733281290   42.975378251    8.015181167 XXXX 3      h*      H   0.410
O1453    5.051756535   72.858572158   22.930456916 XXXX 3      o*      O  -0.820
H2905    4.859025126   72.827903548   23.890187896 XXXX 3      h*      H   0.410
H2906    4.958812829   71.889753020   22.715906514 XXXX 3      h*      H   0.410
O1454   12.699187279   63.531230066   17.505335860 XXXX 3      o*      O  -0.820
H2907   11.817845048   63.162347682   17.406114584 XXXX 3      h*      H   0.410
H2908   13.095471459   62.778875504   17.961146029 XXXX 3      h*      H   0.410
O1455   10.926128517   82.942263047   30.985790943 XXXX 3      o*      O  -0.820
H2909   11.501773826   82.288513948   30.427635980 XXXX 3      h*      H   0.410
H2910   11.404784176   82.843699133   31.865308441 XXXX 3      h*      H   0.410
O1456    1.838730567   89.102759233   28.967485715 XXXX 3      o*      O  -0.820
H2911    1.111413568   88.992007045   29.597025996 XXXX 3      h*      H   0.410
H2912    2.170122879   89.976931214   29.352206512 XXXX 3      h*      H   0.410
O1457   12.290497586   62.611929419   32.263383719 XXXX 3      o*      O  -0.820
H2913   12.936691985   62.187281646   32.886565915 XXXX 3      h*      H   0.410
H2914   12.329256478   61.994467607   31.487833750 XXXX 3      h*      H   0.410
O1458   14.396997563   51.172185195   15.366055721 XXXX 3      o*      O  -0.820
O1459   23.025182450   50.030989559   13.110351309 XXXX 3      o*      O  -0.820
H2915   14.054005634   51.108401320   16.306594963 XXXX 3      h*      H   0.410
H2916   22.548090143   49.225259532   12.896671177 XXXX 3      h*      H   0.410
H2917   13.495916006   51.247327941   14.888001146 XXXX 3      h*      H   0.410
H2918   23.830978887   49.851069349   12.608477889 XXXX 3      h*      H   0.410
O1460   22.770377092   76.903489554   28.553934959 XXXX 3      o*      O  -0.820
H2919   23.472493367   76.663807360   29.236556875 XXXX 3      h*      H   0.410
H2920   23.138988647   76.404672558   27.774958211 XXXX 3      h*      H   0.410
O1461   22.434543629   89.589320921    7.222838941 XXXX 3      o*      O  -0.820
H2921   22.414787734   88.946069006    7.949963355 XXXX 3      h*      H   0.410
H2922   23.272796339   89.266542684    6.868520915 XXXX 3      h*      H   0.410
O1462   25.659970589   34.384064219   23.552771309 XXXX 3      o*      O  -0.820
O1463   24.968404203   71.018293248   24.858808324 XXXX 3      o*      O  -0.820
H2923   25.109277034   33.609253365   23.361704359 XXXX 3      h*      H   0.410
H2924   24.177800033   70.441741295   24.486218063 XXXX 3      h*      H   0.410
H2925   26.267329066   34.277496057   22.796379017 XXXX 3      h*      H   0.410
H2926   25.716773409   70.368029992   24.783739739 XXXX 3      h*      H   0.410
O1464   22.529123553   62.360809487    4.248829599 XXXX 3      o*      O  -0.820
H2927   22.035577479   62.408158853    5.147278085 XXXX 3      h*      H   0.410
H2928   22.862459926   61.432688181    4.279882486 XXXX 3      h*      H   0.410
O1465   20.403196757   76.307142894   16.721020603 XXXX 3      o*      O  -0.820
O1466    6.447301839   68.769056931   10.615143112 XXXX 3      o*      O  -0.820
H2929   20.047337104   75.397487566   16.883388752 XXXX 3      h*      H   0.410
H2930    6.428915944   67.914929504   10.210853275 XXXX 3      h*      H   0.410
H2931   21.286892691   76.136611167   16.419755959 XXXX 3      h*      H   0.410
H2932    6.839798209   68.517432945   11.439876928 XXXX 3      h*      H   0.410
O1467   21.440033444   48.125984551   21.055378006 XXXX 3      o*      O  -0.820
O1468    7.584819104   60.492357084   19.414173871 XXXX 3      o*      O  -0.820
O1469   19.429785733   81.836800467   15.697422498 XXXX 3      o*      O  -0.820
O1470   14.976618862   37.076164064   14.126519210 XXXX 3      o*      O  -0.820
H2933   22.342455272   47.820815226   20.845513941 XXXX 3      h*      H   0.410
H2934    8.288730655   59.858812460   19.687082120 XXXX 3      h*      H   0.410
H2935   19.255418597   82.493783698   14.983885658 XXXX 3      h*      H   0.410
H2936   14.353478859   36.389933651   13.890615215 XXXX 3      h*      H   0.410
H2937   21.356247315   47.795511017   21.946470614 XXXX 3      h*      H   0.410
H2938    6.998822920   59.960842860   18.880715492 XXXX 3      h*      H   0.410
H2939   19.449997153   80.972284451   15.295080405 XXXX 3      h*      H   0.410
H2940   14.925206712   37.004722707   15.121458675 XXXX 3      h*      H   0.410
O1471    8.981151547   75.212423271    8.083586912 XXXX 3      o*      O  -0.820
H2941    9.613683505   74.801701868    8.741991510 XXXX 3      h*      H   0.410
H2942    8.763438519   74.406743416    7.580863787 XXXX 3      h*      H   0.410
O1472   15.563155761   53.427273847   28.154487368 XXXX 3      o*      O  -0.820
H2943   14.879630359   53.850626504   27.623179000 XXXX 3      h*      H   0.410
H2944   15.030294950   52.897186430   28.720649816 XXXX 3      h*      H   0.410
O1473    3.968436120   41.441439650    5.984520589 XXXX 3      o*      O  -0.820
O1474    9.010763759   65.887684618   20.954224766 XXXX 3      o*      O  -0.820
H2945    4.126358840   40.537728470    5.546133755 XXXX 3      h*      H   0.410
H2946    9.124715485   64.906459171   21.024726555 XXXX 3      h*      H   0.410
H2947    3.605994765   41.170716352    6.850233399 XXXX 3      h*      H   0.410
H2948    9.500398683   66.057823726   20.156547744 XXXX 3      h*      H   0.410
O1475    2.831739893   60.009208565   11.350132866 XXXX 3      o*      O  -0.820
H2949    2.814084213   59.026986281   11.452713139 XXXX 3      h*      H   0.410
H2950    2.630950428   60.248106293   12.273082945 XXXX 3      h*      H   0.410
O1476   30.294362750   89.568099971   11.896085087 XXXX 3      o*      O  -0.820
H2951   29.540457963   88.896657504   11.775579779 XXXX 3      h*      H   0.410
H2952   30.682560296   89.244257221   12.736470497 XXXX 3      h*      H   0.410
O1477   27.588186893   82.254143938   -1.305988032 XXXX 3      o*      O  -0.820
H2953   28.377795526   82.012475050   -0.720687069 XXXX 3      h*      H   0.410
H2954   27.753543535   81.704221985   -2.076153957 XXXX 3      h*      H   0.410
O1478    9.441149443   58.970330567   20.972739797 XXXX 3      o*      O  -0.820
H2955    9.393260128   58.851133004   21.956272194 XXXX 3      h*      H   0.410
H2956   10.202200535   59.668390953   20.886112831 XXXX 3      h*      H   0.410
O1479    0.065882417   72.268088275   27.181171218 XXXX 3      o*      O  -0.820
H2957    0.771041681   71.710942088   26.604620562 XXXX 3      h*      H   0.410
H2958   -0.319703960   71.525121627   27.676665837 XXXX 3      h*      H   0.410
O1480   28.575074669   74.489054512   26.501821708 XXXX 3      o*      O  -0.820
H2959   29.192639555   75.221438782   26.757174061 XXXX 3      h*      H   0.410
H2960   29.175573779   73.774381915   26.268512215 XXXX 3      h*      H   0.410
O1481   30.497980324   51.304935905    1.192195787 XXXX 3      o*      O  -0.820
H2961   30.042672578   51.484349775    0.338314408 XXXX 3      h*      H   0.410
H2962   31.286513314   51.983939369    1.160413677 XXXX 3      h*      H   0.410
O1482    9.069487444   39.221337262   21.138762285 XXXX 3      o*      O  -0.820
O1483   14.948140613   91.356480061   28.242628595 XXXX 3      o*      O  -0.820
H2963    8.727801406   38.586954068   20.468505775 XXXX 3      h*      H   0.410
H2964   14.849898405   90.378020485   28.018770612 XXXX 3      h*      H   0.410
H2965    8.658478607   38.862168927   21.938657785 XXXX 3      h*      H   0.410
H2966   15.826643194   91.423613192   28.733210435 XXXX 3      h*      H   0.410
O1484    0.758527713   76.040933382   23.351864875 XXXX 3      o*      O  -0.820
H2967    0.668020127   75.037900283   23.286812004 XXXX 3      h*      H   0.410
H2968    1.102360872   76.127603854   22.426646973 XXXX 3      h*      H   0.410
O1485   29.614709075   36.124442831    2.753865910 XXXX 3      o*      O  -0.820
H2969   28.920415079   35.421057875    2.607374458 XXXX 3      h*      H   0.410
H2970   30.063879512   35.523621078    3.366825561 XXXX 3      h*      H   0.410
O1486    9.110526203   51.608329497   20.617760657 XXXX 3      o*      O  -0.820
O1487    7.155503578   81.089677499    0.040387145 XXXX 3      o*      O  -0.820
H2971    8.317169440   51.928895519   20.125963889 XXXX 3      h*      H   0.410
H2972    8.055689335   80.847896020   -0.432949831 XXXX 3      h*      H   0.410
H2973    9.105629787   50.726976071   20.210295342 XXXX 3      h*      H   0.410
H2974    6.703512116   80.242782064    0.047780427 XXXX 3      h*      H   0.410
O1488   12.731336600   36.806781813   24.993160626 XXXX 3      o*      O  -0.820
O1489   16.135577804   81.466013337   14.450935178 XXXX 3      o*      O  -0.820
H2975   13.066553760   37.090939039   25.909384372 XXXX 3      h*      H   0.410
H2976   15.466724875   81.000860433   13.873553762 XXXX 3      h*      H   0.410
H2977   11.792677912   36.813102520   25.222647069 XXXX 3      h*      H   0.410
H2978   17.006497550   81.048556429   14.150897620 XXXX 3      h*      H   0.410
O1490   30.271723525   64.995912873   21.561254834 XXXX 3      o*      O  -0.820
O1491    8.744751074   90.061833059   24.854107666 XXXX 3      o*      O  -0.820
O1492   18.610203154   61.958594108   14.016346081 XXXX 3      o*      O  -0.820
O1493   16.779872497   85.847954288   18.268151297 XXXX 3      o*      O  -0.820
H2979   30.179925742   65.046330500   22.562688994 XXXX 3      h*      H   0.410
H2980    8.906243335   89.237763441   24.294134973 XXXX 3      h*      H   0.410
H2981   19.297466645   62.179606964   14.742219749 XXXX 3      h*      H   0.410
H2982   15.889658708   85.649420341   18.600021935 XXXX 3      h*      H   0.410
H2983   30.718252124   64.106910385   21.383562512 XXXX 3      h*      H   0.410
H2984    9.527301711   90.649398324   24.459532819 XXXX 3      h*      H   0.410
H2985   18.403033696   61.011503911   14.109891669 XXXX 3      h*      H   0.410
H2986   17.182984401   84.954028939   18.327887564 XXXX 3      h*      H   0.410
O1494    7.848827438   71.854046708   16.448254884 XXXX 3      o*      O  -0.820
H2987    7.245649270   71.779693784   15.689851582 XXXX 3      h*      H   0.410
H2988    8.617482205   71.486262912   15.852813454 XXXX 3      h*      H   0.410
O1495    7.959025233   41.328696122   17.033454455 XXXX 3      o*      O  -0.820
H2989    8.839708703   40.864838900   17.337878554 XXXX 3      h*      H   0.410
H2990    7.512800700   41.515751773   17.864827734 XXXX 3      h*      H   0.410
O1496    5.724821053   45.804500147   19.964623996 XXXX 3      o*      O  -0.820
H2991    5.914054085   46.385243157   19.188330740 XXXX 3      h*      H   0.410
H2992    6.374901281   46.256836646   20.542334163 XXXX 3      h*      H   0.410
O1497    1.682143720   35.048945129   22.444404645 XXXX 3      o*      O  -0.820
H2993    0.843594292   34.544744587   22.813316374 XXXX 3      h*      H   0.410
H2994    1.326636736   35.160362615   21.494431902 XXXX 3      h*      H   0.410
O1498    6.640612331   63.062043722    6.352997279 XXXX 3      o*      O  -0.820
H2995    6.135982116   63.067065364    5.514465220 XXXX 3      h*      H   0.410
H2996    6.774904683   62.082563038    6.531264845 XXXX 3      h*      H   0.410
O1499    5.277960897   61.298631231   10.582872161 XXXX 3      o*      O  -0.820
H2997    5.939153718   60.577427595   10.414303127 XXXX 3      h*      H   0.410
H2998    4.439217213   60.726068319   10.595758910 XXXX 3      h*      H   0.410
O1500   22.649522538   86.053540666   12.633932413 XXXX 3      o*      O  -0.820
H2999   22.856382276   85.174776785   13.149748740 XXXX 3      h*      H   0.410
H3000   23.481004059   86.077041449   12.108085239 XXXX 3      h*      H   0.410
O1501   10.709633238   82.502058761    7.736184981 XXXX 3      o*      O  -0.820
H3001   10.142012100   81.643766270    7.677539607 XXXX 3      h*      H   0.410
H3002   11.562273980   82.109174266    7.506915592 XXXX 3      h*      H   0.410
O1502   17.411876213   56.548880469   16.947029227 XXXX 3      o*      O  -0.820
H3003   17.117560688   56.547451010   17.888933725 XXXX 3      h*      H   0.410
H3004   18.147253057   55.898870738   16.850655943 XXXX 3      h*      H   0.410
O1503    1.754447921   52.177525608   14.963590824 XXXX 3      o*      O  -0.820
H3005    1.424154808   51.358842553   15.347907662 XXXX 3      h*      H   0.410
H3006    0.868846492   52.651481415   14.901341850 XXXX 3      h*      H   0.410
O1504   25.601578771   59.747518766   10.400266757 XXXX 3      o*      O  -0.820
H3007   26.188851983   58.977541534   10.669726980 XXXX 3      h*      H   0.410
H3008   25.129796352   59.392799819    9.636089228 XXXX 3      h*      H   0.410
O1505    2.974485471   46.974736992    0.128831554 XXXX 3      o*      O  -0.820
H3009    3.531590734   46.300255142    0.701128086 XXXX 3      h*      H   0.410
H3010    3.392443184   47.821719620    0.417338461 XXXX 3      h*      H   0.410
O1506    3.779398445   33.395149179   19.589477424 XXXX 3      o*      O  -0.820
H3011    4.110176954   32.450442847   19.479814182 XXXX 3      h*      H   0.410
H3012    4.180767848   33.453719310   20.457075803 XXXX 3      h*      H   0.410
O1507    0.440898425   91.289642945    9.808376828 XXXX 3      o*      O  -0.820
H3013   -0.157525789   90.810577345   10.401996400 XXXX 3      h*      H   0.410
H3014    1.161448008   90.590180171    9.898572203 XXXX 3      h*      H   0.410
O1508    8.917718716   42.639877274   11.276008585 XXXX 3      o*      O  -0.820
H3015    8.676867418   41.854440961   11.892013743 XXXX 3      h*      H   0.410
H3016    9.437591214   42.130790108   10.624357800 XXXX 3      h*      H   0.410
O1509   24.535869769   87.127900563   10.214482757 XXXX 3      o*      O  -0.820
H3017   24.738306280   87.991289882   10.551628948 XXXX 3      h*      H   0.410
H3018   25.335582269   86.647406788   10.224764369 XXXX 3      h*      H   0.410
O1510   20.499619151   57.691373601   33.584709370 XXXX 3      o*      O  -0.820
H3019   20.589872156   58.350594840   34.311736080 XXXX 3      h*      H   0.410
H3020   21.099041968   58.053482515   32.910198952 XXXX 3      h*      H   0.410
O1511    8.890638855   64.179780637   17.535056368 XXXX 3      o*      O  -0.820
H3021    7.957750768   64.140254836   17.689658477 XXXX 3      h*      H   0.410
H3022    8.837114757   64.047354558   16.581913099 XXXX 3      h*      H   0.410
O1512   24.935948569   82.843054654   16.808720218 XXXX 3      o*      O  -0.820
H3023   24.008152822   82.426199917   16.888800853 XXXX 3      h*      H   0.410
H3024   25.271195613   82.577892057   17.716689300 XXXX 3      h*      H   0.410
O1513   25.771502328   63.598970282   25.659895544 XXXX 3      o*      O  -0.820
H3025   26.098588390   63.741734255   24.759787676 XXXX 3      h*      H   0.410
H3026   25.717494061   62.630229722   25.621785249 XXXX 3      h*      H   0.410
O1514   16.338380425   78.586983931    5.431712899 XXXX 3      o*      O  -0.820
H3027   16.649319214   78.272783045    4.532429455 XXXX 3      h*      H   0.410
H3028   16.430198656   77.677101071    5.826990557 XXXX 3      h*      H   0.410
O1515   32.394420182   30.755606842   -0.094757356 XXXX 3      o*      O  -0.820
H3029   33.080117962   30.391243159   -0.724963723 XXXX 3      h*      H   0.410
H3030   31.582238372   30.689906306   -0.675272408 XXXX 3      h*      H   0.410
O1516    5.110234064   89.113280016   21.400413898 XXXX 3      o*      O  -0.820
H3031    4.303589485   88.661823544   21.742861501 XXXX 3      h*      H   0.410
H3032    4.727706947   89.589328192   20.599055415 XXXX 3      h*      H   0.410
O1517   18.650287389   41.107367165   12.287909848 XXXX 3      o*      O  -0.820
H3033   18.318133386   40.325493373   12.784371496 XXXX 3      h*      H   0.410
H3034   19.018495594   40.742074500   11.480158516 XXXX 3      h*      H   0.410
O1518   17.272660246   65.453240281   23.754039723 XXXX 3      o*      O  -0.820
H3035   16.349997287   65.355043091   24.120894041 XXXX 3      h*      H   0.410
H3036   17.820552277   64.901267049   24.415001276 XXXX 3      h*      H   0.410
O1519   19.135650979   34.979381871    4.433485036 XXXX 3      o*      O  -0.820
H3037   19.126191731   34.486212122    3.577616729 XXXX 3      h*      H   0.410
H3038   19.491606253   34.105108315    4.836645674 XXXX 3      h*      H   0.410
O1520   21.024741397   60.816280831   18.544355538 XXXX 3      o*      O  -0.820
O1521   26.295587294   62.671338110   21.844530788 XXXX 3      o*      O  -0.820
H3039   20.918125227   60.043915073   19.099904781 XXXX 3      h*      H   0.410
H3040   25.602307023   62.159295353   22.359172940 XXXX 3      h*      H   0.410
H3041   21.361549908   61.363566178   19.293740577 XXXX 3      h*      H   0.410
H3042   27.088497004   62.260780200   22.193136100 XXXX 3      h*      H   0.410
O1522    6.607543507   68.884345569   18.848234508 XXXX 3      o*      O  -0.820
H3043    6.925765038   68.919198264   17.908328545 XXXX 3      h*      H   0.410
H3044    6.448943422   67.925555328   19.021187858 XXXX 3      h*      H   0.410
O1523   -6.817900722   49.749345525   24.933901014 XXXX 3      o*      O  -0.820
H3045   -6.847287778   48.891144133   25.409627268 XXXX 3      h*      H   0.410
H3046   -7.721212688   50.090953661   25.183082818 XXXX 3      h*      H   0.410
O1524   15.386931174   46.319339348   19.907772349 XXXX 3      o*      O  -0.820
O1525    6.194974427   66.635943088   13.209657066 XXXX 3      o*      O  -0.820
H3047   15.328981156   47.017560859   19.253333829 XXXX 3      h*      H   0.410
H3048    5.465259074   65.992462659   13.346577856 XXXX 3      h*      H   0.410
H3049   15.457800084   45.507536407   19.414768339 XXXX 3      h*      H   0.410
H3050    6.667982124   66.282195610   12.400309455 XXXX 3      h*      H   0.410
O1526   16.390356416   59.137583247   20.868656899 XXXX 3      o*      O  -0.820
O1527   30.666236104   47.902528121   22.060977949 XXXX 3      o*      O  -0.820
H3051   15.495844307   59.531923010   21.073392460 XXXX 3      h*      H   0.410
H3052   30.523735473   47.585660018   23.037645304 XXXX 3      h*      H   0.410
H3053   17.009711144   59.569186786   21.476187945 XXXX 3      h*      H   0.410
H3054   29.652874673   47.985936256   21.730486005 XXXX 3      h*      H   0.410
O1528   15.897159706   55.766446175   26.047707059 XXXX 3      o*      O  -0.820
H3055   15.090370735   55.344827220   25.792850033 XXXX 3      h*      H   0.410
H3056   16.464017748   55.000946420   25.787918600 XXXX 3      h*      H   0.410
O1529   20.647934184   43.526601161    3.316910992 XXXX 3      o*      O  -0.820
O1530   19.869895877   47.806051191   27.680664444 XXXX 3      o*      O  -0.820
O1531   16.426466491   48.672805022   23.410633257 XXXX 3      o*      O  -0.820
O1532   12.437204326   78.128608155   24.915628563 XXXX 3      o*      O  -0.820
H3057   21.582570273   43.447949750    3.125643247 XXXX 3      h*      H   0.410
H3058   19.306443545   48.013486001   26.902048250 XXXX 3      h*      H   0.410
H3059   17.028178567   48.982031908   24.100092931 XXXX 3      h*      H   0.410
H3060   12.991355569   77.826300625   25.786645901 XXXX 3      h*      H   0.410
H3061   20.567922410   43.229542280    4.229272144 XXXX 3      h*      H   0.410
H3062   20.280821150   47.044614936   27.224892324 XXXX 3      h*      H   0.410
H3063   16.449476298   47.681214020   23.602435200 XXXX 3      h*      H   0.410
H3064   12.628063185   77.324017957   24.349632713 XXXX 3      h*      H   0.410
O1533   23.945466602   43.832551204    6.050132055 XXXX 3      o*      O  -0.820
H3065   23.111654843   44.363204535    6.092191347 XXXX 3      h*      H   0.410
H3066   23.733819787   43.105092455    5.397050527 XXXX 3      h*      H   0.410
O1534    7.641163533   77.781616745   12.780986703 XXXX 3      o*      O  -0.820
H3067    6.999728674   77.798249614   12.062435379 XXXX 3      h*      H   0.410
H3068    8.183810394   77.030400959   12.551660961 XXXX 3      h*      H   0.410
O1535   11.431004763   79.384713887    3.345114917 XXXX 3      o*      O  -0.820
H3069   10.980849956   78.578751051    3.560313485 XXXX 3      h*      H   0.410
H3070   11.793853505   79.151740464    2.469602488 XXXX 3      h*      H   0.410
O1536   21.937543533   44.237627958   21.345497402 XXXX 3      o*      O  -0.820
H3071   21.543793971   44.313385543   20.459409171 XXXX 3      h*      H   0.410
H3072   21.724964617   43.296418410   21.606445675 XXXX 3      h*      H   0.410
O1537   20.499312341   89.251061702   16.745410310 XXXX 3      o*      O  -0.820
H3073   20.073306142   89.526417780   17.545093665 XXXX 3      h*      H   0.410
H3074   20.089492232   89.903270618   16.111017171 XXXX 3      h*      H   0.410
O1538   20.580110033   68.988310324   11.636373329 XXXX 3      o*      O  -0.820
H3075   20.214673876   68.901292287   12.594526064 XXXX 3      h*      H   0.410
H3076   21.138079065   69.891621991   11.686413405 XXXX 3      h*      H   0.410
O1539   20.445553478   53.581210517   28.759229623 XXXX 3      o*      O  -0.820
H3077   20.265873077   54.496029591   28.977608180 XXXX 3      h*      H   0.410
H3078   19.597072462   53.210515749   29.151892901 XXXX 3      h*      H   0.410
O1540   11.054687836   64.420417543   11.990845241 XXXX 3      o*      O  -0.820
H3079   10.637084893   63.674385488   11.456390371 XXXX 3      h*      H   0.410
H3080   11.982499406   64.135333342   12.008263205 XXXX 3      h*      H   0.410
O1541   -0.679061964   82.471647503   13.266864701 XXXX 3      o*      O  -0.820
H3081   -0.333364005   81.679474877   13.658017210 XXXX 3      h*      H   0.410
H3082   -0.087881463   83.190365318   13.536201243 XXXX 3      h*      H   0.410
O1542   17.070689758   31.617750395   15.258699253 XXXX 3      o*      O  -0.820
H3083   16.126603424   31.185141495   15.246771676 XXXX 3      h*      H   0.410
H3084   17.445053159   31.056279945   14.483348599 XXXX 3      h*      H   0.410
O1543   18.562332104   46.547045264    9.246463898 XXXX 3      o*      O  -0.820
H3085   18.744892522   45.741026391    8.751587425 XXXX 3      h*      H   0.410
H3086   17.734470546   46.252668043    9.753997779 XXXX 3      h*      H   0.410
O1544   24.957455334   43.798956854   23.820284082 XXXX 3      o*      O  -0.820
H3087   25.773000083   43.261712179   23.591378256 XXXX 3      h*      H   0.410
H3088   24.276556465   43.113139016   24.117700041 XXXX 3      h*      H   0.410
O1545   19.748344783   71.578374066   24.447556464 XXXX 3      o*      O  -0.820
H3089   20.287009206   72.413461034   24.337423776 XXXX 3      h*      H   0.410
H3090   18.938101473   71.789852117   23.940870691 XXXX 3      h*      H   0.410
O1546    0.687211706   47.972327076   13.452667883 XXXX 3      o*      O  -0.820
O1547   24.618858657   74.609456048   20.885165950 XXXX 3      o*      O  -0.820
H3091    0.217015384   47.124962544   13.251160790 XXXX 3      h*      H   0.410
H3092   25.405917542   74.664187731   21.373805962 XXXX 3      h*      H   0.410
H3093    0.835022320   47.801106416   14.380880968 XXXX 3      h*      H   0.410
H3094   24.239136183   73.766352124   21.017042409 XXXX 3      h*      H   0.410
O1548    4.179351177   52.609420938   22.565395413 XXXX 3      o*      O  -0.820
O1549    8.778608438   69.581971848    5.457288481 XXXX 3      o*      O  -0.820
H3095    4.588966172   51.692645899   22.503697433 XXXX 3      h*      H   0.410
H3096    8.204911702   69.125765530    6.138913905 XXXX 3      h*      H   0.410
H3097    4.899818273   53.026295136   22.018033140 XXXX 3      h*      H   0.410
H3098    9.672583061   69.144718971    5.660255804 XXXX 3      h*      H   0.410
O1550    8.800261885   51.991747104    5.699226843 XXXX 3      o*      O  -0.820
O1551    9.921535294   86.765965279   23.287207445 XXXX 3      o*      O  -0.820
H3099    8.354370792   51.401626994    5.100516007 XXXX 3      h*      H   0.410
H3100   10.085334141   87.313953683   22.507431109 XXXX 3      h*      H   0.410
H3101    9.724970062   52.031802969    5.441829589 XXXX 3      h*      H   0.410
H3102   10.223704284   85.879278026   22.970242655 XXXX 3      h*      H   0.410
O1552    9.263115739   38.536981860   29.018144532 XXXX 3      o*      O  -0.820
O1553   11.136513532   89.111585553   -0.954337640 XXXX 3      o*      O  -0.820
H3103    8.817998024   38.249192273   29.855076433 XXXX 3      h*      H   0.410
H3104   10.469882752   88.562856990   -1.383530944 XXXX 3      h*      H   0.410
H3105    9.057179446   37.659183160   28.577095532 XXXX 3      h*      H   0.410
H3106   11.609663955   88.366356016   -0.636489685 XXXX 3      h*      H   0.410
O1554   15.186836958   62.057764288    0.675626449 XXXX 3      o*      O  -0.820
O1555    6.442412441   71.539287641    7.710894422 XXXX 3      o*      O  -0.820
H3107   14.993795056   61.394894598    0.016861973 XXXX 3      h*      H   0.410
H3108    6.826092252   70.765450815    8.131334444 XXXX 3      h*      H   0.410
H3109   14.684503449   61.548781791    1.362338624 XXXX 3      h*      H   0.410
H3110    7.275643978   71.905251167    7.385708620 XXXX 3      h*      H   0.410
O1556   23.410327183   55.090107854   31.600722603 XXXX 3      o*      O  -0.820
H3111   22.609940330   54.571787387   31.454247078 XXXX 3      h*      H   0.410
H3112   23.897666138   54.485008867   32.232060098 XXXX 3      h*      H   0.410
O1557    2.944388296   34.780855671    0.183750693 XXXX 3      o*      O  -0.820
H3113    3.111608222   33.841176721    0.157134791 XXXX 3      h*      H   0.410
H3114    3.878464769   35.064270882    0.118899499 XXXX 3      h*      H   0.410
O1558   20.550646423   67.195931678   19.927093669 XXXX 3      o*      O  -0.820
H3115   21.157665211   66.473399751   20.290194234 XXXX 3      h*      H   0.410
H3116   20.097021093   66.689248176   19.217564158 XXXX 3      h*      H   0.410
O1559   30.694128257   83.021828998   23.187764658 XXXX 3      o*      O  -0.820
H3117   29.845144193   83.239488589   23.692316705 XXXX 3      h*      H   0.410
H3118   30.524577488   82.066975124   23.002445101 XXXX 3      h*      H   0.410
O1560   27.312100492   34.773907027   16.398813904 XXXX 3      o*      O  -0.820
H3119   26.421956779   34.837091193   16.706424976 XXXX 3      h*      H   0.410
H3120   27.816495270   34.784129333   17.201621477 XXXX 3      h*      H   0.410
O1561   27.687846790   62.306516946    5.420048471 XXXX 3      o*      O  -0.820
H3121   26.956419036   62.534582893    6.019209884 XXXX 3      h*      H   0.410
H3122   27.255198795   61.708668798    4.757449529 XXXX 3      h*      H   0.410
O1562   20.436722632   50.322493611    5.959657467 XXXX 3      o*      O  -0.820
H3123   19.683855942   50.147504908    6.558084391 XXXX 3      h*      H   0.410
H3124   20.459300283   49.506602809    5.445130223 XXXX 3      h*      H   0.410
O1563   12.804025179   61.802807947    8.477714748 XXXX 3      o*      O  -0.820
O1564   23.076929472   57.530062869   18.338609913 XXXX 3      o*      O  -0.820
H3125   13.536396927   61.633617298    9.080585966 XXXX 3      h*      H   0.410
H3126   23.269017494   58.375932812   17.883203418 XXXX 3      h*      H   0.410
H3127   12.678208110   60.866507237    8.248940415 XXXX 3      h*      H   0.410
H3128   22.192993170   57.182014021   18.034749968 XXXX 3      h*      H   0.410
O1565   27.287043382   52.947106286   19.605352023 XXXX 3      o*      O  -0.820
H3129   26.349950045   52.680622356   19.644663005 XXXX 3      h*      H   0.410
H3130   27.683270288   52.595854273   20.399093371 XXXX 3      h*      H   0.410
O1566    1.199758645   56.886602672   19.347580139 XXXX 3      o*      O  -0.820
H3131    1.979812481   56.603573140   19.761536448 XXXX 3      h*      H   0.410
H3132    1.038777907   56.133887820   18.742318966 XXXX 3      h*      H   0.410
O1567    3.602448457   65.667060632   13.852595967 XXXX 3      o*      O  -0.820
H3133    2.833385552   66.174502378   14.127336975 XXXX 3      h*      H   0.410
H3134    3.278038866   64.747330381   13.770696900 XXXX 3      h*      H   0.410
O1568   14.035243493   76.826623288   26.934350150 XXXX 3      o*      O  -0.820
H3135   14.023737057   75.962191564   26.446948366 XXXX 3      h*      H   0.410
H3136   14.612092123   76.680826716   27.701199011 XXXX 3      h*      H   0.410
O1569    1.610224249   43.286387462   22.671732614 XXXX 3      o*      O  -0.820
H3137    1.950850740   43.051540588   23.587051340 XXXX 3      h*      H   0.410
H3138    1.814208226   42.413148334   22.249114972 XXXX 3      h*      H   0.410
O1570   30.578826069   87.793082049   19.999225590 XXXX 3      o*      O  -0.820
H3139   31.479844346   87.902713694   19.649876549 XXXX 3      h*      H   0.410
H3140   30.769949192   87.043261139   20.623085273 XXXX 3      h*      H   0.410
O1571   15.213387783   65.942040372   25.708965267 XXXX 3      o*      O  -0.820
H3141   15.617339092   65.245966780   26.206499481 XXXX 3      h*      H   0.410
H3142   14.340356591   65.631436522   25.715237342 XXXX 3      h*      H   0.410
O1572   12.221865022   49.964690190   23.568444608 XXXX 3      o*      O  -0.820
H3143   11.672942292   49.235935251   24.035395374 XXXX 3      h*      H   0.410
H3144   13.018914803   49.774507728   24.087463640 XXXX 3      h*      H   0.410
O1573    9.435242564   63.013372411   23.209483131 XXXX 3      o*      O  -0.820
H3145    8.623608869   62.558144333   23.014252633 XXXX 3      h*      H   0.410
H3146    9.794265819   63.217267749   22.322513107 XXXX 3      h*      H   0.410
O1574   20.017465538   56.276045357   -1.435650993 XXXX 3      o*      O  -0.820
H3147   19.025096945   55.900645720   -1.386809294 XXXX 3      h*      H   0.410
H3148   19.910346790   57.037837209   -2.058376974 XXXX 3      h*      H   0.410
O1575   -1.870482572   44.112564418   23.517745120 XXXX 3      o*      O  -0.820
H3149   -0.925647437   43.918940266   23.705094716 XXXX 3      h*      H   0.410
H3150   -2.211762915   43.142006655   23.257454734 XXXX 3      h*      H   0.410
O1576    9.674428989   35.509558816   24.932416292 XXXX 3      o*      O  -0.820
H3151    8.811987476   35.218045771   24.583726815 XXXX 3      h*      H   0.410
H3152    9.772376884   34.816855620   25.601285296 XXXX 3      h*      H   0.410
O1577    2.973613460   66.955415916    6.104919964 XXXX 3      o*      O  -0.820
O1578   28.175622105   47.952986343    3.217870822 XXXX 3      o*      O  -0.820
H3153    2.207694055   67.601344580    6.112920578 XXXX 3      h*      H   0.410
H3154   29.175899393   48.010014796    3.167440024 XXXX 3      h*      H   0.410
H3155    3.351201085   67.046968849    7.002246269 XXXX 3      h*      H   0.410
H3156   27.979533116   47.769548792    2.307221274 XXXX 3      h*      H   0.410
O1579    4.725347310   90.405246754    6.205537976 XXXX 3      o*      O  -0.820
H3157    4.447919194   90.376388526    5.226685104 XXXX 3      h*      H   0.410
H3158    5.634023563   90.737996876    5.915840405 XXXX 3      h*      H   0.410
O1580   26.698026065   55.584075901   10.061461089 XXXX 3      o*      O  -0.820
O1581   20.150881410   58.887822263   20.310424933 XXXX 3      o*      O  -0.820
H3159   26.492921801   55.215693372    9.150844393 XXXX 3      h*      H   0.410
H3160   20.133496524   57.912410851   20.482012812 XXXX 3      h*      H   0.410
H3161   25.912229212   55.194160540   10.548874923 XXXX 3      h*      H   0.410
H3162   19.736601135   59.341845905   21.065084524 XXXX 3      h*      H   0.410
O1582    4.308913489   45.075018492   32.221663699 XXXX 3      o*      O  -0.820
H3163    4.585316170   45.035635270   33.153188115 XXXX 3      h*      H   0.410
H3164    5.018247928   44.481221811   31.842899300 XXXX 3      h*      H   0.410
O1583   24.380747546   42.884810886   27.666239205 XXXX 3      o*      O  -0.820
H3165   23.813799186   42.501444530   26.932360546 XXXX 3      h*      H   0.410
H3166   24.736043701   42.116132953   28.171673260 XXXX 3      h*      H   0.410
O1584   20.693176002   53.308563305   12.108264280 XXXX 3      o*      O  -0.820
H3167   21.021174961   52.638550667   11.391064536 XXXX 3      h*      H   0.410
H3168   21.186612599   53.059671299   12.859511324 XXXX 3      h*      H   0.410
O1585   19.039779672   52.287199361    4.594379013 XXXX 3      o*      O  -0.820
O1586   18.138656126   42.621528004   17.496439196 XXXX 3      o*      O  -0.820
H3169   19.550572486   51.584099249    4.985444940 XXXX 3      h*      H   0.410
H3170   18.179423987   41.733926530   17.892341067 XXXX 3      h*      H   0.410
H3171   18.921079197   51.884770839    3.676767140 XXXX 3      h*      H   0.410
H3172   18.292459441   42.206235741   16.571460341 XXXX 3      h*      H   0.410
O1587   18.709213769   51.326701875   26.997328180 XXXX 3      o*      O  -0.820
O1588   20.983533373   70.620352805    0.896431110 XXXX 3      o*      O  -0.820
O1589   22.998087013   59.045075064    3.948485585 XXXX 3      o*      O  -0.820
O1590    5.807464708   60.135006033    6.556991731 XXXX 3      o*      O  -0.820
H3173   18.697178278   50.796433896   27.860891320 XXXX 3      h*      H   0.410
H3174   21.516595824   70.507827541    0.122370352 XXXX 3      h*      H   0.410
H3175   23.126106269   58.165038875    4.467357720 XXXX 3      h*      H   0.410
H3176    5.627975120   59.428263525    5.839581586 XXXX 3      h*      H   0.410
H3177   18.120060129   50.690084105   26.523843605 XXXX 3      h*      H   0.410
H3178   20.026637024   70.424077667    0.593211404 XXXX 3      h*      H   0.410
H3179   23.457258456   58.901701087    3.082080192 XXXX 3      h*      H   0.410
H3180    6.549182869   59.821803694    6.983382997 XXXX 3      h*      H   0.410
O1591   21.339611238   86.668527723   23.801261030 XXXX 3      o*      O  -0.820
H3181   20.551448920   86.036843566   23.709214386 XXXX 3      h*      H   0.410
H3182   22.040804869   85.990733957   24.241837780 XXXX 3      h*      H   0.410
O1592    1.445561364   73.958956824    6.342925799 XXXX 3      o*      O  -0.820
H3183    1.627131213   74.211052254    5.380547113 XXXX 3      h*      H   0.410
H3184    2.184515226   73.320349393    6.396742209 XXXX 3      h*      H   0.410
O1593   19.959060390   81.480289389   26.714478637 XXXX 3      o*      O  -0.820
H3185   19.274906801   80.993499341   26.173525662 XXXX 3      h*      H   0.410
H3186   20.275938639   80.639190022   27.236320937 XXXX 3      h*      H   0.410
O1594   12.105448294   86.797650069    8.490140130 XXXX 3      o*      O  -0.820
H3187   12.150011272   85.855806636    8.468234543 XXXX 3      h*      H   0.410
H3188   11.565858068   86.870533725    9.288146927 XXXX 3      h*      H   0.410
O1595    8.142578469   88.312451894    5.399840642 XXXX 3      o*      O  -0.820
H3189    7.276645334   88.420917952    4.991641789 XXXX 3      h*      H   0.410
H3190    8.105928763   87.350618221    5.731099144 XXXX 3      h*      H   0.410
O1596   17.853047843   51.465882492   12.213253421 XXXX 3      o*      O  -0.820
H3191   18.797997348   51.385325103   12.473646344 XXXX 3      h*      H   0.410
H3192   17.864823620   51.087289679   11.310340944 XXXX 3      h*      H   0.410
O1597   14.991498699   33.537681322   16.227851956 XXXX 3      o*      O  -0.820
H3193   14.607500271   33.205257054   17.122502171 XXXX 3      h*      H   0.410
H3194   14.753565232   32.703452490   15.704754811 XXXX 3      h*      H   0.410
O1598   14.425586326   43.481512492   25.576458950 XXXX 3      o*      O  -0.820
H3195   14.458420734   42.537156131   25.801379254 XXXX 3      h*      H   0.410
H3196   14.920207219   43.306122303   24.729002804 XXXX 3      h*      H   0.410
O1599   26.528246395   66.446625222    4.351936084 XXXX 3      o*      O  -0.820
H3197   26.309659250   65.727524578    3.684150804 XXXX 3      h*      H   0.410
H3198   26.323146700   65.858837552    5.163909248 XXXX 3      h*      H   0.410
O1600    3.054524153   82.376836323   27.072373838 XXXX 3      o*      O  -0.820
H3199    3.825490128   82.068313479   27.533906275 XXXX 3      h*      H   0.410
H3200    3.280426420   82.013831256   26.196722576 XXXX 3      h*      H   0.410
O1601   12.314519396   47.535875942    2.552475532 XXXX 3      o*      O  -0.820
H3201   12.485748761   46.588350762    2.479786772 XXXX 3      h*      H   0.410
H3202   11.857404097   47.597180843    3.426967310 XXXX 3      h*      H   0.410
O1602    1.571000023   44.606597315    2.897842616 XXXX 3      o*      O  -0.820
H3203    1.355452226   45.549946760    3.070874278 XXXX 3      h*      H   0.410
H3204    2.391356403   44.831600453    2.430680783 XXXX 3      h*      H   0.410
O1603    6.556746799   64.472789457    8.726235581 XXXX 3      o*      O  -0.820
H3205    6.927889196   64.284322482    7.821053249 XXXX 3      h*      H   0.410
H3206    5.605559386   64.470627182    8.575600534 XXXX 3      h*      H   0.410
O1604   28.418322878   65.325040203   31.404945526 XXXX 3      o*      O  -0.820
H3207   28.976693362   64.590118549   31.079182952 XXXX 3      h*      H   0.410
H3208   27.648034262   64.827063673   31.763459594 XXXX 3      h*      H   0.410
O1605    9.150945078   63.044226030   20.304393779 XXXX 3      o*      O  -0.820
O1606   22.295779583   77.863417943   12.805043557 XXXX 3      o*      O  -0.820
H3209    8.400768514   62.347606742   20.295003820 XXXX 3      h*      H   0.410
H3210   23.054630879   77.485297441   12.318291496 XXXX 3      h*      H   0.410
H3211    9.514279679   62.936883836   19.407007600 XXXX 3      h*      H   0.410
H3212   21.752831969   77.038233358   12.909070741 XXXX 3      h*      H   0.410
O1607   15.343835697   41.616656639    3.158177161 XXXX 3      o*      O  -0.820
H3213   15.901600793   42.339652558    2.847436702 XXXX 3      h*      H   0.410
H3214   16.038405333   41.178077706    3.641333662 XXXX 3      h*      H   0.410
O1608    8.518627346   77.150637377   22.984834671 XXXX 3      o*      O  -0.820
H3215    8.122107265   76.673874368   23.741257574 XXXX 3      h*      H   0.410
H3216    9.151960311   76.387498102   22.736005820 XXXX 3      h*      H   0.410
O1609    4.945823089   86.696921088   27.132166172 XXXX 3      o*      O  -0.820
H3217    4.835868412   87.378012525   27.818178022 XXXX 3      h*      H   0.410
H3218    5.640742461   86.150207257   27.595939236 XXXX 3      h*      H   0.410
O1610   26.955305348   86.514529022   31.443239825 XXXX 3      o*      O  -0.820
H3219   26.092406604   86.914215007   31.689873563 XXXX 3      h*      H   0.410
H3220   26.682684883   85.746505929   30.874605057 XXXX 3      h*      H   0.410
O1611   19.591485606   74.110719492    7.504247270 XXXX 3      o*      O  -0.820
H3221   19.884858601   73.942529847    8.391426902 XXXX 3      h*      H   0.410
H3222   19.439217903   73.141029351    7.324463831 XXXX 3      h*      H   0.410
O1612   10.189397245   47.924105339    4.806223422 XXXX 3      o*      O  -0.820
O1613   10.731363716   52.079438708   26.826933263 XXXX 3      o*      O  -0.820
H3223   10.394047191   47.001488920    5.109704154 XXXX 3      h*      H   0.410
H3224   10.134994781   51.470195624   27.356665988 XXXX 3      h*      H   0.410
H3225    9.526453594   48.133904466    5.458105679 XXXX 3      h*      H   0.410
H3226   10.602367714   51.651841166   25.939548295 XXXX 3      h*      H   0.410
O1614   16.917712357   74.137081706   18.232005005 XXXX 3      o*      O  -0.820
H3227   17.551093483   73.434192977   17.931521439 XXXX 3      h*      H   0.410
H3228   16.008174255   73.782052668   18.322327216 XXXX 3      h*      H   0.410
O1615   21.267848532   61.071491284    9.337469106 XXXX 3      o*      O  -0.820
O1616   21.326685716   37.474740688   10.558777128 XXXX 3      o*      O  -0.820
H3229   22.268297122   61.309936857    9.474765302 XXXX 3      h*      H   0.410
H3230   21.717525184   37.102312402   11.415134475 XXXX 3      h*      H   0.410
H3231   21.041002367   60.984872679   10.318979243 XXXX 3      h*      H   0.410
H3232   20.974693297   36.665230038   10.085935558 XXXX 3      h*      H   0.410
O1617    6.233261608   33.419112199   21.083375206 XXXX 3      o*      O  -0.820
H3233    6.367951725   33.384558932   22.044839104 XXXX 3      h*      H   0.410
H3234    6.971177314   34.017178756   20.965986855 XXXX 3      h*      H   0.410
O1618    5.931800397   57.385175557   20.615129358 XXXX 3      o*      O  -0.820
H3235    6.626970283   57.458444252   21.344888117 XXXX 3      h*      H   0.410
H3236    5.566409382   58.266369959   20.742234655 XXXX 3      h*      H   0.410
O1619    8.984359989   49.529232769   24.664070587 XXXX 3      o*      O  -0.820
O1620   14.215484925   76.640193675   17.821053861 XXXX 3      o*      O  -0.820
H3237    8.793798651   49.496603125   25.648860454 XXXX 3      h*      H   0.410
H3238   14.181708329   76.209399874   18.768563161 XXXX 3      h*      H   0.410
H3239    9.037944346   48.551287295   24.640038923 XXXX 3      h*      H   0.410
H3240   13.609529916   77.454376204   17.968347606 XXXX 3      h*      H   0.410
O1621   28.789283139   35.541361231   22.193588533 XXXX 3      o*      O  -0.820
H3241   28.170256357   35.173505000   21.573868298 XXXX 3      h*      H   0.410
H3242   28.877386046   34.730255766   22.833388795 XXXX 3      h*      H   0.410
O1622   20.286688107   84.579935387   27.162959024 XXXX 3      o*      O  -0.820
H3243   20.105259611   83.621366182   26.962482395 XXXX 3      h*      H   0.410
H3244   20.908059303   84.411985452   27.911721592 XXXX 3      h*      H   0.410
O1623    8.466797651   53.858937522   24.847373510 XXXX 3      o*      O  -0.820
H3245    7.784860989   54.085517003   24.167413623 XXXX 3      h*      H   0.410
H3246    8.916750328   53.147582619   24.391549059 XXXX 3      h*      H   0.410
O1624   13.032538006   34.887246366   13.956110927 XXXX 3      o*      O  -0.820
H3247   12.820144471   34.586675057   13.070277523 XXXX 3      h*      H   0.410
H3248   13.094736710   34.021636851   14.451638284 XXXX 3      h*      H   0.410
O1625   26.273549332   66.816487393   25.228298095 XXXX 3      o*      O  -0.820
H3249   26.253430322   66.589232776   26.195474920 XXXX 3      h*      H   0.410
H3250   26.899685135   66.167473590   24.834551817 XXXX 3      h*      H   0.410
O1626   24.089532820   34.512214189   10.294139901 XXXX 3      o*      O  -0.820
H3251   24.439320249   35.414060380   10.053635522 XXXX 3      h*      H   0.410
H3252   24.950232353   34.017687152   10.556742131 XXXX 3      h*      H   0.410
O1627    4.935917037   36.667575567   14.974534274 XXXX 3      o*      O  -0.820
H3253    5.473107632   35.885081649   14.996846371 XXXX 3      h*      H   0.410
H3254    4.690874184   36.602574788   13.993459016 XXXX 3      h*      H   0.410
O1628    6.568106993   87.183848162   18.574086671 XXXX 3      o*      O  -0.820
H3255    7.356279243   87.205538488   19.201290029 XXXX 3      h*      H   0.410
H3256    6.438940971   86.218565979   18.395026311 XXXX 3      h*      H   0.410
O1629   22.610615489   67.398165219    1.694903794 XXXX 3      o*      O  -0.820
H3257   22.777031713   67.181149476    2.630866850 XXXX 3      h*      H   0.410
H3258   23.427539255   67.911452586    1.375811999 XXXX 3      h*      H   0.410
O1630   -0.203244370   57.397036176   12.539993020 XXXX 3      o*      O  -0.820
H3259   -0.995790542   57.560420909   11.937638052 XXXX 3      h*      H   0.410
H3260    0.403306070   56.846354317   11.939107327 XXXX 3      h*      H   0.410
O1631   32.711656761   40.612550338   27.422251255 XXXX 3      o*      O  -0.820
H3261   32.575618515   40.471303326   28.364180640 XXXX 3      h*      H   0.410
H3262   33.675597559   40.463933518   27.326142117 XXXX 3      h*      H   0.410
O1632   24.792497069   57.634374445    1.175040058 XXXX 3      o*      O  -0.820
H3263   25.769912990   57.578276864    1.026276399 XXXX 3      h*      H   0.410
H3264   24.678699408   56.689500631    1.370827376 XXXX 3      h*      H   0.410
O1633    9.480833849   79.008726633    1.042537171 XXXX 3      o*      O  -0.820
H3265    9.250273217   78.061006967    1.284002932 XXXX 3      h*      H   0.410
H3266    9.189148877   78.950134937    0.090148071 XXXX 3      h*      H   0.410
O1634   27.297657608   60.713039916    3.235926024 XXXX 3      o*      O  -0.820
H3267   28.202060726   60.395735982    2.854239390 XXXX 3      h*      H   0.410
H3268   26.739729240   60.368383645    2.555036385 XXXX 3      h*      H   0.410
O1635    3.995048052   72.947638507   10.624857702 XXXX 3      o*      O  -0.820
H3269    3.549123451   72.113914693   10.798324120 XXXX 3      h*      H   0.410
H3270    4.925651085   72.807356579   10.935575662 XXXX 3      h*      H   0.410
O1636   12.170803838   70.944706808   34.777997820 XXXX 3      o*      O  -0.820
H3271   12.223431107   70.324186637   35.558531298 XXXX 3      h*      H   0.410
H3272   11.545997856   70.361473195   34.282650080 XXXX 3      h*      H   0.410
O1637   -0.289682169   83.111722163   19.522059506 XXXX 3      o*      O  -0.820
H3273   -0.773880944   83.407823580   20.339924655 XXXX 3      h*      H   0.410
H3274   -0.566071890   82.192402341   19.323976224 XXXX 3      h*      H   0.410
O1638    8.979370111   68.493074174   30.049130770 XXXX 3      o*      O  -0.820
H3275    8.951043647   68.045337309   30.936034090 XXXX 3      h*      H   0.410
H3276    9.311713715   67.765014920   29.466759857 XXXX 3      h*      H   0.410
O1639   17.669792698   66.189157926   28.410991496 XXXX 3      o*      O  -0.820
H3277   17.824589301   65.264425712   28.078058886 XXXX 3      h*      H   0.410
H3278   17.841746194   66.049660731   29.322809237 XXXX 3      h*      H   0.410
O1640    1.262570825   45.164806498   18.263585274 XXXX 3      o*      O  -0.820
H3279    1.202548243   45.370000549   19.228257546 XXXX 3      h*      H   0.410
H3280    1.784231449   44.290305533   18.302715830 XXXX 3      h*      H   0.410
O1641   29.948368278   87.774446691   14.917445513 XXXX 3      o*      O  -0.820
H3281   29.780590379   86.937782593   15.354973372 XXXX 3      h*      H   0.410
H3282   30.245769772   88.291257087   15.669364615 XXXX 3      h*      H   0.410
O1642   27.420087069   91.697134265   13.130413009 XXXX 3      o*      O  -0.820
H3283   27.498820207   90.844801495   13.657227220 XXXX 3      h*      H   0.410
H3284   27.208081279   91.298842225   12.218854205 XXXX 3      h*      H   0.410
O1643   27.419832299   59.118187881   16.308743875 XXXX 3      o*      O  -0.820
H3285   27.438478747   59.795518779   15.617072752 XXXX 3      h*      H   0.410
H3286   27.797166596   58.354868418   15.799881083 XXXX 3      h*      H   0.410
O1644    5.717719933   87.522586501    1.237655575 XXXX 3      o*      O  -0.820
H3287    5.667401911   87.537929950    0.249726778 XXXX 3      h*      H   0.410
H3288    5.750730363   86.569611427    1.383749813 XXXX 3      h*      H   0.410
O1645   24.155935754   62.113574210    9.913624193 XXXX 3      o*      O  -0.820
H3289   24.253482293   62.854658954   10.567043962 XXXX 3      h*      H   0.410
H3290   24.870605287   61.479227085   10.194445976 XXXX 3      h*      H   0.410
O1646   16.460484262   78.894673502   30.345751520 XXXX 3      o*      O  -0.820
H3291   15.937528140   79.571637861   29.793457939 XXXX 3      h*      H   0.410
H3292   15.839184551   78.130157122   30.274461747 XXXX 3      h*      H   0.410
O1647   29.649784014   59.479334466   32.063117819 XXXX 3      o*      O  -0.820
H3293   30.143448409   58.913191690   31.448267855 XXXX 3      h*      H   0.410
H3294   29.929452152   60.390041282   31.760270001 XXXX 3      h*      H   0.410
O1648   14.348858047   84.610559990   24.551629165 XXXX 3      o*      O  -0.820
H3295   13.420780422   84.550484112   24.805078326 XXXX 3      h*      H   0.410
H3296   14.861764442   85.000084149   25.307396467 XXXX 3      h*      H   0.410
O1649   19.974210331   63.907967195    2.831949294 XXXX 3      o*      O  -0.820
O1650    3.804542448   36.821219056   20.725427289 XXXX 3      o*      O  -0.820
H3297   19.460208341   63.062107628    2.680074464 XXXX 3      h*      H   0.410
H3298    2.956297352   36.325395402   20.546436880 XXXX 3      h*      H   0.410
H3299   20.819545937   63.470730747    2.468818077 XXXX 3      h*      H   0.410
H3300    3.872217912   36.495996572   21.717594422 XXXX 3      h*      H   0.410
O1651   11.934503703   60.739147120   14.354971470 XXXX 3      o*      O  -0.820
H3301   11.977543939   59.888386030   14.794627612 XXXX 3      h*      H   0.410
H3302   11.615094695   60.554559556   13.448160607 XXXX 3      h*      H   0.410
O1652    6.698467605   78.243973430    2.998304816 XXXX 3      o*      O  -0.820
H3303    6.621945554   77.270664105    3.135178766 XXXX 3      h*      H   0.410
H3304    7.078885359   78.400884852    3.875880327 XXXX 3      h*      H   0.410
O1653   17.400198421   91.944665143   26.977267119 XXXX 3      o*      O  -0.820
O1654   22.521813089   86.649660870   15.411676131 XXXX 3      o*      O  -0.820
H3305   17.858836947   91.746679697   27.843880330 XXXX 3      h*      H   0.410
H3306   23.473313323   86.507163811   15.710779181 XXXX 3      h*      H   0.410
H3307   17.045416944   90.976747156   26.827635574 XXXX 3      h*      H   0.410
H3308   22.636728622   86.227836815   14.565904171 XXXX 3      h*      H   0.410
O1655   13.609413964   87.219789514    0.461143392 XXXX 3      o*      O  -0.820
H3309   12.955601925   86.790456148    1.058347491 XXXX 3      h*      H   0.410
H3310   13.827704233   88.028857511    1.038201685 XXXX 3      h*      H   0.410
O1656    6.118315923   64.530647999   22.704712579 XXXX 3      o*      O  -0.820
H3311    6.841523409   64.840029184   23.315146552 XXXX 3      h*      H   0.410
H3312    6.341914240   63.588218419   22.495488976 XXXX 3      h*      H   0.410
O1657    2.172466253   30.843308398   14.282870499 XXXX 3      o*      O  -0.820
O1658   16.853716540   39.344034028   21.431734237 XXXX 3      o*      O  -0.820
H3313    1.333031837   30.506821558   14.635559404 XXXX 3      h*      H   0.410
H3314   16.258339456   38.865450796   20.729473298 XXXX 3      h*      H   0.410
H3315    2.034473850   30.476995326   13.335046948 XXXX 3      h*      H   0.410
H3316   17.575978123   38.682047644   21.428264872 XXXX 3      h*      H   0.410
O1659    5.252410673   58.376790604   -1.217226090 XXXX 3      o*      O  -0.820
H3317    4.339720831   58.648241947   -1.516654740 XXXX 3      h*      H   0.410
H3318    5.095536287   57.377816861   -1.269606587 XXXX 3      h*      H   0.410
O1660   28.370358365   52.782441043   16.556795949 XXXX 3      o*      O  -0.820
H3319   29.126898386   52.207888008   16.306951716 XXXX 3      h*      H   0.410
H3320   28.144573824   52.449976009   17.452358281 XXXX 3      h*      H   0.410
O1661   25.351241543   39.992917258   23.808177061 XXXX 3      o*      O  -0.820
H3321   25.615845173   39.148494637   24.184093252 XXXX 3      h*      H   0.410
H3322   24.548206506   40.190657441   24.333760533 XXXX 3      h*      H   0.410
O1662   28.054239156   38.838958335   22.425203655 XXXX 3      o*      O  -0.820
H3323   27.195318953   38.385734171   22.443580421 XXXX 3      h*      H   0.410
H3324   28.413853278   38.382796775   23.160116264 XXXX 3      h*      H   0.410
O1663    2.674434564   52.839373066   26.528917091 XXXX 3      o*      O  -0.820
H3325    3.518592780   52.312264405   26.560124252 XXXX 3      h*      H   0.410
H3326    2.154636938   52.146550246   26.977051991 XXXX 3      h*      H   0.410
O1664   11.942340237   62.935476093   24.525751840 XXXX 3      o*      O  -0.820
O1665   15.490664905   57.636933333   28.084082447 XXXX 3      o*      O  -0.820
H3327   12.048075683   63.764081136   25.069259351 XXXX 3      h*      H   0.410
H3328   15.484086220   57.249407110   27.184723783 XXXX 3      h*      H   0.410
H3329   10.968609725   63.032692614   24.336211812 XXXX 3      h*      H   0.410
H3330   14.839858943   58.319090286   27.920951389 XXXX 3      h*      H   0.410
O1666    9.379626170   57.236058991   12.060616120 XXXX 3      o*      O  -0.820
H3331    8.705204982   57.138961353   11.388733205 XXXX 3      h*      H   0.410
H3332    9.573248599   56.316766584   12.235537329 XXXX 3      h*      H   0.410
O1667   13.450299404   51.388776020   27.800183698 XXXX 3      o*      O  -0.820
O1668   12.219181841   42.316524671   18.573397835 XXXX 3      o*      O  -0.820
H3333   12.497787478   51.161420360   27.752803121 XXXX 3      h*      H   0.410
H3334   12.271710603   42.225063361   17.565213568 XXXX 3      h*      H   0.410
H3335   13.771889188   50.803863089   27.060831888 XXXX 3      h*      H   0.410
H3336   12.186127017   43.282809744   18.741529860 XXXX 3      h*      H   0.410
O1669    1.874713663   39.906064930    7.354540410 XXXX 3      o*      O  -0.820
H3337    2.303506032   38.992164948    7.384952928 XXXX 3      h*      H   0.410
H3338    1.230192010   39.691209632    6.681748287 XXXX 3      h*      H   0.410
O1670   31.417578600   62.805383350   11.971684141 XXXX 3      o*      O  -0.820
H3339   32.144492359   62.475996141   12.516005213 XXXX 3      h*      H   0.410
H3340   31.522443505   62.342186871   11.087021180 XXXX 3      h*      H   0.410
O1671   30.105591456   66.279197382   16.161231374 XXXX 3      o*      O  -0.820
H3341   29.204457764   66.041351617   16.113258165 XXXX 3      h*      H   0.410
H3342   30.409813756   65.580639382   16.802489456 XXXX 3      h*      H   0.410
O1672   10.970800479   92.586827951   26.016947850 XXXX 3      o*      O  -0.820
H3343   10.860533076   92.040054125   25.082917029 XXXX 3      h*      H   0.410
H3344   11.474035035   91.863918064   26.427804025 XXXX 3      h*      H   0.410
O1673    3.887734412   82.579190922    3.438150811 XXXX 3      o*      O  -0.820
H3345    3.643928935   82.131435998    2.627589112 XXXX 3      h*      H   0.410
H3346    4.835605865   82.598299456    3.303336502 XXXX 3      h*      H   0.410
O1674    5.943966505   68.886293053   14.668342957 XXXX 3      o*      O  -0.820
H3347    6.225160759   68.129837409   14.081366630 XXXX 3      h*      H   0.410
H3348    5.695805203   68.366095495   15.456239363 XXXX 3      h*      H   0.410
O1675   26.112105833   82.664469345   14.104806615 XXXX 3      o*      O  -0.820
O1676   30.984961940   68.179057596    6.869440224 XXXX 3      o*      O  -0.820
H3349   25.856940480   82.737214277   15.049942033 XXXX 3      h*      H   0.410
H3350   30.585126379   68.988519756    7.224458888 XXXX 3      h*      H   0.410
H3351   26.919964163   83.181856266   14.065270495 XXXX 3      h*      H   0.410
H3352   30.383937062   67.430470486    7.133087474 XXXX 3      h*      H   0.410
O1677   16.771595764   76.059886664   23.053439565 XXXX 3      o*      O  -0.820
H3353   16.527222822   75.745852534   23.968973849 XXXX 3      h*      H   0.410
H3354   16.550089369   77.010775022   23.184818723 XXXX 3      h*      H   0.410
O1678    7.876896950   92.256335172   26.492578880 XXXX 3      o*      O  -0.820
H3355    6.989673738   92.064867612   26.988854996 XXXX 3      h*      H   0.410
H3356    8.002369494   91.336444359   26.125577573 XXXX 3      h*      H   0.410
O1679    1.996853876   47.900608716   19.563861586 XXXX 3      o*      O  -0.820
H3357    1.765680478   47.231269498   18.882964820 XXXX 3      h*      H   0.410
H3358    1.631586507   47.655675730   20.412294620 XXXX 3      h*      H   0.410
O1680   20.542118304   82.420214330   19.846498071 XXXX 3      o*      O  -0.820
H3359   20.051079348   81.738216664   19.327584376 XXXX 3      h*      H   0.410
H3360   20.902514295   81.872386843   20.549963179 XXXX 3      h*      H   0.410
O1681   22.329315198   37.068743417   28.476289415 XXXX 3      o*      O  -0.820
H3361   22.589607047   37.626066888   27.731994460 XXXX 3      h*      H   0.410
H3362   22.975763053   37.377980795   29.179639261 XXXX 3      h*      H   0.410
O1682   19.231990905   91.520879447   24.659649424 XXXX 3      o*      O  -0.820
H3363   19.234108018   90.760450001   24.048146481 XXXX 3      h*      H   0.410
H3364   19.277192600   91.019539655   25.545833418 XXXX 3      h*      H   0.410
O1683   28.808299497   74.968086940    4.789716192 XXXX 3      o*      O  -0.820
H3365   27.949844829   74.722736277    4.357869645 XXXX 3      h*      H   0.410
H3366   29.447550342   75.180511857    4.027649287 XXXX 3      h*      H   0.410
O1684    7.747826347   61.923655434   27.015554838 XXXX 3      o*      O  -0.820
H3367    7.749423974   61.418544493   27.863440480 XXXX 3      h*      H   0.410
H3368    7.390356294   61.193816636   26.479671515 XXXX 3      h*      H   0.410
O1685   -1.919796054   85.629121090   28.816076756 XXXX 3      o*      O  -0.820
H3369   -2.022066417   84.672075597   28.962601593 XXXX 3      h*      H   0.410
H3370   -2.515649971   85.706795453   28.001235992 XXXX 3      h*      H   0.410
O1686   26.390786831   66.234929286   27.891898579 XXXX 3      o*      O  -0.820
H3371   25.753654053   65.996172616   28.633890791 XXXX 3      h*      H   0.410
H3372   26.997039054   66.781158349   28.381487473 XXXX 3      h*      H   0.410
O1687   12.516488701   43.096207837   21.858360484 XXXX 3      o*      O  -0.820
H3373   11.649675151   42.806046781   21.407888590 XXXX 3      h*      H   0.410
H3374   12.769873210   42.279450946   22.312799257 XXXX 3      h*      H   0.410
O1688    7.350931167   47.624051086   27.645054276 XXXX 3      o*      O  -0.820
H3375    6.514688827   47.324505986   27.196639777 XXXX 3      h*      H   0.410
H3376    8.008360849   46.930337746   27.310856261 XXXX 3      h*      H   0.410
O1689   25.713088132   43.529363488   11.421292903 XXXX 3      o*      O  -0.820
H3377   26.141576675   43.510521478   10.504717361 XXXX 3      h*      H   0.410
H3378   26.491839931   43.406028412   11.969578452 XXXX 3      h*      H   0.410
O1690   12.849821157   33.468256884   22.173967961 XXXX 3      o*      O  -0.820
H3379   12.723764038   33.739760951   21.218448025 XXXX 3      h*      H   0.410
H3380   11.895325226   33.189230466   22.395610142 XXXX 3      h*      H   0.410
O1691    4.970700761   80.306353871   25.637575452 XXXX 3      o*      O  -0.820
H3381    4.649279727   79.610461321   26.237685620 XXXX 3      h*      H   0.410
H3382    4.798153325   79.872466557   24.713234809 XXXX 3      h*      H   0.410
O1692    3.503182567   69.492020855    4.122810251 XXXX 3      o*      O  -0.820
H3383    4.440395745   69.288054199    4.020113722 XXXX 3      h*      H   0.410
H3384    3.075425807   68.696605965    3.766787215 XXXX 3      h*      H   0.410
O1693   15.221075294   43.916940204   21.790592430 XXXX 3      o*      O  -0.820
H3385   15.361860291   44.730830360   21.186898970 XXXX 3      h*      H   0.410
H3386   14.242907364   43.770010483   21.792920009 XXXX 3      h*      H   0.410
O1694    8.563115165   84.134498771   -0.892878460 XXXX 3      o*      O  -0.820
H3387    8.347599246   83.407107676   -1.495486771 XXXX 3      h*      H   0.410
H3388    9.174164927   83.670208895   -0.286070057 XXXX 3      h*      H   0.410
O1695    8.816718505   75.326953999   19.370007714 XXXX 3      o*      O  -0.820
H3389    8.732935316   74.938908090   18.474394048 XXXX 3      h*      H   0.410
H3390    8.248057915   74.708548899   19.826073508 XXXX 3      h*      H   0.410
O1696   26.974444011   36.042803678   12.004949068 XXXX 3      o*      O  -0.820
O1697   -1.527626883   55.469191613    2.590010400 XXXX 3      o*      O  -0.820
H3391   26.392985792   35.486500132   11.467164705 XXXX 3      h*      H   0.410
H3392   -0.860110887   54.857353654    2.190995375 XXXX 3      h*      H   0.410
H3393   26.632815256   36.005781637   12.957653227 XXXX 3      h*      H   0.410
H3394   -1.651143725   55.082212033    3.516409437 XXXX 3      h*      H   0.410
O1698    1.327784525   73.611444138   10.845332691 XXXX 3      o*      O  -0.820
H3395    1.079460790   72.675766691   11.053346417 XXXX 3      h*      H   0.410
H3396    2.316369532   73.558799314   10.870293038 XXXX 3      h*      H   0.410
O1699   12.493849177   81.847133692   23.299676633 XXXX 3      o*      O  -0.820
H3397   11.742539536   81.693854194   22.762493235 XXXX 3      h*      H   0.410
H3398   12.999118111   82.431011226   22.720704484 XXXX 3      h*      H   0.410
O1700    3.851903241   82.552382836   15.068260299 XXXX 3      o*      O  -0.820
H3399    3.922172011   82.421476114   16.117087429 XXXX 3      h*      H   0.410
H3400    4.437537195   83.338849927   14.967568680 XXXX 3      h*      H   0.410
O1701    1.800825111   70.589729541    8.297238642 XXXX 3      o*      O  -0.820
H3401    2.276270105   69.875234564    8.663814834 XXXX 3      h*      H   0.410
H3402    2.509209741   71.054387818    7.849421301 XXXX 3      h*      H   0.410
O1702   29.404756771   78.253293999    8.317729139 XXXX 3      o*      O  -0.820
H3403   29.337072199   77.323361984    7.955888977 XXXX 3      h*      H   0.410
H3404   30.394373093   78.321560892    8.286540035 XXXX 3      h*      H   0.410
O1703    5.515829174   58.135183360   13.590091423 XXXX 3      o*      O  -0.820
H3405    4.544323064   58.414835976   13.632183167 XXXX 3      h*      H   0.410
H3406    5.456746574   57.165931482   13.267406708 XXXX 3      h*      H   0.410
O1704   17.733648220   43.839729330   12.663037994 XXXX 3      o*      O  -0.820
H3407   18.465070414   44.200632545   13.267307670 XXXX 3      h*      H   0.410
H3408   18.140239666   43.008952400   12.355638388 XXXX 3      h*      H   0.410
O1705   -3.008413378   61.688624507   24.365894565 XXXX 3      o*      O  -0.820
H3409   -3.065022691   60.623097359   24.472750517 XXXX 3      h*      H   0.410
H3410   -2.408275176   61.681337101   23.602939710 XXXX 3      h*      H   0.410
O1706   15.884202577   38.799087240    9.434007686 XXXX 3      o*      O  -0.820
O1707   29.523466714   48.487786054    8.566275064 XXXX 3      o*      O  -0.820
H3411   16.016166003   38.460211686    8.536324677 XXXX 3      h*      H   0.410
H3412   30.236907078   48.607757168    9.244008347 XXXX 3      h*      H   0.410
H3413   14.884956888   38.834148202    9.466640424 XXXX 3      h*      H   0.410
H3414   28.908923324   49.207239127    8.724997602 XXXX 3      h*      H   0.410
O1708   23.186729848   62.090594411   -2.689504220 XXXX 3      o*      O  -0.820
H3415   24.014566290   62.087908888   -2.196119445 XXXX 3      h*      H   0.410
H3416   23.451841729   61.673597016   -3.603909119 XXXX 3      h*      H   0.410
O1709   12.177450785   46.174891437    8.015930164 XXXX 3      o*      O  -0.820
H3417   11.525575745   45.570517927    8.459389221 XXXX 3      h*      H   0.410
H3418   12.861685793   46.159384045    8.820703680 XXXX 3      h*      H   0.410
O1710   19.131675221   84.042675787   13.887525639 XXXX 3      o*      O  -0.820
H3419   19.016472397   83.435318444   13.090421271 XXXX 3      h*      H   0.410
H3420   19.281657797   84.814322417   13.233898649 XXXX 3      h*      H   0.410
O1711    5.895811961   89.111152221   25.924764394 XXXX 3      o*      O  -0.820
H3421    5.744073772   88.224380571   25.656352625 XXXX 3      h*      H   0.410
H3422    6.699063684   89.296876733   25.308957667 XXXX 3      h*      H   0.410
O1712   10.801938272   41.197047907   29.335739220 XXXX 3      o*      O  -0.820
H3423   11.222685989   40.998722038   28.492755591 XXXX 3      h*      H   0.410
H3424   10.017107294   40.538674609   29.157906304 XXXX 3      h*      H   0.410
end
CA1     -0.022238103   15.811171370    0.027658445 XXX  1      ca+a    Ca  1.500
CA2      7.468320642   16.039929295   -0.161928928 XXX  1      ca+a    Ca  1.500
CA3      3.691390974   19.677207235    3.801045903 XXX  1      ca+a    Ca  1.500
CA4      5.511264116   21.369312275    5.666763187 XXX  1      ca+a    Ca  1.500
CA5      1.444233494   21.807126026    4.581023123 XXX  1      ca+a    Ca  1.500
CA6      5.837239046   21.456988097    1.837723458 XXX  1      ca+a    Ca  1.500
AL1      3.819091943   16.047731313    0.210410881 XXX  1      ac1     Al  1.200
AL2      3.674961700   19.401701065    0.010605792 XXX  1      ac1     Al  1.200
O1       4.069090441   17.709151325   -0.050333125 XXX  1      oc3     O  -0.750
O2       7.395760574   17.714564889    3.848879248 XXX  1      oc3     O  -0.750
O3       4.230675436   19.844964025    1.592845777 XXX  1      oc4     O  -1.350
O4       3.647020726   21.835200923    4.367708812 XXX  1      oc4     O  -1.350
O5       5.241127850   15.307778869   -0.418932549 XXX  1      oc4     O  -1.350
O6       2.234166421   15.765630720   -0.389891877 XXX  1      oc4     O  -1.350
Ca1      7.520772066   15.966692412    7.617677884 XXX  2      ca+a    Ca  1.500
Ca2     -0.092630176   15.844708005    7.604652906 XXX  2      ca+a    Ca  1.500
Ca3     -0.229812275   31.844883240    7.764446693 XXX  2      ca+a    Ca  1.500
Ca4      2.672856654   25.804016331   13.201727438 XXX  2      ca+a    Ca  1.500
Ca5      5.727485459   25.569719785   10.254990079 XXX  2      ca+a    Ca  1.500
Ca6      2.013804995   25.397293386    9.640470400 XXX  2      ca+a    Ca  1.500
Al1      3.586042587   31.246777996    7.713047769 XXX  2      ac1     Al  1.200
Al2      3.993264790   27.734961338    7.761217963 XXX  2      ac1     Al  1.200
O1       3.370998256   29.466645315    7.754403562 XXX  2      oc3     O  -0.750
O2      14.766124156   29.163926430   10.440846056 XXX  2      oc3     O  -0.750
O3       3.673213587   27.041116865    9.333253695 XXX  2      oc4     O  -0.900
O4       4.418630565   24.987363648   12.175408098 XXX  2      oc4     O  -1.350
O5       2.099762215   31.943786432    7.110596818 XXX  2      oc4     O  -0.900
O6       5.094854152   31.478979285    6.952585770 XXX  2      oc4     O  -0.900
Ca7      0.384752286   22.880905061    7.926389196 XXX  2      ca+a    Ca  1.500
Ca8      7.545323946   23.432314286    7.533812924 XXX  2      ca+a    Ca  1.500
Ca9      9.110466833   29.984846886    3.162498475 XXX  2      ca+a    Ca  1.500
Ca10    10.816301507   34.908837909    2.910628294 XXX  2      ca+a    Ca  1.500
Ca11    14.438402915   37.104828065    3.446828219 XXX  2      ca+a    Ca  1.500
Ca12    12.779679375   40.342003822    3.067141484 XXX  2      ca+a    Ca  1.500
Al3     11.352872245   24.077516167    7.569213138 XXX  2      ac1     Al  1.200
Al4     11.528899160   27.562305294    7.788751579 XXX  2      ac1     Al  1.200
O7      10.980444455   25.854496455    7.887973585 XXX  2      oc3     O  -0.750
O8       7.797132550   25.417185209    3.861104990 XXX  2      oc3     O  -0.750
O9      11.257216142   28.059171582    6.157257247 XXX  2      oc4     O  -0.900
O10     12.052777801   14.445095853    3.445803892 XXX  2      oc4     O  -1.350
O11      9.940864317   23.323139777    8.312982544 XXX  2      oc4     O  -1.350
O12     12.968291890   23.800307886    8.166333652 XXX  2      oc4     O  -1.350
Ca13     7.587912330   23.398451851    0.169595293 XXX  2      ca+a    Ca  1.500
Ca14     1.835219323   24.788246884    2.142202667 XXX  2      ca+a    Ca  1.500
Ca15    11.543564800   19.564461851   11.276061784 XXX  2      ca+a    Ca  1.500
Ca16    13.425295341   17.607914207    9.409306731 XXX  2      ca+a    Ca  1.500
Ca17     9.624936873   17.800495975   13.176605018 XXX  2      ca+a    Ca  1.500
Ca18    13.527469626   17.793224624   13.658793680 XXX  2      ca+a    Ca  1.500
Al5     11.609383767   23.231225097   15.100018828 XXX  2      ac1     Al  1.200
Al6     11.180642810   19.922202688   15.301869639 XXX  2      ac1     Al  1.200
O13     11.737407424   21.533784644   15.483612612 XXX  2      oc3     O  -0.750
O14     -0.313170764   21.601356083   11.307062175 XXX  2      oc3     O  -0.750
O15     11.504845360   19.338628741   13.666091785 XXX  2      oc4     O  -1.350
O16     12.407668084   33.977217128   11.555185660 XXX  2      oc4     O  -0.900
O17     13.229437170   23.818652454   15.578942213 XXX  2      oc4     O  -1.350
O18      9.976532503   23.876220892   15.544669541 XXX  2      oc4     O  -1.350
Ca19     2.099038174   18.032430758    5.757255498 XXX  2      ca+a    Ca  1.500
Ca20     1.809192456   25.147846730    5.984050923 XXX  2      ca+a    Ca  1.500
Al7      0.270217811   19.711202813    0.258848647 XXX  2      ac1     Al  1.200
Al8     -0.045777552   19.370748072    3.661155390 XXX  2      ac1     Al  1.200
O19     -0.057185013   19.866995966    1.979115913 XXX  2      oc3     O  -0.750
O20      3.923136471   23.333760044    1.994027019 XXX  2      oc3     O  -0.750
O21      1.485031085   19.644046466    4.426504130 XXX  2      oc4     O  -1.350
O22      4.201244338   19.241788771    6.351049412 XXX  2      oc4     O  -1.350
O23     -0.403487413   21.165807947   -0.415492413 XXX  2      oc4     O  -1.350
O24     -0.233727513   18.084394142   -0.170134008 XXX  2      oc4     O  -1.350
Ca21     9.867766336   21.463728900    9.671645549 XXX  2      ca+a    Ca  1.500
Ca22     9.172280103   17.605008468    9.527043248 XXX  2      ca+a    Ca  1.500
Al9      7.814718754   19.696586377   15.007245593 XXX  2      ac1     Al  1.200
Al10     7.562233572   19.961823687   11.647853500 XXX  2      ac1     Al  1.200
O25      7.639920139   19.454776249   13.298083767 XXX  2      oc3     O  -0.750
O26     10.963818336   32.120205853   13.180826001 XXX  2      oc3     O  -0.750
O27      9.170478012   19.538568677   11.006146776 XXX  2      oc4     O  -1.350
O28     11.713014987   20.144772567    9.084385637 XXX  2      oc4     O  -1.350
O29      7.224449189   18.203958454   15.727946690 XXX  2      oc4     O  -1.350
O30      7.152394389   21.233705533   15.481819434 XXX  2      oc4     O  -1.350
Ca23     6.037727975   33.754740917   12.732358024 XXX  2      ca+a    Ca  1.500
Ca24     6.147961873   25.340152486   13.557388183 XXX  2      ca+a    Ca  1.500
Al11     7.495710459   27.415270584    8.009691516 XXX  2      ac1     Al  1.200
Al12     8.005297315   27.595522187   11.428105496 XXX  2      ac1     Al  1.200
O31      7.712714392   27.119983577    9.725735133 XXX  2      oc3     O  -0.750
O32      4.141705804   23.800279480    9.751814040 XXX  2      oc3     O  -0.750
O33      6.516020902   27.167937062   12.152582317 XXX  2      oc4     O  -0.900
O34      3.452707932   27.420473834   -1.529694677 XXX  2      oc4     O  -0.900
O35      8.132990147   25.923566155    7.262871385 XXX  2      oc4     O  -0.900
O36      8.336241972   28.914639940    7.622173551 XXX  2      oc4     O  -0.900
Ca25    12.368901182   29.801514643    3.073192347 XXX  2      ca+a    Ca  1.500
Ca26    14.556297867   33.474817589    0.610390244 XXX  2      ca+a    Ca  1.500
Al13    14.918603853   27.762414778    7.381301892 XXX  2      ac1     Al  1.200
Al14    14.969545620   27.581663948    4.021112997 XXX  2      ac1     Al  1.200
O37     14.835684625   28.024209984    5.718150952 XXX  2      oc3     O  -0.750
O38     11.523214583   15.685755209    5.838623268 XXX  2      oc3     O  -0.750
O39     13.408525601   27.674656419    3.246753162 XXX  2      oc4     O  -0.900
O40     10.831880312   27.773489197   16.590860104 XXX  2      oc4     O  -0.900
O41     15.845228190   29.062600036    8.024983043 XXX  2      oc4     O  -0.900
O42     15.426944191   26.099859360    7.424583260 XXX  2      oc4     O  -0.900
Ca27     5.560977440   18.050281304    2.070355580 XXX  2      ca+a    Ca  1.500
Ca28     5.683359217   17.614605319    5.712380530 XXX  2      ca+a    Ca  1.500
Al15     0.187628865   15.922718729    3.870205614 XXX  2      ac1     Al  1.200
Al16     3.568467701   15.776439653    3.628115916 XXX  2      ac1     Al  1.200
O43      1.887521668   15.827096789    4.139415770 XXX  2      oc3     O  -0.750
O44      1.711264678   19.779378690    7.455343992 XXX  2      oc3     O  -0.750
O45      4.180408686   17.351540011    3.984825323 XXX  2      oc4     O  -1.350
O46      6.107615922   20.015181478    3.527901052 XXX  2      oc4     O  -1.350
O47     -0.432022438   15.220942307    5.309677204 XXX  2      oc4     O  -1.350
O48      0.017122818   15.278968621    2.309932352 XXX  2      oc4     O  -1.350
Ca29    10.159654937   26.301068354    5.029195745 XXX  2      ca+a    Ca  1.500
Ca30    12.206480436   25.863945877    1.792927022 XXX  2      ca+a    Ca  1.500
Al17    15.128536118   24.102601156    3.999237181 XXX  2      ac1     Al  1.200
Al18    11.752571891   23.635051047    4.155524116 XXX  2      ac1     Al  1.200
O49     13.497312809   23.526310907    3.925580475 XXX  2      oc3     O  -0.750
O50     13.472570488   27.734501967   15.407083181 XXX  2      oc3     O  -0.750
O51     11.221546553   25.190362311    3.602586663 XXX  2      oc4     O  -1.350
O52      8.470986747   27.933771805    4.727357776 XXX  2      oc4     O  -0.900
O53     15.682060114   23.600252481    2.429298931 XXX  2      oc4     O  -1.350
O54     15.813368454   23.516049579    5.478942311 XXX  2      oc4     O  -1.350
Ca31    13.233197137   21.168667446   13.285338559 XXX  2      ca+a    Ca  1.500
Ca32    13.233072962   21.901311708    9.415175045 XXX  2      ca+a    Ca  1.500
Al19     7.959468096   23.336903732   11.549794635 XXX  2      ac1     Al  1.200
Al20    11.365046794   23.349681470   11.675314125 XXX  2      ac1     Al  1.200
O55      9.644837487   23.235059249   11.271186150 XXX  2      oc3     O  -0.750
O56      9.342387964   19.703328876    7.886356637 XXX  2      oc3     O  -0.750
O57     12.061436685   21.828949981   11.339080354 XXX  2      oc4     O  -1.350
O58     -1.681402894   19.253058742   11.854370525 XXX  2      oc4     O  -1.350
O59      7.472370774   24.272409824   10.207559284 XXX  2      oc4     O  -1.350
O60      7.803517815   24.005443035   13.146643413 XXX  2      oc4     O  -1.350
Ca33     2.673794428   34.655115075    7.996478063 XXX  2      ca+a    Ca  1.500
Ca34     1.824892009   39.066150940   13.292318166 XXX  2      ca+a    Ca  1.500
Al21     7.341148693   30.988154894   11.630152892 XXX  2      ac1     Al  1.200
Al22     3.944652927   31.527110548   11.119887497 XXX  2      ac1     Al  1.200
O61      5.565350506   30.866721390   11.519819340 XXX  2      oc3     O  -0.750
O62      5.776808657   28.126394252   -0.074140484 XXX  2      oc3     O  -0.750
O63      2.885883739   30.248702933   11.374979602 XXX  2      oc4     O  -0.900
O64     16.636290304   27.124058169   10.955712137 XXX  2      oc4     O  -0.900
O65      7.669913049   31.900231927   13.068453069 XXX  2      oc4     O  -0.900
O66      7.771210301   31.689403100   10.105809432 XXX  2      oc4     O  -0.900
Ca35     9.527552937   30.489946203    9.083089846 XXX  2      ca+a    Ca  1.500
Ca36     9.656109337   25.124561895    9.683122907 XXX  2      ca+a    Ca  1.500
Ca37    13.482531841   25.365972400   13.881639436 XXX  2      ca+a    Ca  1.500
Ca38     9.600427597   25.239769281   13.612258142 XXX  2      ca+a    Ca  1.500
Al23    10.769331664   31.213712454   14.680998525 XXX  2      ac1     Al  1.200
Al24    11.690510165   27.904149849   15.084549313 XXX  2      ac1     Al  1.200
O67     11.297499496   29.535693372   14.531991201 XXX  2      oc3     O  -0.750
O68      8.133961257   29.370473906   11.589974041 XXX  2      oc3     O  -0.750
O69     11.379589052   26.882772972   13.729799107 XXX  2      oc4     O  -0.900
O70     11.724756432   24.875891775   10.942717774 XXX  2      oc4     O  -1.350
O71      9.091538619   31.155857776   14.939326635 XXX  2      oc4     O  -0.900
O72     11.859064475   31.955203720   15.824836353 XXX  2      oc4     O  -0.900
Ca39    11.471755145   19.851744598    3.735923143 XXX  2      ca+a    Ca  1.500
Ca40    13.939868688   22.282869812    1.650115272 XXX  2      ca+a    Ca  1.500
Ca41     9.718415951   21.603996055    5.226336691 XXX  2      ca+a    Ca  1.500
Ca42    13.245264450   21.658977350    5.950623171 XXX  2      ca+a    Ca  1.500
Al25    11.491623859   16.198288581    7.537409174 XXX  2      ac1     Al  1.200
Al26    11.052655557   19.603507428    7.639243969 XXX  2      ac1     Al  1.200
O73     11.623807195   17.987032791    7.629085827 XXX  2      oc3     O  -0.750
O74     -0.331903203   17.654427630    3.804083072 XXX  2      oc3     O  -0.750
O75     11.464145910   20.320559901    6.086786681 XXX  2      oc4     O  -1.350
O76     11.122577174   22.126107401    3.542850472 XXX  2      oc4     O  -1.350
O77     12.958166503   15.549760057    8.174366824 XXX  2      oc4     O  -1.350
O78      9.859256054   15.800758024    8.016059479 XXX  2      oc4     O  -1.350
Ca43     3.422988710   19.956749567   11.711816218 XXX  2      ca+a    Ca  1.500
Ca44     5.465374302   18.017301166   12.980584846 XXX  2      ca+a    Ca  1.500
Ca45     1.881003515   17.982227015    9.836883602 XXX  2      ca+a    Ca  1.500
Ca46     5.735893286   17.727536099    9.473587946 XXX  2      ca+a    Ca  1.500
Al27     3.936633727   23.468763058    8.023583737 XXX  2      ac1     Al  1.200
Al28     3.440735791   20.048367051    7.699031643 XXX  2      ac1     Al  1.200
O79      3.987559522   21.753217594    7.607889382 XXX  2      oc3     O  -0.750
O80      7.349532551   21.712827362   11.468554775 XXX  2      oc3     O  -0.750
O81      3.707941778   19.456663898    9.349898915 XXX  2      oc4     O  -1.350
O82      3.691840048   32.974516365   11.959097893 XXX  2      oc4     O  -0.900
O83      5.342326860   24.278403216    7.335231937 XXX  2      oc4     O  -1.350
O84      2.286471046   24.168710007    7.822750232 XXX  2      oc4     O  -1.350
Ca47     8.950734332   32.842774668    5.533432661 XXX  2      ca+a    Ca  1.500
Ca48     2.112988390   39.029419284    3.477321989 XXX  2      ca+a    Ca  1.500
Ca49     7.425780233   34.616282739    2.298542331 XXX  2      ca+a    Ca  1.500
Ca50     1.275918952   36.723551507    1.219161338 XXX  2      ca+a    Ca  1.500
Al29     4.021706843   24.174681363    0.500558685 XXX  2      ac1     Al  1.200
Al30     4.065789619   27.544277802    0.107915273 XXX  2      ac1     Al  1.200
O85      4.140691356   25.890689296    0.736850127 XXX  2      oc3     O  -0.750
O86     15.448145059   25.822037777    3.952346536 XXX  2      oc3     O  -0.750
O87      3.306658661   28.478445661    1.405222882 XXX  2      oc4     O  -0.900
O88      4.067596649   14.335914215    4.455407958 XXX  2      oc4     O  -1.350
O89      2.434951035   24.094012115   -0.066801290 XXX  2      oc4     O  -1.350
O90      5.398996672   23.665639718   -0.381659447 XXX  2      oc4     O  -1.350
Ca51    14.715737067   34.243218595   10.998136469 XXX  2      ca+a    Ca  1.500
Ca52    13.452048342   25.351259048    9.738522204 XXX  2      ca+a    Ca  1.500
Al31    15.235225385   27.902391300   14.985465450 XXX  2      ac1     Al  1.200
Al32    15.128773303   27.834813823   11.563505738 XXX  2      ac1     Al  1.200
O91     15.356456928   28.330789866   13.236922669 XXX  2      oc3     O  -0.750
O92     11.725342757   23.545383832   13.349201526 XXX  2      oc3     O  -0.750
O93     13.650184458   26.840308183   11.595698836 XXX  2      oc4     O  -0.900
O94     10.862509853   28.459419880    9.091881113 XXX  2      oc4     O  -0.900
O95     15.798573073   26.259396614   15.142287338 XXX  2      oc4     O  -0.900
O96     15.774104290   29.266050199   15.905327879 XXX  2      oc4     O  -0.900
Ca53     5.053909975   25.607508596    5.595066482 XXX  2      ca+a    Ca  1.500
Ca54     5.027212997   37.466290781    6.448493305 XXX  2      ca+a    Ca  1.500
Al33     7.460735067   27.917288688    0.368079729 XXX  2      ac1     Al  1.200
Al34     7.322011870   27.105639737    3.716896449 XXX  2      ac1     Al  1.200
O97      7.574811324   27.856991861    2.110084777 XXX  2      oc3     O  -0.750
O98      3.815217965   15.517588502    1.918444523 XXX  2      oc3     O  -0.750
O99      5.614092396   27.191663217    4.077623009 XXX  2      oc4     O  -0.900
O100     3.242970510   27.105918775    6.296301871 XXX  2      oc4     O  -0.900
O101     8.280126046   29.369991738   -0.189248383 XXX  2      oc4     O  -0.900
O102     7.878821041   26.318745934   -0.176812438 XXX  2      oc4     O  -0.900
Ca55     9.881249057   17.979280864    1.976996632 XXX  2      ca+a    Ca  1.500
Ca56     9.500495120   21.828532392    1.925579281 XXX  2      ca+a    Ca  1.500
Al35     7.706219808   19.734118156    7.414086863 XXX  2      ac1     Al  1.200
Al36     7.620874747   19.449022857    4.023292146 XXX  2      ac1     Al  1.200
O103     7.614166104   20.031038059    5.672306095 XXX  2      oc3     O  -0.750
O104    11.345202387   23.518105490    5.873451038 XXX  2      oc3     O  -0.750
O105     9.168674835   19.895094680    3.319427103 XXX  2      oc4     O  -1.350
O106    11.723949949   19.074989454   16.684372537 XXX  2      oc4     O  -1.350
O107     7.035413827   21.168842619    8.117220670 XXX  2      oc4     O  -1.350
O108     7.089574479   18.177950674    7.772416975 XXX  2      oc4     O  -1.350
Ca57     0.622991325   23.185704364   14.809382600 XXX  2      ca+a    Ca  1.500
Ca58     1.636266977   17.559349918   13.312854404 XXX  2      ca+a    Ca  1.500
Al37    -0.010690953   19.607909708    7.835206604 XXX  2      ac1     Al  1.200
Al38    -0.222143200   19.833516460   11.208870130 XXX  2      ac1     Al  1.200
O109    -0.258236467   19.336948912    9.543705804 XXX  2      oc3     O  -0.750
O110     3.760300899   31.861300480    9.369283406 XXX  2      oc3     O  -0.750
O111     1.354864869   19.347424084   11.775040070 XXX  2      oc4     O  -1.350
O112     4.453747463   19.966083164   -1.506569920 XXX  2      oc4     O  -1.350
O113    -0.646071406   18.084597326    7.256385022 XXX  2      oc4     O  -1.350
O114    -0.716138708   21.099356807    7.620769403 XXX  2      oc4     O  -1.350
Ca59     7.185004221   32.172230740   15.780265741 XXX  2      ca+a    Ca  1.500
Ca60     7.218658081   35.854932242    8.870289162 XXX  2      ca+a    Ca  1.500
Al39    14.298758978   30.883078317   10.083433678 XXX  2      ac1     Al  1.200
Al40    11.573196074   32.445188452   11.485197247 XXX  2      ac1     Al  1.200
O115    12.707394057   31.276192486   10.818142550 XXX  2      oc3     O  -0.750
O116    13.320183004   27.668788991    7.995446765 XXX  2      oc3     O  -0.750
O117    10.248250377   32.388247314   10.438262973 XXX  2      oc4     O  -0.900
O118     9.437026287   26.754018192   11.712287386 XXX  2      oc4     O  -0.900
O119    14.046677590   31.090811012    8.358767818 XXX  2      oc4     O  -0.900
O120    15.433158032   31.957756940   10.949759419 XXX  2      oc4     O  -0.900
Ca61     5.444152277   21.015445499    9.862047790 XXX  2      ca+a    Ca  1.500
Ca62     5.648211031   21.738631793   13.656344016 XXX  2      ca+a    Ca  1.500
Al41     0.400817335   23.284480630   11.475381913 XXX  2      ac1     Al  1.200
Al42     3.856727615   23.458585161   11.426997189 XXX  2      ac1     Al  1.200
O121     2.152720098   23.389808612   11.836892174 XXX  2      oc3     O  -0.750
O122     1.976937176   19.864667361   -0.148347836 XXX  2      oc3     O  -0.750
O123     4.609358766   21.934609985   11.673504508 XXX  2      oc4     O  -1.350
O124     6.103907453   19.211193654   10.978373379 XXX  2      oc4     O  -1.350
O125    -0.301293879   23.998090332   12.838175093 XXX  2      oc4     O  -1.350
O126     0.257997525   24.014006096    9.928032613 XXX  2      oc4     O  -1.350
Ca63     2.233216751   30.118313073    2.631179018 XXX  2      ca+a    Ca  1.500
Ca64     5.552381563   31.294705080    4.509461759 XXX  2      ca+a    Ca  1.500
Al43     7.403091919   23.716797329    3.945194269 XXX  2      ac1     Al  1.200
Al44     4.016400400   23.334586259    3.730286052 XXX  2      ac1     Al  1.200
O127     5.635287040   23.538205863    4.306433684 XXX  2      oc3     O  -0.750
O128     5.772665059   27.559332338    7.490160833 XXX  2      oc3     O  -0.750
O129     3.201661066   24.731820548    4.234519157 XXX  2      oc4     O  -1.350
O130    16.320390261   28.485955405    3.420170359 XXX  2      oc4     O  -0.900
O131     8.069967037   23.080512207    5.387775512 XXX  2      oc4     O  -1.350
O132     7.577903688   22.888445134    2.374100144 XXX  2      oc4     O  -1.350
Ca65    13.196514279   18.307528258    5.741796024 XXX  2      ca+a    Ca  1.500
Ca66    13.204543934   17.747499878    1.823412839 XXX  2      ca+a    Ca  1.500
Al45     7.876969108   16.018081014    3.782232520 XXX  2      ac1     Al  1.200
Al46    11.318866204   15.889304324    4.075839260 XXX  2      ac1     Al  1.200
O133     9.637073717   15.816527519    3.581396774 XXX  2      oc3     O  -0.750
O134     9.432706466   19.764615051   15.586067868 XXX  2      oc3     O  -0.750
O135    11.900061634   17.527682054    3.677768919 XXX  2      oc4     O  -1.350
O136    -1.536119877   20.022320686    4.443552048 XXX  2      oc4     O  -1.350
O137     7.251220449   15.357159666    2.309459859 XXX  2      oc4     O  -1.350
O138     7.480990517   15.379031040    5.292783260 XXX  2      oc4     O  -1.350
H1      11.844332676   34.650312739   11.364187314 XXX  2      hoc     H   0.300
H2       8.957456341   30.282964386   14.625930171 XXX  2      hoc     H   0.300
H3      12.717648385   31.882651708   15.381002468 XXX  2      hoc     H   0.300
H4      10.079364853   33.328161201   10.239421786 XXX  2      hoc     H   0.300
H5       8.423191797   32.329156355   10.388732459 XXX  2      hoc     H   0.300
H6       8.448798150   31.543364300   13.516460242 XXX  2      hoc     H   0.300
H7       5.487071474   30.690402385    7.079361330 XXX  2      hoc     H   0.300
H8       2.776339224   32.988056763   12.022927933 XXX  2      hoc     H   0.300
H9       2.205335541   31.775393916    6.190127970 XXX  2      hoc     H   0.300
H10      3.362524671   29.580441329   10.953158663 XXX  2      hoc     H   0.300
H11     16.187840565   31.419064094   10.814767533 XXX  2      hoc     H   0.300
H12     13.124511850   30.984486178    8.106157738 XXX  2      hoc     H   0.300
H13     15.577326328   29.111891426    8.929457054 XXX  2      hoc     H   0.300
H14      8.827128687   28.857685939    6.821253133 XXX  2      hoc     H   0.300
H15     11.383732689   28.965691856    6.165262409 XXX  2      hoc     H   0.300
H16     11.574783192   28.393520583    9.691267841 XXX  2      hoc     H   0.300
H17      7.921236888   28.192895180    5.430942491 XXX  2      hoc     H   0.300
H18     16.440090713   28.950467397    4.187914215 XXX  2      hoc     H   0.300
H19      3.939852549   28.453456425    2.095334143 XXX  2      hoc     H   0.300
H20      9.170684504   29.003454180   -0.447105017 XXX  2      hoc     H   0.300
H21     15.281134989   29.974570305   15.448507079 XXX  2      hoc     H   0.300
H22      2.765353632   27.827850488    5.964118308 XXX  2      hoc     H   0.300
H23      3.687455447   27.800142365    9.834174106 XXX  2      hoc     H   0.300
H24      3.257618185   28.364290553   -1.734253361 XXX  2      hoc     H   0.300
H25      8.212937533   26.064443322    0.684695177 XXX  2      hoc     H   0.300
H26      7.388216998   25.682858260    6.722805285 XXX  2      hoc     H   0.300
H27     14.920057617   25.723701146    6.800200261 XXX  2      hoc     H   0.300
H28      5.307127654   27.972248768    3.796910370 XXX  2      hoc     H   0.300
H29      5.910458261   27.882101057   12.302176564 XXX  2      hoc     H   0.300
H30      9.966743029   28.038016983   16.243587025 XXX  2      hoc     H   0.300
H31     11.053435950   27.506419979   13.081803515 XXX  2      hoc     H   0.300
H32     12.941568721   27.310543217    3.944721462 XXX  2      hoc     H   0.300
H33     12.867324567   27.302525011   11.665000740 XXX  2      hoc     H   0.300
H34     17.163950712   27.899486220   10.698550871 XXX  2      hoc     H   0.300
H35     15.586035553   26.046094037   15.990541880 XXX  2      hoc     H   0.300
H36     10.100503356   27.310437775   11.325777498 XXX  2      hoc     H   0.300
end
CA1     15.840964182    1.041898758    0.857211499 XXX  1      ca+a    Ca  1.500
CA2     20.408241360   -1.533127048    2.068072092 XXX  1      ca+a    Ca  1.500
CA3     19.386016069    4.410719028    3.842196511 XXX  1      ca+a    Ca  1.500
CA4     20.940175714    6.165837636    5.767820337 XXX  1      ca+a    Ca  1.500
CA5     17.240053102    5.965145983    2.393455683 XXX  1      ca+a    Ca  1.500
CA6     20.984713287    6.212092088    1.620392601 XXX  1      ca+a    Ca  1.500
AL1     18.754725030    0.863735818   -0.360333155 XXX  1      ac1     Al  1.200
AL2     18.717806695    4.207367525   -0.113871872 XXX  1      ac1     Al  1.200
O1      19.064883264    2.540858876   -0.406694959 XXX  1      oc3     O  -0.750
O2      22.704724570    2.451863356    3.429826801 XXX  1      oc3     O  -0.750
O3      19.301734413    4.668933997    1.517571406 XXX  1      oc4     O  -1.350
O4      18.509267735    6.552812032    4.214480770 XXX  1      oc4     O  -1.350
O5      20.108439862    0.112050614   -1.171820817 XXX  1      oc4     O  -1.350
O6      17.143614157    0.768672453   -1.003314226 XXX  1      oc4     O  -1.350
CA1     22.936567680    0.982924450    6.625209698 XXX  2      ca+a    Ca  1.500
CA2     13.019505028   -1.691596200    4.943919529 XXX  2      ca+a    Ca  1.500
CA3     18.982703891   11.956474219   11.570770211 XXX  2      ca+a    Ca  1.500
CA4     17.035498800   10.279468265   13.563470539 XXX  2      ca+a    Ca  1.500
CA5     20.828377271   10.206540915    9.779124860 XXX  2      ca+a    Ca  1.500
CA6     17.221439815   10.178213389    9.165910434 XXX  2      ca+a    Ca  1.500
AL1     19.023536745   15.655159209    7.745996983 XXX  2      ac1     Al  1.200
AL2     19.293354106   12.161800319    7.615220788 XXX  2      ac1     Al  1.200
O1      18.795209453   13.880937060    7.608057371 XXX  2      oc3     O  -0.750
O2      30.600611782   14.038448546   11.540254878 XXX  2      oc3     O  -0.750
O3      19.000653649   11.515793896    9.238422601 XXX  2      oc4     O  -1.350
O4      19.711234511    9.814803750   11.727119874 XXX  2      oc4     O  -1.350
O5      17.561055868   16.261608928    6.972437194 XXX  2      oc4     O  -1.350
O6      20.619407599   15.888143869    7.132101134 XXX  2      oc4     O  -1.350
CA7     15.204256614    8.172372020    7.674775137 XXX  2      ca+a    Ca  1.500
CA8     22.857671885    8.084337225    7.429903762 XXX  2      ca+a    Ca  1.500
CA9     26.470702234   12.251142183    3.578819694 XXX  2      ca+a    Ca  1.500
CA10    24.440388493   14.264686398    1.493701902 XXX  2      ca+a    Ca  1.500
CA11    28.377672707   13.866707763    5.274134236 XXX  2      ca+a    Ca  1.500
CA12    24.610494882   14.011913665    5.786547777 XXX  2      ca+a    Ca  1.500
AL3     26.565423412    8.617394490    7.327851289 XXX  2      ac1     Al  1.200
AL4     26.891763449   11.915581409    7.585944288 XXX  2      ac1     Al  1.200
O7      26.348192551   10.271434039    7.462157725 XXX  2      oc3     O  -0.750
O8      23.024382067   10.019539388    3.805458730 XXX  2      oc3     O  -0.750
O9      26.492153776   12.576195302    5.982429259 XXX  2      oc4     O  -1.350
O10     26.225775015   -1.730737522    4.089760151 XXX  2      oc4     O  -1.350
O11     25.058463529    8.029552525    8.041870956 XXX  2      oc4     O  -1.350
O12     28.146847699    8.274413080    8.101795075 XXX  2      oc4     O  -1.350
CA13    22.905091971    8.108505619   -0.050537244 XXX  2      ca+a    Ca  1.500
CA14    15.255358244    8.195985122    0.155708019 XXX  2      ca+a    Ca  1.500
CA15    26.854543617    4.342159844   11.355026646 XXX  2      ca+a    Ca  1.500
CA16    29.611216310    0.848342767    7.640230559 XXX  2      ca+a    Ca  1.500
CA17    24.985750989    2.257918499   12.979558650 XXX  2      ca+a    Ca  1.500
CA18    28.724441181    6.518733487   12.992451807 XXX  2      ca+a    Ca  1.500
AL5     26.732073508    7.813831341   15.054946260 XXX  2      ac1     Al  1.200
AL6     26.348304761    4.382443352   15.068236057 XXX  2      ac1     Al  1.200
O13     26.889876178    6.032230061   15.023851966 XXX  2      oc3     O  -0.750
O14     15.623697529    6.102338682   11.674821226 XXX  2      oc3     O  -0.750
O15     26.614431845    3.548545347   13.532308508 XXX  2      oc4     O  -1.350
O16     26.195158698   17.304706241   10.988860439 XXX  2      oc4     O  -1.350
O17     28.181178172    8.540341081   15.803132163 XXX  2      oc4     O  -1.350
O18     25.078064617    8.092310851   15.635753397 XXX  2      oc4     O  -1.350
CA19    17.489474248    2.837245089    5.209856639 XXX  2      ca+a    Ca  1.500
CA20    16.846429090    6.504240913    5.598536130 XXX  2      ca+a    Ca  1.500
AL7     15.299329351    4.271724575    0.260646319 XXX  2      ac1     Al  1.200
AL8     14.924785079    4.191994066    3.780254717 XXX  2      ac1     Al  1.200
O19     14.779673399    4.164913833    1.968261239 XXX  2      oc3     O  -0.750
O20     18.822168844    7.918923021    1.919759657 XXX  2      oc3     O  -0.750
O21     16.554965375    4.744952217    4.234701796 XXX  2      oc4     O  -1.350
O22     19.284669979    3.887732541    6.137509798 XXX  2      oc4     O  -1.350
O23     14.561105097    5.695558794   -0.282460203 XXX  2      oc4     O  -1.350
O24     15.020385457    2.745173141   -0.371130883 XXX  2      oc4     O  -1.350
CA21    25.283194913    6.434365364    9.545899386 XXX  2      ca+a    Ca  1.500
CA22    24.311451373    2.273203748    9.292172858 XXX  2      ca+a    Ca  1.500
AL9     22.905596263    4.215845663   14.881427143 XXX  2      ac1     Al  1.200
AL10    22.980626731    4.434707514   11.460550528 XXX  2      ac1     Al  1.200
O25     22.639989909    4.056706434   13.137218705 XXX  2      oc3     O  -0.750
O26     26.617436581   16.096107668   13.380696783 XXX  2      oc3     O  -0.750
O27     24.446163450    3.489252660   11.060607730 XXX  2      oc4     O  -1.350
O28     26.954500256    4.954463461    9.108545606 XXX  2      oc4     O  -1.350
O29     22.354413541    2.746926197   15.652973964 XXX  2      oc4     O  -1.350
O30     22.374029858    5.824267758   15.337813535 XXX  2      oc4     O  -1.350
CA23    20.725480118   13.803929614   13.101375167 XXX  2      ca+a    Ca  1.500
CA24    21.341366173   10.030819641   13.331913685 XXX  2      ca+a    Ca  1.500
AL11    22.671305958   11.969989829    7.819056587 XXX  2      ac1     Al  1.200
AL12    22.879200978   12.336022352   11.259615135 XXX  2      ac1     Al  1.200
O31     22.681254923   11.737052971    9.593358635 XXX  2      oc3     O  -0.750
O32     19.246985013    8.493248564    9.356883149 XXX  2      oc3     O  -0.750
O33     21.375686747   11.982695670   12.009961244 XXX  2      oc4     O  -1.350
O34     18.783488903   12.452036419   -1.544870406 XXX  2      oc4     O  -1.350
O35     23.477686708   10.488546846    7.314805558 XXX  2      oc4     O  -1.350
O36     23.206170684   13.642702831    7.562908258 XXX  2      oc4     O  -1.350
CA25    28.121986531   10.264934761    2.015760272 XXX  2      ca+a    Ca  1.500
CA26    28.769488684   14.004015317    1.857809313 XXX  2      ca+a    Ca  1.500
AL13    30.277012946   12.078002856    7.198071353 XXX  2      ac1     Al  1.200
AL14    30.440644664   11.629901468    3.866875090 XXX  2      ac1     Al  1.200
O37     30.554755039   12.175676397    5.515170851 XXX  2      oc3     O  -0.750
O38     26.098685381    0.797166311    5.375297496 XXX  2      oc3     O  -0.750
O39     28.835292192   12.127982873    3.276156756 XXX  2      oc4     O  -1.350
O40     26.347124407   11.463344652   16.751597069 XXX  2      oc4     O  -1.350
O41     31.089399192   13.487916625    7.786595768 XXX  2      oc4     O  -1.350
O42     30.839261505   10.474682500    7.592063864 XXX  2      oc4     O  -1.350
CA27    20.795336155    2.707433093    1.883454590 XXX  2      ca+a    Ca  1.500
CA28    20.035514958   -0.939932166    5.665163302 XXX  2      ca+a    Ca  1.500
AL15    15.021557073    0.804710910    3.858351459 XXX  2      ac1     Al  1.200
AL16    18.373688627    0.571075912    3.002843193 XXX  2      ac1     Al  1.200
O43     16.737239511    0.386453433    3.574106401 XXX  2      oc3     O  -0.750
O44     16.890355701    4.493905491    7.347671120 XXX  2      oc3     O  -0.750
O45     18.901917976    2.220321276    3.426043271 XXX  2      oc4     O  -1.350
O46     21.458553637    4.777858884    3.238657295 XXX  2      oc4     O  -1.350
O47     14.466570352   -0.103550966    5.278800045 XXX  2      oc4     O  -1.350
O48     14.266713117    0.597241880    2.307095209 XXX  2      oc4     O  -1.350
CA29    24.835771607   10.436636048    5.523116508 XXX  2      ca+a    Ca  1.500
CA30    24.783684083    9.925851640    1.678112484 XXX  2      ca+a    Ca  1.500
AL17    30.184300758    8.284965628    3.574327269 XXX  2      ac1     Al  1.200
AL18    26.791370301    8.225951888    3.931847687 XXX  2      ac1     Al  1.200
O49     28.462092958    8.079620308    3.448239135 XXX  2      oc3     O  -0.750
O50     28.662245797   11.880494929   15.461348461 XXX  2      oc3     O  -0.750
O51     26.256224192    9.848955940    3.551961368 XXX  2      oc4     O  -1.350
O52     24.252747393   12.353188622    4.339250323 XXX  2      oc4     O  -1.350
O53     30.847632948    7.676191356    2.143203933 XXX  2      oc4     O  -1.350
O54     30.485422309    7.598099975    5.158631602 XXX  2      oc4     O  -1.350
CA31    30.473379268    8.293883937   15.152786732 XXX  2      ca+a    Ca  1.500
CA32    28.585858820    6.433208709    9.370304060 XXX  2      ca+a    Ca  1.500
AL19    23.172213829    7.901210885   11.361623323 XXX  2      ac1     Al  1.200
AL20    26.503271089    8.378975567   11.683205409 XXX  2      ac1     Al  1.200
O55     24.797342386    8.508012583   11.290374776 XXX  2      oc3     O  -0.750
O56     24.719955579    4.743530516    7.657532274 XXX  2      oc3     O  -0.750
O57     27.085726705    6.797183323   11.150879408 XXX  2      oc4     O  -1.350
O58     13.648629303    4.259056603   12.045583220 XXX  2      oc4     O  -1.350
O59     22.414173421    8.492410788    9.831475837 XXX  2      oc4     O  -1.350
O60     22.678541566    8.361311280   12.974347811 XXX  2      oc4     O  -1.350
CA33    17.353407944   13.605751415    9.717449168 XXX  2      ca+a    Ca  1.500
CA34    17.214771946   14.197344536   13.358726748 XXX  2      ca+a    Ca  1.500
AL21    22.538985291   15.733447152   11.431011684 XXX  2      ac1     Al  1.200
AL22    19.146007790   15.915101504   11.195848726 XXX  2      ac1     Al  1.200
O61     20.828719653   15.961232797   11.727575704 XXX  2      oc3     O  -0.750
O62     21.096071763   11.994964894   -0.293201259 XXX  2      oc3     O  -0.750
O63     18.641950435   14.276026453   11.499664749 XXX  2      oc4     O  -1.350
O64     31.904470928   11.626970804   11.088428577 XXX  2      oc4     O  -1.350
O65     23.299391872   16.405778235   12.766891684 XXX  2      oc4     O  -1.350
O66     22.932365273   16.234977854    9.813404219 XXX  2      oc4     O  -1.350
CA35    26.568236921   11.995956691   11.253891785 XXX  2      ca+a    Ca  1.500
CA36    24.605534749   10.068368240    9.285393638 XXX  2      ca+a    Ca  1.500
CA37    28.455508223   10.264890045   12.924276022 XXX  2      ca+a    Ca  1.500
CA38    24.682615334   10.168675380   13.467817188 XXX  2      ca+a    Ca  1.500
AL23    26.612869399   15.565322141   15.079151878 XXX  2      ac1     Al  1.200
AL24    26.920374255   12.136257628   15.286708201 XXX  2      ac1     Al  1.200
O67     26.381916705   13.805750180   15.292771377 XXX  2      oc3     O  -0.750
O68     23.073089897   14.070779712   11.449808537 XXX  2      oc3     O  -0.750
O69     26.592512223   11.444406893   13.680385616 XXX  2      oc4     O  -1.350
O70     27.137494500    9.829676695   11.080670435 XXX  2      oc4     O  -1.350
O71     25.136252326   16.137613637   15.759905564 XXX  2      oc4     O  -1.350
O72     28.149673395   15.820858536   15.851426207 XXX  2      oc4     O  -1.350
CA39    26.800451640    4.662703336    3.628078449 XXX  2      ca+a    Ca  1.500
CA40    28.845983656    6.498093930    1.518079477 XXX  2      ca+a    Ca  1.500
CA41    24.791711537    6.161595728    5.312075315 XXX  2      ca+a    Ca  1.500
CA42    28.624081484    6.378467564    5.831497613 XXX  2      ca+a    Ca  1.500
AL25    26.258227370    0.910829610    7.123441439 XXX  2      ac1     Al  1.200
AL26    26.375153589    4.310233051    7.653069399 XXX  2      ac1     Al  1.200
O73     26.691779754    2.589219660    7.549058005 XXX  2      oc3     O  -0.750
O74     14.911475619    2.485843722    4.257353257 XXX  2      oc3     O  -0.750
O75     26.816195550    4.890878401    6.091576616 XXX  2      oc4     O  -1.350
O76     26.134655581    6.735370907    3.348622111 XXX  2      oc4     O  -1.350
O77     27.651252001   -0.043644547    7.474160992 XXX  2      oc4     O  -1.350
O78     24.769801249    0.682344187    7.899691905 XXX  2      oc4     O  -1.350
CA43    19.396962987    4.393147671   11.515382238 XXX  2      ca+a    Ca  1.500
CA44    22.117465711    0.462468706   15.624916123 XXX  2      ca+a    Ca  1.500
CA45    17.059386800    2.642294550    9.688125017 XXX  2      ca+a    Ca  1.500
CA46    20.897314349    2.703348276    9.141023633 XXX  2      ca+a    Ca  1.500
AL27    19.114768067    7.892453814    7.702900343 XXX  2      ac1     Al  1.200
AL28    18.660968096    4.515302478    7.641543856 XXX  2      ac1     Al  1.200
O79     19.264340422    6.154243663    7.707769815 XXX  2      oc3     O  -0.750
O80     23.363923460    6.136322278   11.102784707 XXX  2      oc3     O  -0.750
O81     18.905149052    3.723953216    9.162942924 XXX  2      oc4     O  -1.350
O82     18.434508764   17.302684411   11.828659391 XXX  2      oc4     O  -1.350
O83     20.602085956    8.399665635    6.929355536 XXX  2      oc4     O  -1.350
O84     17.453095641    8.278745678    7.237787488 XXX  2      oc4     O  -1.350
CA47    18.951512141   12.195367572    3.868586327 XXX  2      ca+a    Ca  1.500
CA48    17.008043380   14.254733020    5.855500370 XXX  2      ca+a    Ca  1.500
CA49    20.735529514   13.963656253    2.076813392 XXX  2      ca+a    Ca  1.500
CA50    17.056124511   13.900675409    1.731591959 XXX  2      ca+a    Ca  1.500
AL29    18.941006548    8.431436753    0.253111313 XXX  2      ac1     Al  1.200
AL30    19.375000633   11.860743298   -0.051210063 XXX  2      ac1     Al  1.200
O85     18.793705333   10.165674471    0.074282111 XXX  2      oc3     O  -0.750
O86     30.651696311    9.911111511    3.676816868 XXX  2      oc3     O  -0.750
O87     18.995289181   12.506377086    1.573776423 XXX  2      oc4     O  -1.350
O88     19.116480426   -0.834080889    3.755170888 XXX  2      oc4     O  -1.350
O89     17.458204422    7.886884500   -0.554819663 XXX  2      oc4     O  -1.350
O90     20.521709052    8.067994070   -0.321635942 XXX  2      oc4     O  -1.350
CA51    28.062298562   13.963261461    9.638162786 XXX  2      ca+a    Ca  1.500
CA52    28.816799401   10.217111735    9.388303673 XXX  2      ca+a    Ca  1.500
AL31    30.306235809   11.881722232   14.906550411 XXX  2      ac1     Al  1.200
AL32    30.412843351   12.294959224   11.570885435 XXX  2      ac1     Al  1.200
O91     30.376802006   11.715119205   13.167822491 XXX  2      oc3     O  -0.750
O92     26.828695293    8.456320325   13.392753247 XXX  2      oc3     O  -0.750
O93     28.796144721   11.970179593   10.851254552 XXX  2      oc4     O  -1.350
O94     26.187619441   12.456410696    9.007545090 XXX  2      oc4     O  -1.350
O95     31.072037792   10.396370305   15.447931872 XXX  2      oc4     O  -1.350
O96     30.865495480   13.471366695   15.225571558 XXX  2      oc4     O  -1.350
CA53    20.375319852   10.136115063    5.532922182 XXX  2      ca+a    Ca  1.500
CA54    21.194091022   14.056707803    5.630111334 XXX  2      ca+a    Ca  1.500
AL33    22.737244761   12.042835513    0.322760166 XXX  2      ac1     Al  1.200
AL34    22.762761927   11.699403009    3.667524369 XXX  2      ac1     Al  1.200
O97     22.761324663   12.295884865    2.041404489 XXX  2      oc3     O  -0.750
O98     18.593867670    0.287672269    1.283371160 XXX  2      oc3     O  -0.750
O99     21.235282737   12.021345138    4.442072727 XXX  2      oc4     O  -1.350
O100    18.562617888   11.594509652    6.122489088 XXX  2      oc4     O  -1.350
O101    23.447613718   13.503223842   -0.363155102 XXX  2      oc4     O  -1.350
O102    23.350068634   10.450829229   -0.005835774 XXX  2      oc4     O  -1.350
CA55    25.015015830    2.569403371    2.068767504 XXX  2      ca+a    Ca  1.500
CA56    24.540082946    6.349767042    1.870822994 XXX  2      ca+a    Ca  1.500
AL35    23.031593292    4.479936837    7.320841880 XXX  2      ac1     Al  1.200
AL36    22.885201657    4.076039469    3.956193510 XXX  2      ac1     Al  1.200
O103    22.647612536    4.307902036    5.687056242 XXX  2      oc3     O  -0.750
O104    26.672190924    8.063143969    5.689020902 XXX  2      oc3     O  -0.750
O105    24.549051696    4.567688225    3.399071579 XXX  2      oc4     O  -1.350
O106    26.907430389    3.779025193   16.641985739 XXX  2      oc4     O  -1.350
O107    22.172952851    5.935462254    7.723070453 XXX  2      oc4     O  -1.350
O108    22.727150254    2.871104049    7.906055448 XXX  2      oc4     O  -1.350
CA57    17.682346237    6.481941162   13.179671341 XXX  2      ca+a    Ca  1.500
CA58    16.450903595    2.019232232   13.586925298 XXX  2      ca+a    Ca  1.500
AL37    15.171860453    4.358373979    7.895045653 XXX  2      ac1     Al  1.200
AL38    15.207872877    4.417420078   11.327928177 XXX  2      ac1     Al  1.200
O109    15.087369818    3.999388069    9.606644490 XXX  2      oc3     O  -0.750
O110    18.933854974   16.172830899    9.475966568 XXX  2      oc3     O  -0.750
O111    16.583717049    3.477406419   11.818707844 XXX  2      oc4     O  -1.350
O112    19.252853431    4.988016992   -1.566912696 XXX  2      oc4     O  -1.350
O113    14.620170380    2.884626871    7.101724797 XXX  2      oc4     O  -1.350
O114    14.519501275    5.981320566    7.651339485 XXX  2      oc4     O  -1.350
CA59    24.839697037   13.943421802   13.150545208 XXX  2      ca+a    Ca  1.500
CA60    24.634123019   14.120391058    9.351434778 XXX  2      ca+a    Ca  1.500
AL39    30.116169188   15.668355883   11.339327559 XXX  2      ac1     Al  1.200
AL40    26.803452365   15.847813969   11.638913788 XXX  2      ac1     Al  1.200
O115    28.423348565   15.811516684   11.091225217 XXX  2      oc3     O  -0.750
O116    28.623714556   12.118526829    7.741083264 XXX  2      oc3     O  -0.750
O117    26.177161400   14.280106984   11.270637991 XXX  2      oc4     O  -1.350
O118    24.360820145   11.743672738   11.833753881 XXX  2      oc4     O  -1.350
O119    30.883902513   16.142615914    9.914120079 XXX  2      oc4     O  -1.350
O120    30.332789931   16.388533875   12.908318370 XXX  2      oc4     O  -1.350
CA61    21.098981236    6.321277576    9.656317013 XXX  2      ca+a    Ca  1.500
CA62    21.049204899    6.584316427   13.606903791 XXX  2      ca+a    Ca  1.500
AL41    15.666099754    7.864299357   11.445712148 XXX  2      ac1     Al  1.200
AL42    19.025230881    8.338268704   11.117610574 XXX  2      ac1     Al  1.200
O121    17.304257642    8.462070622   11.552883804 XXX  2      oc3     O  -0.750
O122    17.016022151    4.577637173   -0.029595112 XXX  2      oc3     O  -0.750
O123    19.641143539    6.718340460   11.534645898 XXX  2      oc4     O  -1.350
O124    21.481121448    4.159921735   10.660436194 XXX  2      oc4     O  -1.350
O125    14.944821159    8.406930936   12.964115224 XXX  2      oc4     O  -1.350
O126    15.026543217    8.246718809    9.915121190 XXX  2      oc4     O  -1.350
CA63    17.331330232   10.487949106    1.987940582 XXX  2      ca+a    Ca  1.500
CA64    17.006827108    9.902058036    5.823208545 XXX  2      ca+a    Ca  1.500
AL43    22.504114472    8.305300758    3.826237109 XXX  2      ac1     Al  1.200
AL44    19.169533507    8.062327411    3.565980921 XXX  2      ac1     Al  1.200
O127    20.848628797    8.005709959    4.006540880 XXX  2      oc3     O  -0.750
O128    20.990357587   11.909201946    7.310842522 XXX  2      oc3     O  -0.750
O129    18.575883624    9.596031828    3.971078343 XXX  2      oc4     O  -1.350
O130    31.909223746   12.255571708    3.231844448 XXX  2      oc4     O  -1.350
O131    23.248743034    7.525773198    5.223044933 XXX  2      oc4     O  -1.350
O132    22.832738698    7.723744613    2.227446709 XXX  2      oc4     O  -1.350
CA65    28.380327497    3.036436122    5.662734953 XXX  2      ca+a    Ca  1.500
CA66    28.469645471    1.866770714    1.540341396 XXX  2      ca+a    Ca  1.500
AL45    22.508013778    0.664019984    3.467381456 XXX  2      ac1     Al  1.200
AL46    25.788281606   -0.066383831    3.859325677 XXX  2      ac1     Al  1.200
O133    24.068487585   -0.115835225    3.477100329 XXX  2      oc3     O  -0.750
O134    24.639767112    4.298821512   15.325605368 XXX  2      oc3     O  -0.750
O135    26.539072732    0.885160414    2.521276462 XXX  2      oc4     O  -1.350
O136    13.418227278    4.794662322    4.408353864 XXX  2      oc4     O  -1.350
O137    21.689541249    0.283847746    2.021968523 XXX  2      oc4     O  -1.350
O138    21.871818260    0.151020333    4.966908180 XXX  2      oc4     O  -1.350
end
CA1     15.308991249   15.919967619    0.060435917 XXX  1      ca+a    Ca  1.500
CA2     22.680782426   16.066291734   -0.072109963 XXX  1      ca+a    Ca  1.500
CA3     19.089649142   19.979620735    3.570230865 XXX  1      ca+a    Ca  1.500
CA4     21.047742610   21.806481018    5.731012126 XXX  1      ca+a    Ca  1.500
CA5     17.163141974   21.746050157    5.286898348 XXX  1      ca+a    Ca  1.500
CA6     21.098285113   21.890391314    1.575753206 XXX  1      ca+a    Ca  1.500
AL1     19.055472217   16.179705673    0.257757986 XXX  1      ac1     Al  1.200
AL2     18.955896149   19.570366117   -0.012724633 XXX  1      ac1     Al  1.200
O1      19.361728937   17.877777169   -0.034028041 XXX  1      oc3     O  -0.750
O2      22.757225406   17.774944403    3.712536769 XXX  1      oc3     O  -0.750
O3      19.589080054   20.235658579    1.430713197 XXX  1      oc4     O  -1.350
O4      19.102689745   22.243586017    4.459730867 XXX  1      oc4     O  -1.350
O5      20.482220053   15.357796444   -0.365266386 XXX  1      oc4     O  -1.350
O6      17.545792558   15.783471558   -0.426793395 XXX  1      oc4     O  -1.350
Ca1     22.841835174   15.936752154    7.514630815 XXX  2      ca+a    Ca  1.500
Ca2     15.243956767   15.963773103    7.494839979 XXX  2      ca+a    Ca  1.500
Ca3     15.595684911   31.030823090    6.538275673 XXX  2      ca+a    Ca  1.500
Ca4     17.178219412   25.400479367   13.431846639 XXX  2      ca+a    Ca  1.500
Ca5     21.049349277   25.542980634   10.235415590 XXX  2      ca+a    Ca  1.500
Ca6     16.998174235   25.286638137    9.355285732 XXX  2      ca+a    Ca  1.500
Al1     18.710290254   31.015110978    8.896679195 XXX  2      ac1     Al  1.200
Al2     19.193851800   27.727486985    7.954253123 XXX  2      ac1     Al  1.200
O1      18.525691882   29.226558375    8.519913657 XXX  2      oc3     O  -0.750
O2      30.662483592   29.454238405   11.200953217 XXX  2      oc3     O  -0.750
O3      19.143607818   26.759828647    9.435452124 XXX  2      oc4     O  -0.900
O4      19.850123563   24.797590025   12.047699568 XXX  2      oc4     O  -1.350
O5      17.347856334   31.835077489    8.144271959 XXX  2      oc4     O  -0.900
O6      20.339520830   31.402506033    8.565811468 XXX  2      oc4     O  -0.900
Ca7     15.362290092   23.349632177    7.697775251 XXX  2      ca+a    Ca  1.500
Ca8     22.902375147   23.556408179    7.610056547 XXX  2      ca+a    Ca  1.500
Ca9     24.211815284   33.768670843    5.621605756 XXX  2      ca+a    Ca  1.500
Ca10    24.987963334   39.164315383    3.909810414 XXX  2      ca+a    Ca  1.500
Ca11    28.772881438   38.555537504    3.815459666 XXX  2      ca+a    Ca  1.500
Ca12    29.047386850   42.558991610    5.590460883 XXX  2      ca+a    Ca  1.500
Al3     26.517420887   24.089312992    7.571167688 XXX  2      ac1     Al  1.200
Al4     26.954758860   27.550125261    8.330551682 XXX  2      ac1     Al  1.200
O7      26.441781208   25.890226424    7.758899787 XXX  2      oc3     O  -0.750
O8      23.349507237   25.629008916    3.815211529 XXX  2      oc3     O  -0.750
O9      26.488262078   28.787235330    7.143785047 XXX  2      oc4     O  -0.900
O10     27.211949962   14.426253653    3.443733788 XXX  2      oc4     O  -1.350
O11     25.052014486   23.465512288    8.407379966 XXX  2      oc4     O  -1.350
O12     28.037670519   23.624585022    8.222458037 XXX  2      oc4     O  -1.350
Ca13    23.103214805   23.347382350   -0.138097748 XXX  2      ca+a    Ca  1.500
Ca14    17.071917539   25.224002744    1.948439806 XXX  2      ca+a    Ca  1.500
Ca15    26.724221963   19.711795918   11.344472363 XXX  2      ca+a    Ca  1.500
Ca16    28.423387044   17.752820851    9.453108971 XXX  2      ca+a    Ca  1.500
Ca17    24.974565344   17.896574005   12.819122166 XXX  2      ca+a    Ca  1.500
Ca18    28.632797221   17.827711656   13.525973816 XXX  2      ca+a    Ca  1.500
Al5     26.797005256   23.201722090   15.125192442 XXX  2      ac1     Al  1.200
Al6     26.509566402   19.857100789   15.326042253 XXX  2      ac1     Al  1.200
O13     27.137423049   21.512500387   15.312798965 XXX  2      oc3     O  -0.750
O14     15.095340753   21.770515104   11.576215119 XXX  2      oc3     O  -0.750
O15     26.777297948   19.148202052   13.720054635 XXX  2      oc4     O  -1.350
O16     26.519182315   33.499403816   10.796722385 XXX  2      oc4     O  -0.900
O17     28.132460493   24.078001757   15.843744340 XXX  2      oc4     O  -1.350
O18     25.156995887   23.537331789   15.430740035 XXX  2      oc4     O  -1.350
Ca19    17.707111019   18.023142802    5.486602579 XXX  2      ca+a    Ca  1.500
Ca20    17.378576779   25.057933336    5.839720020 XXX  2      ca+a    Ca  1.500
Al7     15.570255149   19.844574671    0.266836251 XXX  2      ac1     Al  1.200
Al8     15.249006100   19.384874076    3.713799297 XXX  2      ac1     Al  1.200
O19     15.196305899   19.932715051    2.010559652 XXX  2      oc3     O  -0.750
O20     19.186408171   23.604733342    1.862117522 XXX  2      oc3     O  -0.750
O21     16.928613898   19.731205889    4.303055585 XXX  2      oc4     O  -1.350
O22     19.418615521   19.256618611    6.194785842 XXX  2      oc4     O  -1.350
O23     14.778754644   21.305218747   -0.336929924 XXX  2      oc4     O  -1.350
O24     15.035779896   18.245143243   -0.239429802 XXX  2      oc4     O  -1.350
Ca21    24.880080908   21.513701934    9.666666008 XXX  2      ca+a    Ca  1.500
Ca22    24.465143744   17.677602235    9.555363054 XXX  2      ca+a    Ca  1.500
Al9     23.027186734   19.555923805   15.040302012 XXX  2      ac1     Al  1.200
Al10    22.837138522   19.963757442   11.672280393 XXX  2      ac1     Al  1.200
O25     22.919617583   19.385164276   13.265418877 XXX  2      oc3     O  -0.750
O26     26.021964909   31.445842604   12.688765513 XXX  2      oc3     O  -0.750
O27     24.396638826   19.491995550   10.991071696 XXX  2      oc4     O  -1.350
O28     26.845351531   20.272246924    9.161617447 XXX  2      oc4     O  -1.350
O29     22.303625549   18.090876407   15.566402582 XXX  2      oc4     O  -1.350
O30     22.314124262   21.120965291   15.295675676 XXX  2      oc4     O  -1.350
Ca23    20.521832852   34.985823397   13.050440757 XXX  2      ca+a    Ca  1.500
Ca24    21.223124267   25.380734098   13.603847178 XXX  2      ca+a    Ca  1.500
Al11    22.637681630   27.747166387    7.867319383 XXX  2      ac1     Al  1.200
Al12    23.183840494   27.745348885   11.437732276 XXX  2      ac1     Al  1.200
O31     23.007384798   27.407343084    9.625314278 XXX  2      oc3     O  -0.750
O32     19.429356142   23.715500428    9.591167727 XXX  2      oc3     O  -0.750
O33     21.737533131   27.129716685   12.085060964 XXX  2      oc4     O  -0.900
O34     18.865107759   27.839849512   -1.494422682 XXX  2      oc4     O  -0.900
O35     23.120709689   26.319439781    7.048342337 XXX  2      oc4     O  -0.900
O36     23.179706716   29.328100431    7.402531476 XXX  2      oc4     O  -0.900
Ca25    29.072425757   29.983460278    2.082494516 XXX  2      ca+a    Ca  1.500
Ca26    25.968616045   33.965053218    2.145720955 XXX  2      ca+a    Ca  1.500
Al13    30.357450078   28.062361133    7.659278428 XXX  2      ac1     Al  1.200
Al14    30.589810876   27.492031246    4.187242111 XXX  2      ac1     Al  1.200
O37     30.317180486   28.112630072    5.843576426 XXX  2      oc3     O  -0.750
O38     26.662240150   15.641638757    5.752250874 XXX  2      oc3     O  -0.750
O39     29.136202319   27.847877599    3.302327497 XXX  2      oc4     O  -0.900
O40     26.344985199   27.527852197   17.041203140 XXX  2      oc4     O  -0.900
O41     30.714310388   29.679470817    8.161624579 XXX  2      oc4     O  -0.900
O42     31.424879672   26.707537721    7.977848001 XXX  2      oc4     O  -0.900
Ca27    20.943280623   18.317546118    2.099438094 XXX  2      ca+a    Ca  1.500
Ca28    21.032500110   17.626491522    5.717400807 XXX  2      ca+a    Ca  1.500
Al15    15.543604555   16.059758384    3.894701780 XXX  2      ac1     Al  1.200
Al16    18.911280770   15.928816336    3.601648311 XXX  2      ac1     Al  1.200
O43     17.282902362   15.902852775    4.112147192 XXX  2      oc3     O  -0.750
O44     16.972279580   19.863473556    7.329542275 XXX  2      oc3     O  -0.750
O45     19.646192459   17.483168986    3.920246950 XXX  2      oc4     O  -1.350
O46     21.560001260   20.268855459    3.359383029 XXX  2      oc4     O  -1.350
O47     14.978203067   15.363412742    5.381290575 XXX  2      oc4     O  -1.350
O48     15.257504048   15.347606042    2.354955438 XXX  2      oc4     O  -1.350
Ca29    26.648394604   27.658964640    3.785226820 XXX  2      ca+a    Ca  1.500
Ca30    25.019435075   25.251098519    1.947239790 XXX  2      ca+a    Ca  1.500
Al17    30.199717369   24.029293684    4.160932467 XXX  2      ac1     Al  1.200
Al18    26.804834601   23.828205240    4.156323012 XXX  2      ac1     Al  1.200
O49     28.551246897   23.684200274    3.776728076 XXX  2      oc3     O  -0.750
O50     28.714864335   27.782106865   15.721763014 XXX  2      oc3     O  -0.750
O51     26.388019819   25.482922294    3.652635480 XXX  2      oc4     O  -1.350
O52     24.493641751   28.219854365    4.616412082 XXX  2      oc4     O  -0.900
O53     30.997750244   23.189917183    2.882445810 XXX  2      oc4     O  -1.350
O54     30.690189939   23.401707767    5.699004632 XXX  2      oc4     O  -1.350
Ca31    28.512364321   21.188149834   13.263028046 XXX  2      ca+a    Ca  1.500
Ca32    28.408161081   21.773655715    9.410293768 XXX  2      ca+a    Ca  1.500
Al19    23.245280832   23.369707898   11.582402090 XXX  2      ac1     Al  1.200
Al20    26.716137447   23.345986625   11.785463891 XXX  2      ac1     Al  1.200
O55     25.005987166   23.342352214   11.320879920 XXX  2      oc3     O  -0.750
O56     24.564371096   19.839621217    7.899114839 XXX  2      oc3     O  -0.750
O57     27.301720391   21.799779818   11.394830568 XXX  2      oc4     O  -1.350
O58     13.821016185   19.330768476   11.944997678 XXX  2      oc4     O  -1.350
O59     22.758971868   24.154586141   10.110379627 XXX  2      oc4     O  -1.350
O60     23.063380366   24.150869304   13.188516248 XXX  2      oc4     O  -1.350
Ca33    15.430725219   35.470811287    7.149298786 XXX  2      ca+a    Ca  1.500
Ca34    16.193081739   37.749231921   11.838713095 XXX  2      ca+a    Ca  1.500
Al21    22.531636911   31.154279576   11.947070171 XXX  2      ac1     Al  1.200
Al22    19.050532793   31.543256106   12.413448018 XXX  2      ac1     Al  1.200
O61     20.840400914   31.190042904   12.544062983 XXX  2      oc3     O  -0.750
O62     20.603489889   28.792916105    0.546184511 XXX  2      oc3     O  -0.750
O63     18.153235772   30.373967663   13.269685619 XXX  2      oc4     O  -0.900
O64     32.380596152   27.196726875   11.432745569 XXX  2      oc4     O  -0.900
O65     23.453718168   31.937794131   13.221521405 XXX  2      oc4     O  -0.900
O66     22.499159161   31.746285342   10.335859932 XXX  2      oc4     O  -0.900
Ca35    25.126832235   30.629967477    7.743350200 XXX  2      ca+a    Ca  1.500
Ca36    25.097332696   25.297332417    9.886328336 XXX  2      ca+a    Ca  1.500
Ca37    28.587183169   25.422767519   12.951092806 XXX  2      ca+a    Ca  1.500
Ca38    24.913946662   25.266795606   13.789652832 XXX  2      ca+a    Ca  1.500
Al23    26.417841377   31.046402402   14.427699207 XXX  2      ac1     Al  1.200
Al24    26.915258876   27.787695176   15.461422553 XXX  2      ac1     Al  1.200
O67     26.296482500   29.322671924   14.824782958 XXX  2      oc3     O  -0.750
O68     23.263899611   29.501176544   11.826840846 XXX  2      oc3     O  -0.750
O69     26.737533917   26.664453425   14.135028994 XXX  2      oc4     O  -0.900
O70     27.320601997   24.734666537   11.060374241 XXX  2      oc4     O  -1.350
O71     25.175178064   31.881952421   15.293435180 XXX  2      oc4     O  -0.900
O72     28.110664001   31.502961494   14.672529049 XXX  2      oc4     O  -0.900
Ca39    26.959828185   20.118927710    3.537509580 XXX  2      ca+a    Ca  1.500
Ca40    29.418396623   22.511255257    1.570843782 XXX  2      ca+a    Ca  1.500
Ca41    24.800705664   21.628667090    5.190500600 XXX  2      ca+a    Ca  1.500
Ca42    28.506212088   21.712742678    5.919447048 XXX  2      ca+a    Ca  1.500
Al25    26.678489099   16.206606658    7.451430177 XXX  2      ac1     Al  1.200
Al26    26.265190858   19.650532747    7.674960154 XXX  2      ac1     Al  1.200
O73     26.833229741   17.941911470    7.574065791 XXX  2      oc3     O  -0.750
O74     15.017193307   17.637775597    3.884818590 XXX  2      oc3     O  -0.750
O75     26.667459720   20.449807521    6.161214967 XXX  2      oc4     O  -1.350
O76     26.097037399   22.380658254    3.488443235 XXX  2      oc4     O  -1.350
O77     28.077390705   15.606379103    8.250395853 XXX  2      oc4     O  -1.350
O78     25.098544814   15.916551449    8.074431621 XXX  2      oc4     O  -1.350
Ca43    17.564351093   21.535371960   13.387120137 XXX  2      ca+a    Ca  1.500
Ca44    19.046891748   19.524964235   11.671582913 XXX  2      ca+a    Ca  1.500
Ca45    17.238599684   17.870359962    9.892636822 XXX  2      ca+a    Ca  1.500
Ca46    20.959359723   18.064747756    9.175869288 XXX  2      ca+a    Ca  1.500
Al27    19.285684695   23.393381332    7.895886789 XXX  2      ac1     Al  1.200
Al28    18.749437058   19.986924851    7.639202457 XXX  2      ac1     Al  1.200
O79     19.399895499   21.665366757    7.533303767 XXX  2      oc3     O  -0.750
O80     22.631692598   21.734613649   11.603325603 XXX  2      oc3     O  -0.750
O81     19.147923817   19.301975506    9.259521099 XXX  2      oc4     O  -1.350
O82     18.824419119   33.277776355   12.725106393 XXX  2      oc4     O  -0.900
O83     20.714374268   24.164169484    7.162557488 XXX  2      oc4     O  -1.350
O84     17.619949472   23.923683998    7.647841039 XXX  2      oc4     O  -1.350
Ca47    21.524310699   30.939506976    6.458396481 XXX  2      ca+a    Ca  1.500
Ca48    17.983029146   37.182111105    5.058682768 XXX  2      ca+a    Ca  1.500
Ca49    20.172157684   31.549587486    2.792428728 XXX  2      ca+a    Ca  1.500
Ca50    16.726162321   36.472805769   -0.817535569 XXX  2      ca+a    Ca  1.500
Al29    19.335977597   24.199620588    0.236178379 XXX  2      ac1     Al  1.200
Al30    19.263380242   27.601400781    0.197505670 XXX  2      ac1     Al  1.200
O85     19.711914398   25.905293998    0.234268017 XXX  2      oc3     O  -0.750
O86     30.739755726   25.697577890    4.057870066 XXX  2      oc3     O  -0.750
O87     18.138884265   27.659433538    1.521720611 XXX  2      oc4     O  -0.900
O88     19.545219675   14.331446153    4.099160438 XXX  2      oc4     O  -1.350
O89     17.740297375   24.366559980   -0.336159236 XXX  2      oc4     O  -1.350
O90     20.679803984   23.436917787   -0.500825573 XXX  2      oc4     O  -1.350
Ca51    29.881725050   36.880719569   11.606249368 XXX  2      ca+a    Ca  1.500
Ca52    28.937486547   25.170828653    9.472092847 XXX  2      ca+a    Ca  1.500
Al31    30.431863862   28.160920619   15.330198085 XXX  2      ac1     Al  1.200
Al32    30.835279164   27.812841827   11.892802074 XXX  2      ac1     Al  1.200
O91     30.752908049   27.659881898   13.688971847 XXX  2      oc3     O  -0.750
O92     26.952416273   23.640757226   13.455049184 XXX  2      oc3     O  -0.750
O93     29.345956846   27.018473129   11.381070079 XXX  2      oc4     O  -0.900
O94     26.443568837   27.498769937    9.978451525 XXX  2      oc4     O  -0.900
O95     31.367261105   27.134105788   16.320976732 XXX  2      oc4     O  -0.900
O96     30.538411454   29.902347561   15.372203421 XXX  2      oc4     O  -0.900
Ca53    21.023299851   25.780099154    5.740889301 XXX  2      ca+a    Ca  1.500
Ca54    21.397012614   36.932501035    4.071794341 XXX  2      ca+a    Ca  1.500
Al33    22.297430583   29.248924404    0.954280707 XXX  2      ac1     Al  1.200
Al34    23.106122823   27.451453748    3.831603296 XXX  2      ac1     Al  1.200
O97     23.055627810   28.182583520    2.161091081 XXX  2      oc3     O  -0.750
O98     19.013410929   15.662322734    1.910193410 XXX  2      oc3     O  -0.750
O99     21.480301694   27.678703794    4.436231522 XXX  2      oc4     O  -0.900
O100    18.384251515   27.212801548    6.480155452 XXX  2      oc4     O  -0.900
O101    22.186328052   30.770279269    1.711854183 XXX  2      oc4     O  -0.900
O102    23.212105858   29.024198786   -0.510720755 XXX  2      oc4     O  -0.900
Ca55    25.256698917   17.983645511    2.029338549 XXX  2      ca+a    Ca  1.500
Ca56    24.600510170   21.842665235    1.905349918 XXX  2      ca+a    Ca  1.500
Al35    22.965033553   19.826345078    7.310458867 XXX  2      ac1     Al  1.200
Al36    23.016556320   19.573191016    3.940039158 XXX  2      ac1     Al  1.200
O103    23.017905111   20.098446379    5.603178168 XXX  2      oc3     O  -0.750
O104    26.503805696   23.555300109    5.869959930 XXX  2      oc3     O  -0.750
O105    24.596319917   20.051516916    3.266561168 XXX  2      oc4     O  -1.350
O106    27.093932933   19.153477315   16.768734357 XXX  2      oc4     O  -1.350
O107    22.066288138   21.192083560    8.007156858 XXX  2      oc4     O  -1.350
O108    22.351230225   18.213891637    7.419499101 XXX  2      oc4     O  -1.350
Ca57    15.612115981   23.402713352   15.461641868 XXX  2      ca+a    Ca  1.500
Ca58    16.894443169   17.763900585   13.452176010 XXX  2      ca+a    Ca  1.500
Al37    15.328925944   19.691415014    7.956230462 XXX  2      ac1     Al  1.200
Al38    15.277949773   20.031586205   11.399035765 XXX  2      ac1     Al  1.200
O109    15.356849608   19.488199349    9.701169802 XXX  2      oc3     O  -0.750
O110    18.537853672   31.355020249   10.683553787 XXX  2      oc3     O  -0.750
O111    16.786313734   19.666750670   12.140657692 XXX  2      oc4     O  -1.350
O112    19.567175998   19.995073428   -1.487759395 XXX  2      oc4     O  -1.350
O113    14.657392560   18.191115463    7.428292541 XXX  2      oc4     O  -1.350
O114    14.548451483   21.305521571    7.724597665 XXX  2      oc4     O  -1.350
Ca59    23.889984219   36.782550330   14.579587468 XXX  2      ca+a    Ca  1.500
Ca60    21.782741101   33.706472149    9.368149881 XXX  2      ca+a    Ca  1.500
Al39    29.999720513   31.192669677   11.242885876 XXX  2      ac1     Al  1.200
Al40    26.562859267   31.736173032   10.987834270 XXX  2      ac1     Al  1.200
O115    28.270373619   31.283389652   10.773101776 XXX  2      oc3     O  -0.750
O116    28.695185282   27.601650690    8.367130947 XXX  2      oc3     O  -0.750
O117    25.644514472   30.667443779    9.995361577 XXX  2      oc4     O  -0.900
O118    24.666323364   26.928489469   11.844286897 XXX  2      oc4     O  -0.900
O119    30.877636497   32.082927112    9.958455719 XXX  2      oc4     O  -0.900
O120    30.010266061   31.642347314   12.879855553 XXX  2      oc4     O  -0.900
Ca61    20.752406610   21.259982682    9.795486150 XXX  2      ca+a    Ca  1.500
Ca62    20.894426419   21.857291558   13.606316299 XXX  2      ca+a    Ca  1.500
Al41    15.660959569   23.494460570   11.521660222 XXX  2      ac1     Al  1.200
Al42    19.048688661   23.523267800   11.289223345 XXX  2      ac1     Al  1.200
O121    17.361630838   23.731271072   11.659632481 XXX  2      oc3     O  -0.750
O122    17.256318513   19.894588696   -0.178069866 XXX  2      oc3     O  -0.750
O123    19.421808172   21.911430824   11.726687511 XXX  2      oc4     O  -1.350
O124    21.324412683   19.292621862   11.052005978 XXX  2      oc4     O  -1.350
O125    15.152704951   24.336195793   12.953066287 XXX  2      oc4     O  -1.350
O126    15.298631058   24.064281397    9.876252880 XXX  2      oc4     O  -1.350
Ca63    15.906477499   30.470865536    2.087533096 XXX  2      ca+a    Ca  1.500
Ca64    18.604919271   28.060766098    3.800885964 XXX  2      ca+a    Ca  1.500
Al43    22.703556954   23.935583075    3.801329971 XXX  2      ac1     Al  1.200
Al44    19.344792276   23.766090160    3.638607107 XXX  2      ac1     Al  1.200
O127    20.986415365   24.000376202    4.007992192 XXX  2      oc3     O  -0.750
O128    20.913560811   27.776587549    7.538218220 XXX  2      oc3     O  -0.750
O129    18.603513623   25.340399473    4.022393642 XXX  2      oc4     O  -1.350
O130    32.063009794   28.191072477    3.819471494 XXX  2      oc4     O  -0.900
O131    23.079529360   23.065574804    5.326054599 XXX  2      oc4     O  -1.350
O132    22.896146620   23.225686435    2.217320561 XXX  2      oc4     O  -1.350
Ca65    28.315799183   18.082920004    5.578992348 XXX  2      ca+a    Ca  1.500
Ca66    28.653726700   17.636016040    1.801282897 XXX  2      ca+a    Ca  1.500
Al45    23.152401157   16.081825571    3.733779130 XXX  2      ac1     Al  1.200
Al46    26.494031063   15.860908018    4.061228906 XXX  2      ac1     Al  1.200
O133    24.874091424   15.776736393    3.431577426 XXX  2      oc3     O  -0.750
O134    24.683151131   19.706952518   15.621979929 XXX  2      oc3     O  -0.750
O135    27.115509532   17.471102131    3.743394078 XXX  2      oc4     O  -1.350
O136    13.863717293   20.066957179    4.432479763 XXX  2      oc4     O  -1.350
O137    22.448073007   15.302404402    2.332991421 XXX  2      oc4     O  -1.350
O138    22.858003617   15.477955150    5.303653752 XXX  2      oc4     O  -1.350
H1      27.328405537   33.814819227   11.174578202 XXX  2      hoc     H   0.300
H2      24.470061661   31.819292488   14.690254175 XXX  2      hoc     H   0.300
H3      28.494341042   31.432078453   13.832443287 XXX  2      hoc     H   0.300
H4      25.649303086   29.838445090   10.450350739 XXX  2      hoc     H   0.300
H5      23.175064770   31.297033770    9.864932134 XXX  2      hoc     H   0.300
H6      24.299439032   31.797714694   12.957555733 XXX  2      hoc     H   0.300
H7      20.883749722   31.111597198    9.298279326 XXX  2      hoc     H   0.300
H8      18.204548570   33.534237390   12.066516777 XXX  2      hoc     H   0.300
H9      16.773509320   31.807087342    8.859772456 XXX  2      hoc     H   0.300
H10     17.730599050   29.869853277   12.593087652 XXX  2      hoc     H   0.300
H11     30.406903463   30.913597015   13.357293327 XXX  2      hoc     H   0.300
H12     31.739588348   31.694197626   10.075773236 XXX  2      hoc     H   0.300
H13     31.120441968   29.689506026    8.952087545 XXX  2      hoc     H   0.300
H14     23.479548389   29.140497119    6.596489206 XXX  2      hoc     H   0.300
H15     27.265074949   28.871039786    6.637931745 XXX  2      hoc     H   0.300
H16     27.216500825   27.639305050   10.514002476 XXX  2      hoc     H   0.300
H17     24.440994704   29.109464115    4.469803739 XXX  2      hoc     H   0.300
H18     32.725554315   27.541506349    3.685400124 XXX  2      hoc     H   0.300
H19     17.506549222   28.317561101    1.268366132 XXX  2      hoc     H   0.300
H20     22.964684045   30.797767026    2.216113465 XXX  2      hoc     H   0.300
H21     29.821047305   30.186217829   14.941714465 XXX  2      hoc     H   0.300
H22     17.537240857   27.638386462    6.417395842 XXX  2      hoc     H   0.300
H23     19.119546042   27.338187318   10.118961148 XXX  2      hoc     H   0.300
H24     18.908327401   28.788485200   -1.564006095 XXX  2      hoc     H   0.300
H25     23.885083109   28.380459563   -0.468248609 XXX  2      hoc     H   0.300
H26     23.932290599   26.446959000    6.602484679 XXX  2      hoc     H   0.300
H27     32.225687000   27.094195967    7.709159286 XXX  2      hoc     H   0.300
H28     21.257657569   28.591148348    4.301561981 XXX  2      hoc     H   0.300
H29     21.283319831   27.796334992   12.531635251 XXX  2      hoc     H   0.300
H30     26.151150139   28.415180244   17.242960763 XXX  2      hoc     H   0.300
H31     26.658209933   27.204271175   13.337300651 XXX  2      hoc     H   0.300
H32     28.989452263   26.995657242    2.940381346 XXX  2      hoc     H   0.300
H33     28.839364000   27.659507238   10.890393482 XXX  2      hoc     H   0.300
H34     32.767099213   28.020355993   11.410608834 XXX  2      hoc     H   0.300
H35     32.220505547   27.483679020   16.212646537 XXX  2      hoc     H   0.300
H36     25.432142051   27.467877848   11.649523484 XXX  2      hoc     H   0.300
end
CA1      0.773093035    1.416050455   15.764343064 XXX  1      ca+a    Ca  1.500
CA2      5.352561132   -1.546441427   17.930248863 XXX  1      ca+a    Ca  1.500
CA3      3.752014861    4.604534273   19.039371007 XXX  1      ca+a    Ca  1.500
CA4      5.857940553    6.438449783   21.228061945 XXX  1      ca+a    Ca  1.500
CA5      1.892678095    6.312550240   17.251545254 XXX  1      ca+a    Ca  1.500
CA6      5.687415001    6.283716853   16.838170716 XXX  1      ca+a    Ca  1.500
AL1      3.824491577    0.814824104   15.155824656 XXX  1      ac1     Al  1.200
AL2      3.380128115    4.272514332   15.146194647 XXX  1      ac1     Al  1.200
O1       3.970747179    2.583552898   15.028499576 XXX  1      oc3     O  -0.750
O2       7.337281735    2.394006278   18.731686154 XXX  1      oc3     O  -0.750
O3       3.648469862    4.891332371   16.866324647 XXX  1      oc4     O  -1.350
O4       3.145688610    6.692175424   19.509855589 XXX  1      oc4     O  -1.350
O5       5.293027138    0.160021289   14.403510320 XXX  1      oc4     O  -1.350
O6       2.202603503    0.446784118   14.502943108 XXX  1      oc4     O  -1.350
CA1      8.289580773    0.727235706   22.315022428 XXX  2      ca+a    Ca  1.500
CA2     -1.904603078   -1.632540607   19.672062708 XXX  2      ca+a    Ca  1.500
CA3      3.715732406   11.951719818   26.888716596 XXX  2      ca+a    Ca  1.500
CA4      1.873357700   10.078978110   28.697326966 XXX  2      ca+a    Ca  1.500
CA5      5.573323194   10.237144530   25.148425071 XXX  2      ca+a    Ca  1.500
CA6      1.873506794   10.182450884   24.510071131 XXX  2      ca+a    Ca  1.500
AL1      3.766024455   15.579222808   23.000578533 XXX  2      ac1     Al  1.200
AL2      4.035279964   12.150213655   22.866247600 XXX  2      ac1     Al  1.200
O1       3.468710439   13.859398328   22.888179439 XXX  2      oc3     O  -0.750
O2      15.474059291   13.967713579   26.556845286 XXX  2      oc3     O  -0.750
O3       3.811412875   11.447507516   24.422623576 XXX  2      oc4     O  -1.350
O4       4.274874957    9.691807826   27.137966004 XXX  2      oc4     O  -1.350
O5       2.253865285   16.204856226   22.296653532 XXX  2      oc4     O  -1.350
O6       5.345119090   15.809455325   22.333840555 XXX  2      oc4     O  -1.350
CA7     -0.183530280    8.173903357   22.827877700 XXX  2      ca+a    Ca  1.500
CA8      7.702217052    8.208200519   22.780191666 XXX  2      ca+a    Ca  1.500
CA9     11.217474425   12.208881795   18.831642933 XXX  2      ca+a    Ca  1.500
CA10     9.257113161   14.194624559   16.860369578 XXX  2      ca+a    Ca  1.500
CA11    13.120808329   13.745564156   20.523595247 XXX  2      ca+a    Ca  1.500
CA12     9.369742603   13.895744167   21.241475138 XXX  2      ca+a    Ca  1.500
AL3     11.425892087    8.475488582   22.703529503 XXX  2      ac1     Al  1.200
AL4     11.739743892   11.859753357   22.825091745 XXX  2      ac1     Al  1.200
O7      11.239875622   10.211774008   22.714636343 XXX  2      oc3     O  -0.750
O8       7.781382043    9.862860602   19.146852628 XXX  2      oc3     O  -0.750
O9      11.289573058   12.529480902   21.264552277 XXX  2      oc4     O  -1.350
O10     11.653292278   -1.045857810   18.863298270 XXX  2      oc4     O  -1.350
O11      9.988186967    7.946273882   23.488778319 XXX  2      oc4     O  -1.350
O12     13.015171485    8.070976736   23.265315791 XXX  2      oc4     O  -1.350
CA13     7.580100951    8.123330570   15.278428979 XXX  2      ca+a    Ca  1.500
CA14    -2.345425216   10.226053235   17.284405866 XXX  2      ca+a    Ca  1.500
CA15    11.830538086    4.473285424   26.558471620 XXX  2      ca+a    Ca  1.500
CA16    14.866887868    0.551801271   22.375825243 XXX  2      ca+a    Ca  1.500
CA17     9.686183085    2.539071177   28.052248178 XXX  2      ca+a    Ca  1.500
CA18    13.281586995    2.366931375   28.828272209 XXX  2      ca+a    Ca  1.500
AL5     11.473211932    7.813705654   30.376534190 XXX  2      ac1     Al  1.200
AL6     11.129232064    4.426415517   30.396371899 XXX  2      ac1     Al  1.200
O13     11.738080758    6.076499951   30.337711598 XXX  2      oc3     O  -0.750
O14      0.417116877    6.052242419   26.793914142 XXX  2      oc3     O  -0.750
O15     11.427371382    3.565653967   28.829572772 XXX  2      oc4     O  -1.350
O16     11.094773441   17.382962570   26.397313864 XXX  2      oc4     O  -1.350
O17     12.945497729    8.404232096   31.162027847 XXX  2      oc4     O  -1.350
O18      9.764788432    8.134592439   31.043700911 XXX  2      oc4     O  -1.350
CA19     1.827032327    2.706832820   20.639144209 XXX  2      ca+a    Ca  1.500
CA20     1.519544916    6.290593174   20.974814288 XXX  2      ca+a    Ca  1.500
AL7     -0.032966491    4.488791241   15.578854298 XXX  2      ac1     Al  1.200
AL8     -0.200206475    4.395578759   18.949385892 XXX  2      ac1     Al  1.200
O19     -0.170424385    4.862347344   17.233984773 XXX  2      oc3     O  -0.750
O20      3.567806511    7.948725325   17.224427400 XXX  2      oc3     O  -0.750
O21      1.437066671    4.616884211   19.527641928 XXX  2      oc4     O  -1.350
O22      3.902829874    3.740817326   21.451223865 XXX  2      oc4     O  -1.350
O23     -0.671404413    5.942955977   14.776481439 XXX  2      oc4     O  -1.350
O24     -0.749635965    2.904966470   15.415961384 XXX  2      oc4     O  -1.350
CA21     9.946825943    6.304556482   24.837278564 XXX  2      ca+a    Ca  1.500
CA22     9.190174773    2.665601814   24.705450493 XXX  2      ca+a    Ca  1.500
AL9      7.734183889    4.209002768   30.285384279 XXX  2      ac1     Al  1.200
AL10     7.686941628    4.473565686   26.889285256 XXX  2      ac1     Al  1.200
O25      7.528947320    3.925841939   28.541984009 XXX  2      oc3     O  -0.750
O26     11.528411430   16.150814412   28.711772487 XXX  2      oc3     O  -0.750
O27      9.317176569    4.063567562   26.370348383 XXX  2      oc4     O  -1.350
O28     11.623913123    5.066814265   24.364766054 XXX  2      oc4     O  -1.350
O29      7.272688678    2.794922321   31.181484738 XXX  2      oc4     O  -1.350
O30      6.993324466    5.753868440   30.579540091 XXX  2      oc4     O  -1.350
CA23     5.231169854   13.778225289   28.549840860 XXX  2      ca+a    Ca  1.500
CA24     5.906509663   10.026635350   28.607636197 XXX  2      ca+a    Ca  1.500
AL11     7.431913028   11.926487495   23.111114007 XXX  2      ac1     Al  1.200
AL12     7.559845291   12.217219628   26.511562814 XXX  2      ac1     Al  1.200
O31      7.532944311   11.731195492   24.816582147 XXX  2      oc3     O  -0.750
O32      4.016626121    8.340212708   24.770588486 XXX  2      oc3     O  -0.750
O33      5.966357331   11.874031224   27.245012380 XXX  2      oc4     O  -1.350
O34      3.276998541   12.216658367   13.657225293 XXX  2      oc4     O  -1.350
O35      8.303552288   10.554305103   22.538489304 XXX  2      oc4     O  -1.350
O36      8.000807933   13.534185772   22.910698645 XXX  2      oc4     O  -1.350
CA25    12.933463000   10.179325710   17.266188373 XXX  2      ca+a    Ca  1.500
CA26    13.556124672   13.978133834   17.166350982 XXX  2      ca+a    Ca  1.500
AL13    15.162151790   12.099610306   22.594727068 XXX  2      ac1     Al  1.200
AL14    15.240889445   11.704794601   19.260026199 XXX  2      ac1     Al  1.200
O37     15.375168594   12.297159781   20.903207028 XXX  2      oc3     O  -0.750
O38     11.182895202    0.247265588   21.340179342 XXX  2      oc3     O  -0.750
O39     13.634977069   12.088989000   18.700453372 XXX  2      oc4     O  -1.350
O40     11.025666285   11.592721746   32.064407719 XXX  2      oc4     O  -1.350
O41     16.011446800   13.501320305   23.230250803 XXX  2      oc4     O  -1.350
O42     15.713154731   10.488329263   22.991530938 XXX  2      oc4     O  -1.350
CA27     5.291790839    3.024875664   17.213487803 XXX  2      ca+a    Ca  1.500
CA28     5.283772192    2.125793317   20.645926223 XXX  2      ca+a    Ca  1.500
AL15     0.041444905    0.861379683   18.941810625 XXX  2      ac1     Al  1.200
AL16     3.370924573    0.700311196   18.570121299 XXX  2      ac1     Al  1.200
O43      1.708105791    0.530425888   18.970235482 XXX  2      oc3     O  -0.750
O44      1.639698346    4.424086242   22.666413129 XXX  2      oc3     O  -0.750
O45      3.806647174    2.405447034   18.852661487 XXX  2      oc4     O  -1.350
O46      5.986986335    4.738660805   18.521050326 XXX  2      oc4     O  -1.350
O47     -0.606147199    0.082766937   20.230619282 XXX  2      oc4     O  -1.350
O48     -0.433695700    0.584170157   17.356757511 XXX  2      oc4     O  -1.350
CA29     9.688597240   10.402646239   20.789088005 XXX  2      ca+a    Ca  1.500
CA30     9.454227852    9.778415429   17.035948852 XXX  2      ca+a    Ca  1.500
AL17    14.920606177    8.249914571   18.957305534 XXX  2      ac1     Al  1.200
AL18    11.507821755    8.031698686   19.303250027 XXX  2      ac1     Al  1.200
O49     13.154530313    8.113365754   18.754002335 XXX  2      oc3     O  -0.750
O50     13.324261213   11.936135632   30.785674419 XXX  2      oc3     O  -0.750
O51     10.789382898    9.603511300   18.898125450 XXX  2      oc4     O  -1.350
O52      9.005697555   12.335268493   19.591592552 XXX  2      oc4     O  -1.350
O53     15.541783548    7.479394339   17.513937646 XXX  2      oc4     O  -1.350
O54     15.270202610    7.591312487   20.566243888 XXX  2      oc4     O  -1.350
CA31    13.404557601    6.304446550   28.501194626 XXX  2      ca+a    Ca  1.500
CA32    13.350128978    6.485290539   24.630950591 XXX  2      ca+a    Ca  1.500
AL19     7.984445410    7.974215641   26.637835628 XXX  2      ac1     Al  1.200
AL20    11.353202792    8.292046486   26.987162004 XXX  2      ac1     Al  1.200
O55      9.692251289    8.262067285   26.399381463 XXX  2      oc3     O  -0.750
O56      9.506854630    4.620944487   22.976467986 XXX  2      oc3     O  -0.750
O57     12.032842770    6.714376112   26.640560084 XXX  2      oc4     O  -1.350
O58     -1.586726398    4.118780827   27.288370927 XXX  2      oc4     O  -1.350
O59      7.198472377    8.612371047   25.219014378 XXX  2      oc4     O  -1.350
O60      7.669217906    8.689939638   28.223990056 XXX  2      oc4     O  -1.350
CA33     1.909509167   13.851455835   24.929228167 XXX  2      ca+a    Ca  1.500
CA34     1.748643306   14.156731067   28.666825508 XXX  2      ca+a    Ca  1.500
AL21     7.394250489   15.671116313   26.711689556 XXX  2      ac1     Al  1.200
AL22     4.013650286   15.876690321   26.488473998 XXX  2      ac1     Al  1.200
O61      5.664430531   15.846835541   27.039928584 XXX  2      oc3     O  -0.750
O62      5.773022578   11.987491352   14.993086391 XXX  2      oc3     O  -0.750
O63      3.270480647   14.367095315   26.809035704 XXX  2      oc4     O  -1.350
O64     16.746292082   11.588315306   26.356894556 XXX  2      oc4     O  -1.350
O65      8.108745892   16.255862682   28.144680281 XXX  2      oc4     O  -1.350
O66      7.643785797   16.331774357   25.117106153 XXX  2      oc4     O  -1.350
CA35    11.321129332   11.906197919   26.726931643 XXX  2      ca+a    Ca  1.500
CA36     9.382288026   10.139940066   24.799959257 XXX  2      ca+a    Ca  1.500
CA37    13.239592502   10.273804666   28.034198742 XXX  2      ca+a    Ca  1.500
CA38     9.323936036   10.190377652   28.804005147 XXX  2      ca+a    Ca  1.500
AL23    11.474687270   15.584058445   30.354240999 XXX  2      ac1     Al  1.200
AL24    11.606243624   12.147458649   30.497066809 XXX  2      ac1     Al  1.200
O67     11.132598663   13.826752789   30.368375032 XXX  2      oc3     O  -0.750
O68      7.843868442   13.957946263   26.624137165 XXX  2      oc3     O  -0.750
O69     11.299360666   11.386973639   28.943617727 XXX  2      oc4     O  -1.350
O70     11.964434794    9.796425461   26.342465454 XXX  2      oc4     O  -1.350
O71     10.017091357   16.148626266   31.065072081 XXX  2      oc4     O  -1.350
O72     13.074237704   15.812866186   31.024765196 XXX  2      oc4     O  -1.350
CA39    11.624034138    4.435938392   18.923024698 XXX  2      ca+a    Ca  1.500
CA40    13.532841039    6.479515788   16.893132642 XXX  2      ca+a    Ca  1.500
CA41     9.633220381    5.954168175   20.523505435 XXX  2      ca+a    Ca  1.500
CA42    13.396921521    6.251749082   21.202440750 XXX  2      ca+a    Ca  1.500
AL25    11.473411132    0.877968971   23.001521743 XXX  2      ac1     Al  1.200
AL26    11.258317839    4.298321945   22.902340493 XXX  2      ac1     Al  1.200
O73     11.790380394    2.617794104   23.013847942 XXX  2      oc3     O  -0.750
O74     -0.314394320    2.620473963   19.188827649 XXX  2      oc3     O  -0.750
O75     11.671656164    4.844945325   21.302463193 XXX  2      oc4     O  -1.350
O76     10.873846877    6.543430609   18.665433380 XXX  2      oc4     O  -1.350
O77     12.972152854    0.159052924   23.598401708 XXX  2      oc4     O  -1.350
O78      9.962800963    0.720086242   23.797650895 XXX  2      oc4     O  -1.350
CA43     4.089051862    4.308462580   27.005284938 XXX  2      ca+a    Ca  1.500
CA44     7.088140052    0.651833104   30.736552016 XXX  2      ca+a    Ca  1.500
CA45     2.019518833    2.125058140   25.449474860 XXX  2      ca+a    Ca  1.500
CA46     5.680643125    2.629141578   24.442140807 XXX  2      ca+a    Ca  1.500
AL27     3.878788978    7.753083799   23.097252927 XXX  2      ac1     Al  1.200
AL28     3.325486153    4.381285012   22.964018511 XXX  2      ac1     Al  1.200
O79      4.054225472    6.005158891   23.065518057 XXX  2      oc3     O  -0.750
O80      7.495838198    6.257415415   26.709549340 XXX  2      oc3     O  -0.750
O81      3.580158233    3.496020129   24.548438698 XXX  2      oc4     O  -1.350
O82      3.453381386   17.368190589   27.239071465 XXX  2      oc4     O  -1.350
O83      5.355325553    8.319009981   22.298567261 XXX  2      oc4     O  -1.350
O84      2.282421918    8.158890736   22.484728912 XXX  2      oc4     O  -1.350
CA47     3.677199438   12.183276923   19.135999815 XXX  2      ca+a    Ca  1.500
CA48     1.685526053   14.224833141   21.289556655 XXX  2      ca+a    Ca  1.500
CA49     5.545391993   13.991256601   17.196415022 XXX  2      ca+a    Ca  1.500
CA50     1.782344321   13.888192708   16.948572125 XXX  2      ca+a    Ca  1.500
AL29     3.616612000    8.436030909   15.528379433 XXX  2      ac1     Al  1.200
AL30     3.962315340   11.819993398   15.225515102 XXX  2      ac1     Al  1.200
O85      3.443323175   10.174841579   15.311116207 XXX  2      oc3     O  -0.750
O86     15.522833454    9.882481262   18.982400261 XXX  2      oc3     O  -0.750
O87      3.576108886   12.599415051   16.762869297 XXX  2      oc4     O  -1.350
O88      4.180907958   -0.527850206   19.536676816 XXX  2      oc4     O  -1.350
O89      2.145669321    7.796358735   14.785650425 XXX  2      oc4     O  -1.350
O90      5.195008681    7.994133173   14.956629729 XXX  2      oc4     O  -1.350
CA51    13.176971264   13.772234520   24.824948688 XXX  2      ca+a    Ca  1.500
CA52    13.516573040   10.043381004   24.759761659 XXX  2      ca+a    Ca  1.500
AL31    15.014210681   11.959910188   30.301946082 XXX  2      ac1     Al  1.200
AL32    15.270718677   12.317300218   26.874176759 XXX  2      ac1     Al  1.200
O91     15.205414452   11.773336546   28.556438302 XXX  2      oc3     O  -0.750
O92     11.487911367    8.448025790   28.725035581 XXX  2      oc3     O  -0.750
O93     13.766352723   11.793847990   26.213950729 XXX  2      oc4     O  -1.350
O94     11.117082734   12.411768747   24.314572212 XXX  2      oc4     O  -1.350
O95     15.850519430   10.479652547   30.791307905 XXX  2      oc4     O  -1.350
O96     15.600164688   13.581931760   30.638139262 XXX  2      oc4     O  -1.350
CA53     5.279184163   10.219586466   20.810957762 XXX  2      ca+a    Ca  1.500
CA54     5.965130361   13.965357486   20.875285492 XXX  2      ca+a    Ca  1.500
AL33     7.427735890   11.996381942   15.567228021 XXX  2      ac1     Al  1.200
AL34     7.541643271   11.627445986   18.977709747 XXX  2      ac1     Al  1.200
O97      7.524186233   12.204144743   17.288906200 XXX  2      oc3     O  -0.750
O98      3.804757861    0.350295860   16.866441239 XXX  2      oc3     O  -0.750
O99      5.999864180   11.977304647   19.713700711 XXX  2      oc4     O  -1.350
O100     3.351413236   11.526213309   21.422130341 XXX  2      oc4     O  -1.350
O101     8.128729252   13.458731543   14.835112093 XXX  2      oc4     O  -1.350
O102     8.013636888   10.439997629   15.252557015 XXX  2      oc4     O  -1.350
CA55     9.832528594    2.576972153   17.503599275 XXX  2      ca+a    Ca  1.500
CA56     9.155858026    6.204517621   17.050830782 XXX  2      ca+a    Ca  1.500
AL35     7.775620558    4.316945723   22.650791853 XXX  2      ac1     Al  1.200
AL36     7.467763213    4.039702534   19.194990663 XXX  2      ac1     Al  1.200
O103     7.311656163    4.388786150   20.955154446 XXX  2      oc3     O  -0.750
O104    11.319477592    7.814293162   21.072085091 XXX  2      oc3     O  -0.750
O105     9.110447751    4.490798855   18.665415927 XXX  2      oc4     O  -1.350
O106    11.450673654    3.768640403   31.904336902 XXX  2      oc4     O  -1.350
O107     6.978049855    5.733411199   23.246743137 XXX  2      oc4     O  -1.350
O108     7.409114686    2.717180873   23.216682218 XXX  2      oc4     O  -1.350
CA57     2.257323242    6.284999884   28.476930158 XXX  2      ca+a    Ca  1.500
CA58     1.165247833    2.133226684   29.091485895 XXX  2      ca+a    Ca  1.500
AL37    -0.026906028    4.115344833   23.132142549 XXX  2      ac1     Al  1.200
AL38     0.020663723    4.304918343   26.530425017 XXX  2      ac1     Al  1.200
O109    -0.185864497    3.739256324   24.838940942 XXX  2      oc3     O  -0.750
O110     3.936924625   16.188202146   24.702261614 XXX  2      oc3     O  -0.750
O111     1.400196700    3.363825536   27.186418696 XXX  2      oc4     O  -1.350
O112     4.003074876    5.158796535   13.817316053 XXX  2      oc4     O  -1.350
O113    -0.371438801    2.718458351   22.114524314 XXX  2      oc4     O  -1.350
O114    -0.723504010    5.675785797   22.846591497 XXX  2      oc4     O  -1.350
CA59     9.436720201   13.998215608   28.466896350 XXX  2      ca+a    Ca  1.500
CA60     9.622416241   14.047378710   24.609259506 XXX  2      ca+a    Ca  1.500
AL39    14.998974623   15.647370517   26.607015121 XXX  2      ac1     Al  1.200
AL40    11.662004906   15.833994404   26.974304646 XXX  2      ac1     Al  1.200
O115    13.263215128   15.780180052   26.427562228 XXX  2      oc3     O  -0.750
O116    13.432907754   12.108202768   23.072780389 XXX  2      oc3     O  -0.750
O117    10.812348347   14.225755960   26.688854700 XXX  2      oc4     O  -1.350
O118     9.085035013   11.465362339   27.027377528 XXX  2      oc4     O  -1.350
O119    15.562391436   16.501725775   25.169159584 XXX  2      oc4     O  -1.350
O120    15.210540200   16.229342166   28.219457032 XXX  2      oc4     O  -1.350
CA61     5.826806167    6.306026525   24.980163964 XXX  2      ca+a    Ca  1.500
CA62     5.793196476    6.470646346   28.798713196 XXX  2      ca+a    Ca  1.500
AL41     0.308662170    7.806845194   26.652691235 XXX  2      ac1     Al  1.200
AL42     3.654053142    8.237168614   26.486874905 XXX  2      ac1     Al  1.200
O121     1.979996027    8.375417858   26.767821680 XXX  2      oc3     O  -0.750
O122     1.640241563    4.386730615   14.976885347 XXX  2      oc3     O  -0.750
O123     4.263376381    6.667100875   26.895777521 XXX  2      oc4     O  -1.350
O124     6.217690118    3.952327749   26.145500022 XXX  2      oc4     O  -1.350
O125    -0.579487152    8.376089622   28.056703632 XXX  2      oc4     O  -1.350
O126    -0.278386441    8.127852674   25.048346663 XXX  2      oc4     O  -1.350
CA63     1.913190934   10.599210008   17.289465202 XXX  2      ca+a    Ca  1.500
CA64     1.882259589    9.808702034   21.102996510 XXX  2      ca+a    Ca  1.500
AL43     7.218667186    8.201202379   19.081347578 XXX  2      ac1     Al  1.200
AL44     3.804605794    8.215322095   18.929483274 XXX  2      ac1     Al  1.200
O127     5.510683702    8.091914130   19.369497574 XXX  2      oc3     O  -0.750
O128     5.779191142   11.901365974   22.552183125 XXX  2      oc3     O  -0.750
O129     3.241247149    9.796265213   19.294087496 XXX  2      oc4     O  -1.350
O130    16.687194020   12.414745486   18.602198274 XXX  2      oc4     O  -1.350
O131     7.893991939    7.508026293   20.599382451 XXX  2      oc4     O  -1.350
O132     7.558350209    7.643481819   17.439008705 XXX  2      oc4     O  -1.350
CA65    13.098817940    2.697134086   20.788552135 XXX  2      ca+a    Ca  1.500
CA66    13.408969219    2.248630191   16.629583073 XXX  2      ca+a    Ca  1.500
AL45     7.644088214    0.704466226   19.016660290 XXX  2      ac1     Al  1.200
AL46    11.054739499    0.427487229   19.559872998 XXX  2      ac1     Al  1.200
O133     9.341334443    0.374664188   19.053210384 XXX  2      oc3     O  -0.750
O134     9.424791906    4.405398388   30.654517755 XXX  2      oc3     O  -0.750
O135    11.520983228    2.058900071   19.128026868 XXX  2      oc4     O  -1.350
O136    -1.661988103    4.948419990   19.635331325 XXX  2      oc4     O  -1.350
O137     7.019995665   -0.116245377   17.698700050 XXX  2      oc4     O  -1.350
O138     6.945410664    0.461409860   20.670663973 XXX  2      oc4     O  -1.350
end
CA1     -0.048019070   15.850629823   15.217612169 XXX  1      ca+a    Ca  1.500
CA2      7.470407733   15.901686002   15.153329997 XXX  1      ca+a    Ca  1.500
CA3      3.811707567   19.762605241   19.011291239 XXX  1      ca+a    Ca  1.500
CA4      5.688435828   21.663453587   20.991300154 XXX  1      ca+a    Ca  1.500
CA5      1.782391757   21.917004126   20.287573420 XXX  1      ca+a    Ca  1.500
CA6      5.574790161   21.596643061   17.023921651 XXX  1      ca+a    Ca  1.500
AL1      3.773974211   16.046760908   15.288404927 XXX  1      ac1     Al  1.200
AL2      3.594350877   19.435756562   15.121330755 XXX  1      ac1     Al  1.200
O1       3.966972343   17.717581460   14.962757039 XXX  1      oc3     O  -0.750
O2       7.328411398   17.735245194   18.985709251 XXX  1      oc3     O  -0.750
O3       4.195843089   19.838740199   16.708600467 XXX  1      oc4     O  -1.350
O4       3.735756967   22.062609240   19.474562491 XXX  1      oc4     O  -1.350
O5       5.264276626   15.297749347   14.753685202 XXX  1      oc4     O  -1.350
O6       2.157747835   15.668348202   14.786070644 XXX  1      oc4     O  -1.350
Ca1      7.521789876   15.838874232   22.897366356 XXX  2      ca+a    Ca  1.500
Ca2     -0.061555495   16.078523001   22.992336572 XXX  2      ca+a    Ca  1.500
Ca3      1.050914250   30.644612176   22.455266544 XXX  2      ca+a    Ca  1.500
Ca4      2.154169933   25.404379820   28.505620451 XXX  2      ca+a    Ca  1.500
Ca5      5.592829583   25.544911215   25.492445372 XXX  2      ca+a    Ca  1.500
Ca6      1.909877424   25.136180437   24.771129477 XXX  2      ca+a    Ca  1.500
Al1      4.081438354   31.047385470   23.879274515 XXX  2      ac1     Al  1.200
Al2      3.786697078   27.673583314   23.091439680 XXX  2      ac1     Al  1.200
O1       3.689534423   29.438111415   23.210786117 XXX  2      oc3     O  -0.750
O2      15.650284146   29.378980393   26.217322765 XXX  2      oc3     O  -0.750
O3       3.050862985   27.060732879   24.451301785 XXX  2      oc4     O  -0.900
O4       4.284025917   24.914709854   27.257928171 XXX  2      oc4     O  -1.350
O5       2.923144411   32.005103231   23.041072279 XXX  2      oc4     O  -0.900
O6       5.796331316   31.223745382   23.750277475 XXX  2      oc4     O  -0.900
Ca7      0.215712558   23.240824626   22.938890316 XXX  2      ca+a    Ca  1.500
Ca8      7.574693338   23.457978178   22.878137137 XXX  2      ca+a    Ca  1.500
Ca9     10.046398480   36.007998731   20.179091633 XXX  2      ca+a    Ca  1.500
Ca10    10.285605542   37.571492292   17.319096335 XXX  2      ca+a    Ca  1.500
Ca11    13.582883472   36.703530417   18.657289399 XXX  2      ca+a    Ca  1.500
Ca12    11.015889393   40.348420066   19.635778868 XXX  2      ca+a    Ca  1.500
Al3     11.174025063   23.832755671   22.770433267 XXX  2      ac1     Al  1.200
Al4     11.840939700   27.279254442   23.050615085 XXX  2      ac1     Al  1.200
O7      11.230147427   25.543502914   23.215843392 XXX  2      oc3     O  -0.750
O8       8.111316802   25.414890143   19.500022077 XXX  2      oc3     O  -0.750
O9      11.569412728   27.738192651   21.380250972 XXX  2      oc4     O  -0.900
O10     11.992249333   14.471327391   18.604009223 XXX  2      oc4     O  -1.350
O11      9.801952786   23.287738560   23.690616790 XXX  2      oc4     O  -1.350
O12     12.807511630   23.330548740   23.125349733 XXX  2      oc4     O  -1.350
Ca13     7.652633153   23.412769654   15.351700204 XXX  2      ca+a    Ca  1.500
Ca14     1.872539406   25.129755917   17.268571030 XXX  2      ca+a    Ca  1.500
Ca15    11.463188201   19.587907586   26.514134709 XXX  2      ca+a    Ca  1.500
Ca16    13.575209014   17.494060401   24.520703313 XXX  2      ca+a    Ca  1.500
Ca17     9.758085840   17.864844795   28.246203224 XXX  2      ca+a    Ca  1.500
Ca18    13.546034670   17.787295062   28.681972177 XXX  2      ca+a    Ca  1.500
Al5     11.625062597   23.330037606   30.336988789 XXX  2      ac1     Al  1.200
Al6     11.322126832   19.947346602   30.535770647 XXX  2      ac1     Al  1.200
O13     11.901513859   21.602255217   30.597436867 XXX  2      oc3     O  -0.750
O14     -0.249027084   21.487536785   26.760189348 XXX  2      oc3     O  -0.750
O15     11.644176607   19.299005229   28.968961434 XXX  2      oc4     O  -1.350
O16     12.141928113   33.564960987   25.291771414 XXX  2      oc4     O  -0.900
O17     12.958919488   24.151781967   31.126123932 XXX  2      oc4     O  -1.350
O18      9.921891965   23.599038135   30.673054122 XXX  2      oc4     O  -1.350
Ca19     2.358664803   17.945030793   20.879838602 XXX  2      ca+a    Ca  1.500
Ca20     1.926592023   25.438929992   21.101299134 XXX  2      ca+a    Ca  1.500
Al7      0.105196160   19.871360956   15.636737213 XXX  2      ac1     Al  1.200
Al8      0.062110789   19.372359213   19.059487454 XXX  2      ac1     Al  1.200
O19     -0.051836437   20.011027409   17.417280962 XXX  2      oc3     O  -0.750
O20      4.001299556   23.644879983   17.126962304 XXX  2      oc3     O  -0.750
O21      1.628496093   19.738680305   19.739840991 XXX  2      oc4     O  -1.350
O22      4.168098318   19.268701507   21.392960804 XXX  2      oc4     O  -1.350
O23     -0.642614599   21.321988125   15.042976955 XXX  2      oc4     O  -1.350
O24     -0.504398580   18.227140363   15.196251112 XXX  2      oc4     O  -1.350
Ca21     9.684873570   21.417199021   24.974238261 XXX  2      ca+a    Ca  1.500
Ca22     9.410502835   17.748475240   24.757763573 XXX  2      ca+a    Ca  1.500
Al9      7.856609785   19.679269263   30.337872574 XXX  2      ac1     Al  1.200
Al10     7.557862534   19.869133982   26.991115428 XXX  2      ac1     Al  1.200
O25      7.730076059   19.338642158   28.653185471 XXX  2      oc3     O  -0.750
O26     11.382110332   31.644412526   27.195717181 XXX  2      oc3     O  -0.750
O27      9.126004819   19.448213941   26.310138915 XXX  2      oc4     O  -1.350
O28     11.599003801   20.214053106   24.262230330 XXX  2      oc4     O  -1.350
O29      7.233810316   18.205841065   31.106647994 XXX  2      oc4     O  -1.350
O30      7.075162100   21.278425653   30.501506940 XXX  2      oc4     O  -1.350
Ca23     6.278501994   30.795149578   30.425526618 XXX  2      ca+a    Ca  1.500
Ca24     5.865823164   25.365244416   28.754389589 XXX  2      ca+a    Ca  1.500
Al11     7.255805430   27.329243954   23.263832686 XXX  2      ac1     Al  1.200
Al12     7.899682031   27.556434176   26.700235524 XXX  2      ac1     Al  1.200
O31      7.891293661   27.186793789   24.919942368 XXX  2      oc3     O  -0.750
O32      4.134731460   23.601180909   24.866058987 XXX  2      oc3     O  -0.750
O33      6.289362367   27.144825644   27.187485122 XXX  2      oc4     O  -0.900
O34      3.912149218   28.129697669   13.876070172 XXX  2      oc4     O  -0.900
O35      7.974102596   25.870546523   22.565213219 XXX  2      oc4     O  -0.900
O36      7.556216611   28.959366520   22.710035790 XXX  2      oc4     O  -0.900
Ca25    13.542962962   30.360628859   17.373615511 XXX  2      ca+a    Ca  1.500
Ca26    11.400712504   33.598213403   17.577045411 XXX  2      ca+a    Ca  1.500
Al13    15.240712166   27.106775803   22.571399932 XXX  2      ac1     Al  1.200
Al14    15.312346651   27.472560323   19.079739400 XXX  2      ac1     Al  1.200
O37     15.480183771   27.686327532   20.892284189 XXX  2      oc3     O  -0.750
O38     11.456534316   15.596490312   21.074025944 XXX  2      oc3     O  -0.750
O39     13.849104222   28.247188889   18.589808775 XXX  2      oc4     O  -0.900
O40     10.592780273   27.380493111   30.657825295 XXX  2      oc4     O  -0.900
O41     16.325881899   27.903664741   23.554505070 XXX  2      oc4     O  -0.900
O42     15.363175794   25.414660940   22.470253605 XXX  2      oc4     O  -0.900
Ca27     5.570604822   18.164929797   17.142929575 XXX  2      ca+a    Ca  1.500
Ca28     5.735202021   17.513408550   20.895951847 XXX  2      ca+a    Ca  1.500
Al15     0.418185441   15.937690775   19.132794714 XXX  2      ac1     Al  1.200
Al16     3.753925234   15.824506141   18.718172770 XXX  2      ac1     Al  1.200
O43      2.119250736   15.770851896   19.351954648 XXX  2      oc3     O  -0.750
O44      1.772252024   19.402626112   22.739005756 XXX  2      oc3     O  -0.750
O45      4.306751761   17.439145924   19.111878003 XXX  2      oc4     O  -1.350
O46      6.227119316   20.121163118   18.558122346 XXX  2      oc4     O  -1.350
O47     -0.201614901   15.170164563   20.570681408 XXX  2      oc4     O  -1.350
O48      0.102548954   15.319190816   17.527699473 XXX  2      oc4     O  -1.350
Ca29    11.572455799   27.367164812   19.013316959 XXX  2      ca+a    Ca  1.500
Ca30     9.496300847   25.138185474   17.329755155 XXX  2      ca+a    Ca  1.500
Al17    14.839724111   23.972777731   19.029572323 XXX  2      ac1     Al  1.200
Al18    11.541079511   23.589750260   19.354075786 XXX  2      ac1     Al  1.200
O49     13.248135674   23.455617525   19.287446242 XXX  2      oc3     O  -0.750
O50     13.292112637   27.527420856   30.221445917 XXX  2      oc3     O  -0.750
O51     11.141423651   25.153151852   18.718447403 XXX  2      oc4     O  -1.350
O52      9.442851270   27.749329366   20.062685476 XXX  2      oc4     O  -0.900
O53     15.400515860   23.029203174   17.701441799 XXX  2      oc4     O  -1.350
O54     15.655359883   23.510840605   20.530238223 XXX  2      oc4     O  -1.350
Ca31    13.322419607   21.050853143   28.454341785 XXX  2      ca+a    Ca  1.500
Ca32    13.248017576   21.588184561   24.611774993 XXX  2      ca+a    Ca  1.500
Al19     7.935944654   23.342981777   26.816900060 XXX  2      ac1     Al  1.200
Al20    11.418481626   23.358609521   26.940542671 XXX  2      ac1     Al  1.200
O55      9.691087682   23.386773249   26.547999783 XXX  2      oc3     O  -0.750
O56      9.309666243   19.641264221   23.081173523 XXX  2      oc3     O  -0.750
O57     11.926204748   21.753860839   26.677005988 XXX  2      oc4     O  -1.350
O58     -1.653259992   19.145758420   27.079982505 XXX  2      oc4     O  -1.350
O59      7.410716845   24.156838497   25.292636567 XXX  2      oc4     O  -1.350
O60      7.661646812   24.086516410   28.364584051 XXX  2      oc4     O  -1.350
Ca33     2.468635479   36.692342674   24.416092297 XXX  2      ca+a    Ca  1.500
Ca34     2.941057338   35.254761317   27.758775684 XXX  2      ca+a    Ca  1.500
Al21     7.438574075   31.011309099   27.200074862 XXX  2      ac1     Al  1.200
Al22     3.973559655   31.354574861   27.348215616 XXX  2      ac1     Al  1.200
O61      5.706932768   31.106572775   27.664816520 XXX  2      oc3     O  -0.750
O62      5.909567215   28.733018093   15.796860160 XXX  2      oc3     O  -0.750
O63      3.218772596   30.075773045   28.185007950 XXX  2      oc4     O  -0.900
O64     17.350333073   27.075563399   26.230564249 XXX  2      oc4     O  -0.900
O65      8.259445435   31.725018370   28.569847649 XXX  2      oc4     O  -0.900
O66      7.557419341   31.661236623   25.633194164 XXX  2      oc4     O  -0.900
Ca35     8.368547575   31.096174820   23.460633356 XXX  2      ca+a    Ca  1.500
Ca36     9.527541539   25.107790977   24.882309592 XXX  2      ca+a    Ca  1.500
Ca37    13.328698251   25.502265977   27.723488944 XXX  2      ca+a    Ca  1.500
Ca38     9.475233466   25.100031745   29.115686494 XXX  2      ca+a    Ca  1.500
Al23    11.832209190   31.426196521   28.934012536 XXX  2      ac1     Al  1.200
Al24    11.770676043   27.978372030   29.514291241 XXX  2      ac1     Al  1.200
O67     11.478304813   29.768988860   29.464250279 XXX  2      oc3     O  -0.750
O68      8.058596972   29.320575572   27.080135781 XXX  2      oc3     O  -0.750
O69     11.967379037   27.420807367   27.947413517 XXX  2      oc4     O  -0.900
O70     12.029117920   24.707725766   26.053678493 XXX  2      oc4     O  -1.350
O71     10.743516024   32.374336131   29.809336848 XXX  2      oc4     O  -0.900
O72     13.525431781   31.638274643   29.086234739 XXX  2      oc4     O  -0.900
Ca39    11.624074060   19.795366817   18.999451811 XXX  2      ca+a    Ca  1.500
Ca40    13.554391162   21.958888850   17.060177176 XXX  2      ca+a    Ca  1.500
Ca41     9.558627311   21.427101380   20.600482302 XXX  2      ca+a    Ca  1.500
Ca42    13.235338868   21.883888094   21.212789614 XXX  2      ca+a    Ca  1.500
Al25    11.531479901   16.178737887   22.728729163 XXX  2      ac1     Al  1.200
Al26    11.050741973   19.558438017   22.797449986 XXX  2      ac1     Al  1.200
O73     11.672421699   17.889433816   22.860084291 XXX  2      oc3     O  -0.750
O74     -0.201541875   17.607877418   19.121285232 XXX  2      oc3     O  -0.750
O75     11.402012718   20.197086154   21.247492238 XXX  2      oc4     O  -1.350
O76     10.990492086   22.082634259   18.706692561 XXX  2      oc4     O  -1.350
O77     12.953327848   15.504614241   23.483682204 XXX  2      oc4     O  -1.350
O78      9.989813105   15.751776813   23.360299840 XXX  2      oc4     O  -1.350
Ca43     3.671222687   19.800898909   26.983643248 XXX  2      ca+a    Ca  1.500
Ca44     5.437764172   18.002286824   28.379339972 XXX  2      ca+a    Ca  1.500
Ca45     2.072530741   17.954733000   25.127634631 XXX  2      ca+a    Ca  1.500
Ca46     5.775713653   18.027885551   24.573326090 XXX  2      ca+a    Ca  1.500
Al27     3.884396088   23.377728761   23.115497490 XXX  2      ac1     Al  1.200
Al28     3.473793398   19.968841541   22.848305691 XXX  2      ac1     Al  1.200
O79      3.698706309   21.695259329   22.554876492 XXX  2      oc3     O  -0.750
O80      7.363271478   21.640526424   26.768355951 XXX  2      oc3     O  -0.750
O81      3.974264770   19.532062893   24.452025617 XXX  2      oc4     O  -1.350
O82      3.700656332   33.022763816   27.724813598 XXX  2      oc4     O  -0.900
O83      5.355157425   23.953477989   22.351948112 XXX  2      oc4     O  -1.350
O84      2.291083440   24.159734841   22.845930447 XXX  2      oc4     O  -1.350
Ca47     6.669178065   31.289995922   19.338757006 XXX  2      ca+a    Ca  1.500
Ca48     4.019288924   38.195270516   16.869919657 XXX  2      ca+a    Ca  1.500
Ca49     4.223008643   33.974421630   17.036223934 XXX  2      ca+a    Ca  1.500
Ca50     0.882532461   35.991759583   15.023688545 XXX  2      ca+a    Ca  1.500
Al29     4.072522742   24.415780130   15.545351502 XXX  2      ac1     Al  1.200
Al30     4.395765660   27.847330505   15.516746967 XXX  2      ac1     Al  1.200
O85      4.573208998   26.073718500   15.700208519 XXX  2      oc3     O  -0.750
O86     15.183424447   25.708510757   18.712929991 XXX  2      oc3     O  -0.750
O87      3.346057853   28.261768896   16.830814790 XXX  2      oc4     O  -0.900
O88      4.452717390   14.311216545   19.213696093 XXX  2      oc4     O  -1.350
O89      2.394398263   24.496649638   14.982168852 XXX  2      oc4     O  -1.350
O90      5.417627498   23.617538436   14.768154662 XXX  2      oc4     O  -1.350
Ca51    14.156443437   34.585960006   24.227776839 XXX  2      ca+a    Ca  1.500
Ca52    13.467646069   24.949890464   24.506600744 XXX  2      ca+a    Ca  1.500
Al31    15.107343404   27.390271520   30.132657981 XXX  2      ac1     Al  1.200
Al32    15.792417314   27.626718981   26.671872092 XXX  2      ac1     Al  1.200
O91     15.757325555   27.228965038   28.417007736 XXX  2      oc3     O  -0.750
O92     11.776533224   23.716186544   28.648237414 XXX  2      oc3     O  -0.750
O93     14.350885023   26.838804500   26.022138166 XXX  2      oc4     O  -0.900
O94     11.217799000   28.191146213   24.377150325 XXX  2      oc4     O  -0.900
O95     15.481793523   25.832786834   30.877622682 XXX  2      oc4     O  -0.900
O96     15.783063225   28.901891948   30.721483251 XXX  2      oc4     O  -0.900
Ca53     5.217861685   25.637678991   20.932807291 XXX  2      ca+a    Ca  1.500
Ca54     6.333025665   36.720038734   19.871797456 XXX  2      ca+a    Ca  1.500
Al33     7.574763129   28.863509942   16.443527953 XXX  2      ac1     Al  1.200
Al34     8.014310570   27.121258342   19.431632930 XXX  2      ac1     Al  1.200
O97      7.915311627   27.659627257   17.694992281 XXX  2      oc3     O  -0.750
O98      3.851807777   15.600223294   16.983580619 XXX  2      oc3     O  -0.750
O99      6.348286091   27.417990124   19.983785583 XXX  2      oc4     O  -0.900
O100     3.276376180   27.250350695   21.471701055 XXX  2      oc4     O  -0.900
O101     7.647390252   30.409623690   17.224031897 XXX  2      oc4     O  -0.900
O102     8.538965131   28.361974441   15.068037571 XXX  2      oc4     O  -0.900
Ca55     9.849985638   17.921235952   17.161634916 XXX  2      ca+a    Ca  1.500
Ca56     9.313720830   21.677602488   17.218598830 XXX  2      ca+a    Ca  1.500
Al35     7.671339062   19.740014030   22.576591840 XXX  2      ac1     Al  1.200
Al36     7.636533852   19.459115116   19.184490307 XXX  2      ac1     Al  1.200
O103     7.604967882   20.007391013   20.869838627 XXX  2      oc3     O  -0.750
O104    11.010762307   23.517997954   21.038654211 XXX  2      oc3     O  -0.750
O105     9.250555537   19.777911098   18.507843122 XXX  2      oc4     O  -1.350
O106    11.770504581   19.306234494   32.061918547 XXX  2      oc4     O  -1.350
O107     6.983690113   21.222488349   23.284599041 XXX  2      oc4     O  -1.350
O108     7.044847122   18.147880901   22.817557374 XXX  2      oc4     O  -1.350
Ca57     1.400078232   22.398458165   29.598557293 XXX  2      ca+a    Ca  1.500
Ca58     1.679891800   17.631851242   28.623604253 XXX  2      ca+a    Ca  1.500
Al37     0.011413104   19.499216994   23.117009867 XXX  2      ac1     Al  1.200
Al38    -0.132571426   19.764840072   26.515985018 XXX  2      ac1     Al  1.200
O109    -0.205803060   19.264105011   24.868923038 XXX  2      oc3     O  -0.750
O110     3.643410290   31.170873916   25.595581407 XXX  2      oc3     O  -0.750
O111     1.411364226   19.203281853   27.067390723 XXX  2      oc4     O  -1.350
O112     4.360578299   19.970421141   13.705110518 XXX  2      oc4     O  -1.350
O113    -0.811669424   18.096583735   22.554387870 XXX  2      oc4     O  -1.350
O114    -0.556344894   21.139731617   22.801137117 XXX  2      oc4     O  -1.350
Ca59     8.929443574   33.902450040   29.211142326 XXX  2      ca+a    Ca  1.500
Ca60     6.343098919   36.509540909   27.034808570 XXX  2      ca+a    Ca  1.500
Al39    15.062506911   30.649858170   25.042167319 XXX  2      ac1     Al  1.200
Al40    11.810128216   31.836903697   25.431799480 XXX  2      ac1     Al  1.200
O115    13.333321726   30.909495405   25.015274106 XXX  2      oc3     O  -0.750
O116    13.592138231   27.316848203   23.247818405 XXX  2      oc3     O  -0.750
O117    10.454240484   31.089993755   24.641875146 XXX  2      oc4     O  -0.900
O118     9.266627129   26.670637416   27.316916030 XXX  2      oc4     O  -0.900
O119    15.445993673   30.151625039   23.383958471 XXX  2      oc4     O  -0.900
O120    15.676270662   32.097676134   25.784662927 XXX  2      oc4     O  -0.900
Ca61     5.656230403   21.107770165   25.062573860 XXX  2      ca+a    Ca  1.500
Ca62     5.552801045   21.855068883   28.904883018 XXX  2      ca+a    Ca  1.500
Al41     0.370760936   23.179568782   26.724538390 XXX  2      ac1     Al  1.200
Al42     3.800016038   23.358327112   26.556647712 XXX  2      ac1     Al  1.200
O121     2.116067199   23.103530824   26.910769072 XXX  2      oc3     O  -0.750
O122     1.800379403   19.835348769   15.004900103 XXX  2      oc3     O  -0.750
O123     4.536352092   21.822341683   26.838980416 XXX  2      oc4     O  -1.350
O124     6.076646846   19.163436362   26.433953925 XXX  2      oc4     O  -1.350
O125     0.154811823   23.990462299   28.235289894 XXX  2      oc4     O  -1.350
O126    -0.022910062   24.009467675   25.180464971 XXX  2      oc4     O  -1.350
Ca63     1.080105722   33.274711237   18.961916038 XXX  2      ca+a    Ca  1.500
Ca64     2.818103377   30.046234879   18.365360593 XXX  2      ca+a    Ca  1.500
Al43     7.432123129   23.752683106   19.256557862 XXX  2      ac1     Al  1.200
Al44     4.058517650   23.646846699   18.822986362 XXX  2      ac1     Al  1.200
O127     5.721769609   23.877738507   19.346572458 XXX  2      oc3     O  -0.750
O128     5.473630245   27.098455600   23.171721157 XXX  2      oc3     O  -0.750
O129     3.189251189   25.066207473   19.344859837 XXX  2      oc4     O  -1.350
O130    16.833128355   27.900592186   18.524952271 XXX  2      oc4     O  -0.900
O131     7.839321826   22.757950300   20.645781743 XXX  2      oc4     O  -1.350
O132     7.812729460   23.291343050   17.617522782 XXX  2      oc4     O  -1.350
Ca65    13.258013507   18.218514697   20.888253336 XXX  2      ca+a    Ca  1.500
Ca66    13.445991197   17.471589627   17.165795470 XXX  2      ca+a    Ca  1.500
Al45     7.979654958   16.110613985   18.956516757 XXX  2      ac1     Al  1.200
Al46    11.367929301   15.908472268   19.273411921 XXX  2      ac1     Al  1.200
O133     9.740450335   16.040384327   18.704742027 XXX  2      oc3     O  -0.750
O134     9.568274688   19.842942584   30.790902687 XXX  2      oc3     O  -0.750
O135    12.150961618   17.410432764   18.992478265 XXX  2      oc4     O  -1.350
O136    -1.437804744   19.986923128   19.752823194 XXX  2      oc4     O  -1.350
O137     7.369366680   15.219196562   17.532405016 XXX  2      oc4     O  -1.350
O138     7.719856492   15.347697605   20.574104899 XXX  2      oc4     O  -1.350
H1      11.268094297   33.830725349   25.665878974 XXX  2      hoc     H   0.300
H2      10.558352573   31.734140444   30.458703782 XXX  2      hoc     H   0.300
H3      13.653876895   31.175624004   29.929571232 XXX  2      hoc     H   0.300
H4      10.574062059   30.176524312   24.751092993 XXX  2      hoc     H   0.300
H5       6.763898480   31.394281751   25.237251734 XXX  2      hoc     H   0.300
H6       8.755134499   31.033567865   28.953632635 XXX  2      hoc     H   0.300
H7       6.065434163   30.830903987   22.954327364 XXX  2      hoc     H   0.300
H8       4.325638222   33.184870624   28.447810730 XXX  2      hoc     H   0.300
H9       3.465964209   32.596660865   22.567834297 XXX  2      hoc     H   0.300
H10      2.814603212   29.569517343   27.520185482 XXX  2      hoc     H   0.300
H11     16.511442684   32.165852415   25.416588465 XXX  2      hoc     H   0.300
H12     14.631195847   29.814028517   23.185645171 XXX  2      hoc     H   0.300
H13     16.045410607   28.789594768   23.725912971 XXX  2      hoc     H   0.300
H14      7.913637047   28.770343312   21.874518474 XXX  2      hoc     H   0.300
H15     11.025884402   28.504582886   21.476769649 XXX  2      hoc     H   0.300
H16     11.858586633   28.554446849   24.861528118 XXX  2      hoc     H   0.300
H17      9.703801161   27.108179668   20.681715070 XXX  2      hoc     H   0.300
H18     17.116310179   28.458686830   19.243178125 XXX  2      hoc     H   0.300
H19      3.542435607   27.688310740   17.552108709 XXX  2      hoc     H   0.300
H20      8.574412185   30.519994258   17.370148120 XXX  2      hoc     H   0.300
H21     16.281202949   29.258554098   29.961468814 XXX  2      hoc     H   0.300
H22      3.094778559   28.045907205   21.082855562 XXX  2      hoc     H   0.300
H23      2.562400714   27.745623237   24.809123777 XXX  2      hoc     H   0.300
H24      3.695219881   29.019871646   13.670251206 XXX  2      hoc     H   0.300
H25      8.181053009   27.531357364   14.760441962 XXX  2      hoc     H   0.300
H26      8.752973529   26.160003613   22.166107016 XXX  2      hoc     H   0.300
H27     14.992603685   25.108088340   21.654485691 XXX  2      hoc     H   0.300
H28      6.079139388   28.060843087   19.366572856 XXX  2      hoc     H   0.300
H29      5.896860538   27.871990562   27.671345347 XXX  2      hoc     H   0.300
H30     10.391948244   28.035715980   31.288577084 XXX  2      hoc     H   0.300
H31     11.544093744   27.984268455   27.327040743 XXX  2      hoc     H   0.300
H32     13.587310827   28.737186881   19.279455665 XXX  2      hoc     H   0.300
H33     13.904730719   27.593396334   25.757908750 XXX  2      hoc     H   0.300
H34     17.903331637   27.831946409   26.361312235 XXX  2      hoc     H   0.300
H35     14.650788681   25.606840617   31.184006669 XXX  2      hoc     H   0.300
H36     10.004161373   27.211576664   27.082620526 XXX  2      hoc     H   0.300
end
CA1     15.920177781   -0.851918297   16.177844131 XXX  1      ca+a    Ca  1.500
CA2     21.345035604   -3.994689879   17.904354105 XXX  1      ca+a    Ca  1.500
CA3     19.105489472    4.517967383   19.185971318 XXX  1      ca+a    Ca  1.500
CA4     21.111938041    6.460847742   21.124715185 XXX  1      ca+a    Ca  1.500
CA5     17.285560569    6.105529731   17.508612540 XXX  1      ca+a    Ca  1.500
CA6     21.005312029    6.174406817   16.999364253 XXX  1      ca+a    Ca  1.500
AL1     18.768372845    0.819916926   15.454910529 XXX  1      ac1     Al  1.200
AL2     18.712629320    4.259011716   15.157902244 XXX  1      ac1     Al  1.200
O1      19.034312710    2.529207441   14.939683281 XXX  1      oc3     O  -0.750
O2      22.514689109    2.391711169   18.888683739 XXX  1      oc3     O  -0.750
O3      19.190192486    4.685766820   16.759706610 XXX  1      oc4     O  -1.350
O4      18.517371567    6.760810867   19.341428562 XXX  1      oc4     O  -1.350
O5      20.035067265   -0.152335342   14.865299088 XXX  1      oc4     O  -1.350
O6      17.132472936    0.463705853   15.021275235 XXX  1      oc4     O  -1.350
CA1     23.906758709   -0.431882964   21.871284838 XXX  2      ca+a    Ca  1.500
CA2     13.243927656   -1.909901785   19.954215945 XXX  2      ca+a    Ca  1.500
CA3     19.011323753   11.851144782   26.842665097 XXX  2      ca+a    Ca  1.500
CA4     17.089828578   10.061411335   28.766375240 XXX  2      ca+a    Ca  1.500
CA5     20.773053903   10.038418060   24.920139259 XXX  2      ca+a    Ca  1.500
CA6     17.021433341   10.123585006   24.708745339 XXX  2      ca+a    Ca  1.500
AL1     19.025089185   15.528131173   23.118655068 XXX  2      ac1     Al  1.200
AL2     19.267211250   12.121595597   22.823656151 XXX  2      ac1     Al  1.200
O1      18.757650852   13.791208516   22.927338329 XXX  2      oc3     O  -0.750
O2      30.781825582   13.971823569   26.643851086 XXX  2      oc3     O  -0.750
O3      18.981830972   11.368888604   24.343615314 XXX  2      oc4     O  -1.350
O4      19.462762233    9.682383827   26.955915253 XXX  2      oc4     O  -1.350
O5      17.557369840   16.224525099   22.378303091 XXX  2      oc4     O  -1.350
O6      20.583919681   15.744313678   22.336035210 XXX  2      oc4     O  -1.350
CA7     15.269275408    8.171547247   22.859545709 XXX  2      ca+a    Ca  1.500
CA8     22.891959437    8.208851302   22.821719102 XXX  2      ca+a    Ca  1.500
CA9     24.830119535   14.024508969   17.118746568 XXX  2      ca+a    Ca  1.500
CA10    22.892619981   15.863439175   15.376697985 XXX  2      ca+a    Ca  1.500
CA11    28.532890690   13.965547039   20.475215750 XXX  2      ca+a    Ca  1.500
CA12    24.735337034   13.899448289   21.248877475 XXX  2      ca+a    Ca  1.500
AL3     26.582112596    8.563510763   22.656116349 XXX  2      ac1     Al  1.200
AL4     26.960761655   11.976035044   22.798185559 XXX  2      ac1     Al  1.200
O7      26.425477373   10.257468600   22.592062148 XXX  2      oc3     O  -0.750
O8      23.028983921   10.020470131   19.176438592 XXX  2      oc3     O  -0.750
O9      26.650113725   12.677912909   21.313182088 XXX  2      oc4     O  -1.350
O10     26.845355063   -0.802018524   18.750790424 XXX  2      oc4     O  -1.350
O11     25.138285580    8.108333870   23.542107724 XXX  2      oc4     O  -1.350
O12     28.164674168    8.217883746   23.283753342 XXX  2      oc4     O  -1.350
CA13    22.816521563    8.224226765   15.248707873 XXX  2      ca+a    Ca  1.500
CA14    15.333890093    8.138973058   15.247710214 XXX  2      ca+a    Ca  1.500
CA15    26.789356272    4.367917512   26.394425552 XXX  2      ca+a    Ca  1.500
CA16    29.933857513    0.587340801   22.362323063 XXX  2      ca+a    Ca  1.500
CA17    24.860752060    2.386499197   28.143174108 XXX  2      ca+a    Ca  1.500
CA18    28.480450433    2.452855929   28.572772211 XXX  2      ca+a    Ca  1.500
AL5     26.735925341    7.818337389   30.311114806 XXX  2      ac1     Al  1.200
AL6     26.401588197    4.332190523   30.478588821 XXX  2      ac1     Al  1.200
O13     26.964075272    6.034094904   30.437938258 XXX  2      oc3     O  -0.750
O14     14.973750039    6.149925029   26.624318135 XXX  2      oc3     O  -0.750
O15     26.567580239    3.562859573   28.902016607 XXX  2      oc4     O  -1.350
O16     26.345382600   17.444771519   26.333754718 XXX  2      oc4     O  -1.350
O17     28.203438489    8.467888268   31.095954462 XXX  2      oc4     O  -1.350
O18     25.116205291    8.070481996   30.872513637 XXX  2      oc4     O  -1.350
CA19    17.013420378    2.698451327   20.686053915 XXX  2      ca+a    Ca  1.500
CA20    16.960066230    6.283058889   20.882692986 XXX  2      ca+a    Ca  1.500
AL7     15.292561865    4.421662279   15.387999704 XXX  2      ac1     Al  1.200
AL8     15.153476107    4.047509362   18.808914803 XXX  2      ac1     Al  1.200
O19     14.988447213    4.283240468   17.135729624 XXX  2      oc3     O  -0.750
O20     19.045874246    8.099955614   16.963966361 XXX  2      oc3     O  -0.750
O21     16.783692511    4.547726595   19.284820402 XXX  2      oc4     O  -1.350
O22     19.301255106    3.728810182   21.270595002 XXX  2      oc4     O  -1.350
O23     14.553006051    5.909124102   14.856862399 XXX  2      oc4     O  -1.350
O24     14.831233127    2.841320890   14.793468096 XXX  2      oc4     O  -1.350
CA21    25.151761600    6.367279014   24.882632921 XXX  2      ca+a    Ca  1.500
CA22    24.130901975    2.213811560   24.311358913 XXX  2      ca+a    Ca  1.500
AL9     23.024153459    4.161353620   30.152656282 XXX  2      ac1     Al  1.200
AL10    23.053171342    4.469951024   26.679141799 XXX  2      ac1     Al  1.200
O25     22.901339645    3.881511543   28.354239014 XXX  2      oc3     O  -0.750
O26     26.723949028   16.084900106   28.662071961 XXX  2      oc3     O  -0.750
O27     24.492646726    3.610493656   26.115497516 XXX  2      oc4     O  -1.350
O28     26.836370691    5.090087632   24.271798936 XXX  2      oc4     O  -1.350
O29     22.461612080    2.695128631   30.936224805 XXX  2      oc4     O  -1.350
O30     22.372863067    5.790115758   30.454699743 XXX  2      oc4     O  -1.350
CA23    20.661681968   13.788171116   28.593389376 XXX  2      ca+a    Ca  1.500
CA24    21.122818335   10.008802493   28.441733087 XXX  2      ca+a    Ca  1.500
AL11    22.650510364   11.922092157   23.158673834 XXX  2      ac1     Al  1.200
AL12    22.884111337   12.278773554   26.580903342 XXX  2      ac1     Al  1.200
O31     22.748721464   11.701119889   24.886018705 XXX  2      oc3     O  -0.750
O32     19.019691827    8.376974799   24.644876527 XXX  2      oc3     O  -0.750
O33     21.403003578   11.946046376   27.394976348 XXX  2      oc4     O  -1.350
O34     18.522896683   12.466383281   13.740173477 XXX  2      oc4     O  -1.350
O35     23.336259522   10.466864568   22.522854980 XXX  2      oc4     O  -1.350
O36     23.320312456   13.547401069   22.848803653 XXX  2      oc4     O  -1.350
CA25    26.662471394   12.078210946   19.006332976 XXX  2      ca+a    Ca  1.500
CA26    28.836125040   14.034308494   17.134124809 XXX  2      ca+a    Ca  1.500
AL13    30.374857933   12.103827243   22.569050539 XXX  2      ac1     Al  1.200
AL14    30.499166201   11.722249893   19.187926503 XXX  2      ac1     Al  1.200
O37     30.552865931   12.226890885   20.878468127 XXX  2      oc3     O  -0.750
O38     27.081979022    0.553930059   21.240292006 XXX  2      oc3     O  -0.750
O39     28.896569131   12.107067751   18.628943380 XXX  2      oc4     O  -1.350
O40     26.193382311   11.479017674   31.857393271 XXX  2      oc4     O  -1.350
O41     31.054907881   13.551212579   23.232410100 XXX  2      oc4     O  -1.350
O42     30.900185928   10.471563634   22.945350630 XXX  2      oc4     O  -1.350
CA27    20.731718768    3.027147329   17.132673934 XXX  2      ca+a    Ca  1.500
CA28    20.619073500    1.962361763   21.297788070 XXX  2      ca+a    Ca  1.500
AL15    15.018598764    0.595677025   18.939066775 XXX  2      ac1     Al  1.200
AL16    18.453230388    0.045816120   18.769094488 XXX  2      ac1     Al  1.200
O43     16.676490885   -0.120872857   18.844635114 XXX  2      oc3     O  -0.750
O44     17.024536789    4.421147986   22.572135336 XXX  2      oc3     O  -0.750
O45     18.811015375    1.260046447   20.078876185 XXX  2      oc4     O  -1.350
O46     21.174634785    4.710623618   18.596668967 XXX  2      oc4     O  -1.350
O47     14.287974564   -0.122596346   20.329314299 XXX  2      oc4     O  -1.350
O48     14.363022113    0.388289736   17.356541620 XXX  2      oc4     O  -1.350
CA29    24.847714054   10.556038409   20.907720038 XXX  2      ca+a    Ca  1.500
CA30    24.769437458    9.876047814   16.994004952 XXX  2      ca+a    Ca  1.500
AL17    30.088758591    8.390140050   18.992219039 XXX  2      ac1     Al  1.200
AL18    26.638882953    8.208923318   19.338225032 XXX  2      ac1     Al  1.200
O49     28.316014537    8.263684378   18.835595866 XXX  2      oc3     O  -0.750
O50     28.665572497   12.002349253   30.749616375 XXX  2      oc3     O  -0.750
O51     25.980359294    9.793599060   18.986738492 XXX  2      oc4     O  -1.350
O52     24.291933464   12.388161438   19.654758395 XXX  2      oc4     O  -1.350
O53     30.649504388    7.666189070   17.475163100 XXX  2      oc4     O  -1.350
O54     30.397348294    7.737246523   20.591378463 XXX  2      oc4     O  -1.350
CA31    28.624769678    6.166394785   28.249398597 XXX  2      ca+a    Ca  1.500
CA32    28.477915981    6.491245637   24.634346666 XXX  2      ca+a    Ca  1.500
AL19    23.137106783    7.922727367   26.628966772 XXX  2      ac1     Al  1.200
AL20    26.512181969    8.310687975   26.932157741 XXX  2      ac1     Al  1.200
O55     24.802255736    8.447984345   26.481922005 XXX  2      oc3     O  -0.750
O56     24.552258546    4.363577318   23.163171146 XXX  2      oc3     O  -0.750
O57     27.082968137    6.708698226   26.478863507 XXX  2      oc4     O  -1.350
O58     13.899420058    3.825246312   27.290519370 XXX  2      oc4     O  -1.350
O59     22.411911428    8.449488214   25.127807613 XXX  2      oc4     O  -1.350
O60     22.548188345    8.335808179   28.234207059 XXX  2      oc4     O  -1.350
CA33    17.374510995   13.586535842   24.981565124 XXX  2      ca+a    Ca  1.500
CA34    17.153158407   14.099191174   28.764709392 XXX  2      ca+a    Ca  1.500
AL21    22.636768951   15.584743501   26.851715424 XXX  2      ac1     Al  1.200
AL22    19.243297199   15.722259924   26.589224584 XXX  2      ac1     Al  1.200
O61     20.898281852   15.780252591   27.142477525 XXX  2      oc3     O  -0.750
O62     20.990210076   12.177432295   15.043680954 XXX  2      oc3     O  -0.750
O63     18.597232931   14.087647572   26.816113041 XXX  2      oc4     O  -1.350
O64     32.014717030   11.517670361   26.278138537 XXX  2      oc4     O  -1.350
O65     23.491904118   16.141628673   28.208310062 XXX  2      oc4     O  -1.350
O66     22.898875689   16.305656474   25.252260250 XXX  2      oc4     O  -1.350
CA35    26.634620832   11.976916310   26.674531773 XXX  2      ca+a    Ca  1.500
CA36    24.828100483   10.224156457   24.654744391 XXX  2      ca+a    Ca  1.500
CA37    28.499981599   10.188089918   28.211093975 XXX  2      ca+a    Ca  1.500
CA38    24.659949074   10.475549517   28.837861887 XXX  2      ca+a    Ca  1.500
AL23    26.717777781   15.584113538   30.357801189 XXX  2      ac1     Al  1.200
AL24    26.952726926   12.198289493   30.460929363 XXX  2      ac1     Al  1.200
O67     26.450122913   13.841863112   30.495325316 XXX  2      oc3     O  -0.750
O68     23.135920117   13.945041068   26.612189939 XXX  2      oc3     O  -0.750
O69     26.751332675   11.532419148   28.866483317 XXX  2      oc4     O  -1.350
O70     27.204296764    9.809214739   26.254937570 XXX  2      oc4     O  -1.350
O71     25.248703490   16.258959971   31.078860181 XXX  2      oc4     O  -1.350
O72     28.294700323   15.881335777   30.998835401 XXX  2      oc4     O  -1.350
CA39    26.783375937    4.557376986   18.775313048 XXX  2      ca+a    Ca  1.500
CA40    28.608617104    6.617726254   16.844745101 XXX  2      ca+a    Ca  1.500
CA41    24.875738798    5.939600659   20.521939686 XXX  2      ca+a    Ca  1.500
CA42    28.577897253    6.479148725   21.243319233 XXX  2      ca+a    Ca  1.500
AL25    26.792903177    0.838116359   22.960430050 XXX  2      ac1     Al  1.200
AL26    26.272468164    4.177883512   22.920548971 XXX  2      ac1     Al  1.200
O73     26.850825896    2.540610005   23.257444577 XXX  2      oc3     O  -0.750
O74     15.001266888    2.285891756   19.252172687 XXX  2      oc3     O  -0.750
O75     26.612507958    4.620578474   21.271990260 XXX  2      oc4     O  -1.350
O76     26.102836595    6.675239571   18.667177474 XXX  2      oc4     O  -1.350
O77     28.179467633    0.192894236   23.778132662 XXX  2      oc4     O  -1.350
O78     25.145822391    0.434441825   23.448585571 XXX  2      oc4     O  -1.350
CA43    19.187218815    4.368481761   26.800438310 XXX  2      ca+a    Ca  1.500
CA44    22.161023945    0.688138006   30.381628549 XXX  2      ca+a    Ca  1.500
CA45    17.149167218    2.123098632   24.630699113 XXX  2      ca+a    Ca  1.500
CA46    20.831221321    2.451044313   24.828082797 XXX  2      ca+a    Ca  1.500
AL27    19.077974300    7.795595420   23.007179430 XXX  2      ac1     Al  1.200
AL28    18.753317439    4.399479841   22.813766218 XXX  2      ac1     Al  1.200
O79     19.308369922    6.092846959   22.892272905 XXX  2      oc3     O  -0.750
O80     23.307793338    6.189717658   26.438656269 XXX  2      oc3     O  -0.750
O81     18.850958407    3.576858563   24.369812743 XXX  2      oc4     O  -1.350
O82     18.464712881   17.093771567   27.345018812 XXX  2      oc4     O  -1.350
O83     20.536823085    8.486487321   22.314706094 XXX  2      oc4     O  -1.350
O84     17.499804332    8.013207205   22.252837450 XXX  2      oc4     O  -1.350
CA47    18.885432923   12.319625531   19.172790194 XXX  2      ca+a    Ca  1.500
CA48    16.981784191   14.201183423   21.209835874 XXX  2      ca+a    Ca  1.500
CA49    20.906813868   13.793347065   17.655939864 XXX  2      ca+a    Ca  1.500
CA50    17.163413330   14.044299916   16.881645764 XXX  2      ca+a    Ca  1.500
AL29    19.068143680    8.687574549   15.348805381 XXX  2      ac1     Al  1.200
AL30    19.241508712   11.950850734   15.240913702 XXX  2      ac1     Al  1.200
O85     18.814404984   10.333898102   15.302533482 XXX  2      oc3     O  -0.750
O86     30.624859834   10.005615349   18.916649175 XXX  2      oc3     O  -0.750
O87     18.914397059   12.505234394   16.853068911 XXX  2      oc4     O  -1.350
O88     19.065890172   -1.647065173   18.870137531 XXX  2      oc4     O  -1.350
O89     17.582149707    8.156455107   14.584617137 XXX  2      oc4     O  -1.350
O90     20.628047548    8.396131474   14.721882310 XXX  2      oc4     O  -1.350
CA51    28.335930231   13.923104985   24.853097557 XXX  2      ca+a    Ca  1.500
CA52    28.877560468    9.985145662   24.763020400 XXX  2      ca+a    Ca  1.500
AL31    30.362815251   11.965948284   30.215261875 XXX  2      ac1     Al  1.200
AL32    30.521859192   12.228495674   26.798543614 XXX  2      ac1     Al  1.200
O91     30.369152563   11.742085117   28.468244298 XXX  2      oc3     O  -0.750
O92     26.826872295    8.417162233   28.629583845 XXX  2      oc3     O  -0.750
O93     28.945059888   11.898723988   26.067109430 XXX  2      oc4     O  -1.350
O94     26.185562007   12.371572098   24.307729376 XXX  2      oc4     O  -1.350
O95     31.102082487   10.474248844   30.695459195 XXX  2      oc4     O  -1.350
O96     30.899542249   13.535905202   30.592765107 XXX  2      oc4     O  -1.350
CA53    20.512962395   10.204525282   20.862175439 XXX  2      ca+a    Ca  1.500
CA54    21.183076971   14.127950685   20.995227530 XXX  2      ca+a    Ca  1.500
AL33    22.702284509   12.092053769   15.490783933 XXX  2      ac1     Al  1.200
AL34    22.865870939   11.749652518   18.921584637 XXX  2      ac1     Al  1.200
O97     23.023891139   12.223374491   17.199828295 XXX  2      oc3     O  -0.750
O98     18.935708064    0.695799688   17.233424597 XXX  2      oc3     O  -0.750
O99     21.240469067   12.146766028   19.445206516 XXX  2      oc4     O  -1.350
O100    18.673175044   11.496577511   21.339402956 XXX  2      oc4     O  -1.350
O101    23.430725626   13.585438289   14.915084065 XXX  2      oc4     O  -1.350
O102    23.259591862   10.493478824   15.039454744 XXX  2      oc4     O  -1.350
CA55    24.938831269    2.617771902   17.387786489 XXX  2      ca+a    Ca  1.500
CA56    24.479813884    6.308446166   17.144839493 XXX  2      ca+a    Ca  1.500
AL35    22.824098299    4.369072957   22.613976144 XXX  2      ac1     Al  1.200
AL36    22.684165415    4.078660929   19.192525127 XXX  2      ac1     Al  1.200
O103    22.683017638    4.515290714   20.871068937 XXX  2      oc3     O  -0.750
O104    26.456771734    7.944099617   21.027194841 XXX  2      oc3     O  -0.750
O105    24.245425485    4.525304326   18.558337473 XXX  2      oc4     O  -1.350
O106    26.950850639    3.578072720   32.019704846 XXX  2      oc4     O  -1.350
O107    22.174508591    5.878753132   23.107023676 XXX  2      oc4     O  -1.350
O108    22.167891650    2.836211694   23.141446075 XXX  2      oc4     O  -1.350
CA57    17.374390359    6.185423943   28.533194669 XXX  2      ca+a    Ca  1.500
CA58    16.612045768    2.675577264   28.609277197 XXX  2      ca+a    Ca  1.500
AL37    15.398120112    4.175819617   23.081411750 XXX  2      ac1     Al  1.200
AL38    15.283940872    4.427708034   26.489572177 XXX  2      ac1     Al  1.200
O109    15.291634457    3.833931969   24.821567910 XXX  2      oc3     O  -0.750
O110    19.109802168   15.990743766   24.861499295 XXX  2      oc3     O  -0.750
O111    16.918830694    4.270283384   27.191079352 XXX  2      oc4     O  -1.350
O112    19.316729556    5.154495201   13.735606749 XXX  2      oc4     O  -1.350
O113    14.973920120    2.750348300   22.112500718 XXX  2      oc4     O  -1.350
O114    14.710144406    5.746370727   22.858233780 XXX  2      oc4     O  -1.350
CA59    24.804617549   14.105608430   28.398354369 XXX  2      ca+a    Ca  1.500
CA60    24.832830200   14.086074923   24.671155905 XXX  2      ca+a    Ca  1.500
AL39    30.276915455   15.660511265   26.560818412 XXX  2      ac1     Al  1.200
AL40    26.896014808   15.900583063   26.923539137 XXX  2      ac1     Al  1.200
O115    28.536004917   15.939328054   26.391186765 XXX  2      oc3     O  -0.750
O116    28.636838189   12.148187588   23.052299045 XXX  2      oc3     O  -0.750
O117    26.307776934   14.336114348   26.500108848 XXX  2      oc4     O  -1.350
O118    24.363853511   11.560779152   26.992933555 XXX  2      oc4     O  -1.350
O119    31.135830677   16.227314432   25.169047130 XXX  2      oc4     O  -1.350
O120    30.685611660   16.061872293   28.233693516 XXX  2      oc4     O  -1.350
CA61    21.049350710    6.288701020   24.980467555 XXX  2      ca+a    Ca  1.500
CA62    20.946383939    6.468994317   28.636613163 XXX  2      ca+a    Ca  1.500
AL41    15.454071676    7.848666164   26.754980518 XXX  2      ac1     Al  1.200
AL42    18.849269325    8.220761732   26.378352588 XXX  2      ac1     Al  1.200
O121    17.193081285    8.113920038   26.982092801 XXX  2      oc3     O  -0.750
O122    17.009559461    4.679053787   15.009791218 XXX  2      oc3     O  -0.750
O123    19.646028211    6.690301073   26.731039933 XXX  2      oc4     O  -1.350
O124    21.432783148    4.265645183   25.970334091 XXX  2      oc4     O  -1.350
O125    14.665470968    8.399973436   28.176217286 XXX  2      oc4     O  -1.350
O126    15.226915172    8.571957154   25.219246025 XXX  2      oc4     O  -1.350
CA63    17.278152709   10.545132345   17.258003536 XXX  2      ca+a    Ca  1.500
CA64    17.141041297    9.900557554   20.988175442 XXX  2      ca+a    Ca  1.500
AL43    22.525921989    8.292266367   19.091140903 XXX  2      ac1     Al  1.200
AL44    19.196980292    8.254706083   18.741930595 XXX  2      ac1     Al  1.200
O127    20.811837767    8.091085246   19.270933582 XXX  2      oc3     O  -0.750
O128    20.993526444   12.012137105   22.586171775 XXX  2      oc3     O  -0.750
O129    18.536365492    9.767930952   19.205218217 XXX  2      oc4     O  -1.350
O130    31.995076477   12.297469311   18.509843519 XXX  2      oc4     O  -1.350
O131    23.148942424    7.447302300   20.519318023 XXX  2      oc4     O  -1.350
O132    22.724795735    7.721921291   17.450369410 XXX  2      oc4     O  -1.350
CA65    28.333591262    2.994312030   20.919235557 XXX  2      ca+a    Ca  1.500
CA66    28.430555428    2.204458400   17.126630727 XXX  2      ca+a    Ca  1.500
AL45    23.037017490    0.773361098   19.152725382 XXX  2      ac1     Al  1.200
AL46    26.426982161    0.675182771   19.585487357 XXX  2      ac1     Al  1.200
O133    24.668280435    0.758333892   19.710163978 XXX  2      oc3     O  -0.750
O134    24.636051842    4.275630997   30.706712185 XXX  2      oc3     O  -0.750
O135    26.901618507    2.220580367   18.892379272 XXX  2      oc4     O  -1.350
O136    13.727514164    4.728488958   19.478613795 XXX  2      oc4     O  -1.350
O137    23.041795960    0.017892506   17.616255299 XXX  2      oc4     O  -1.350
O138    22.149516286    0.306171306   20.584523947 XXX  2      oc4     O  -1.350
end
CA1     15.355054383   15.903127344   15.249485891 XXX  1      ca+a    Ca  1.500
CA2     21.185192966   17.533159910   13.679137225 XXX  1      ca+a    Ca  1.500
CA3     18.906217316   19.643515374   19.062861990 XXX  1      ca+a    Ca  1.500
CA4     20.639756614   21.234881138   20.715443959 XXX  1      ca+a    Ca  1.500
CA5     16.752450818   21.910734559   19.319192339 XXX  1      ca+a    Ca  1.500
CA6     21.144364051   21.506533646   17.051522495 XXX  1      ca+a    Ca  1.500
AL1     19.174828811   16.135518842   15.358253355 XXX  1      ac1     Al  1.200
AL2     18.817128260   19.489803078   15.322178154 XXX  1      ac1     Al  1.200
O1      19.230286947   17.812949100   15.044013632 XXX  1      oc3     O  -0.750
O2      22.706216786   17.761802706   19.050379732 XXX  1      oc3     O  -0.750
O3      19.413363687   19.835476547   16.894403302 XXX  1      oc4     O  -1.350
O4      18.913638531   21.858977542   19.556857779 XXX  1      oc4     O  -1.350
O5      20.582885244   15.450091170   14.546297678 XXX  1      oc4     O  -1.350
O6      17.575276832   15.684615626   14.963478471 XXX  1      oc4     O  -1.350
Ca1     22.860428128   15.814451556   22.948262422 XXX  2      ca+a    Ca  1.500
Ca2     15.316499818   15.951484187   22.851346551 XXX  2      ca+a    Ca  1.500
Ca3     16.569739610   30.113082913   21.271508112 XXX  2      ca+a    Ca  1.500
Ca4     17.922248565   25.663104113   28.378714319 XXX  2      ca+a    Ca  1.500
Ca5     21.078733052   25.301632694   25.215622694 XXX  2      ca+a    Ca  1.500
Ca6     17.334610836   25.460203354   24.505191609 XXX  2      ca+a    Ca  1.500
Al1     19.169234857   31.037938956   23.529836995 XXX  2      ac1     Al  1.200
Al2     19.486606924   27.606353680   22.968891719 XXX  2      ac1     Al  1.200
O1      19.002502269   29.265204962   23.330972893 XXX  2      oc3     O  -0.750
O2      30.557899209   29.231848074   26.729382073 XXX  2      oc3     O  -0.750
O3      19.256806477   26.772892019   24.466317664 XXX  2      oc4     O  -0.900
O4      19.812505478   24.869820497   27.220886681 XXX  2      oc4     O  -1.350
O5      18.029200969   31.614097286   22.317222093 XXX  2      oc4     O  -0.900
O6      20.888902042   31.348034608   23.477246715 XXX  2      oc4     O  -0.900
Ca7     15.763281006   23.081433836   22.841096634 XXX  2      ca+a    Ca  1.500
Ca8     23.041968039   23.377636885   22.783503629 XXX  2      ca+a    Ca  1.500
Ca9     25.290835518   31.548193306   17.509452554 XXX  2      ca+a    Ca  1.500
Ca10    26.743498297   38.746426975   16.216996353 XXX  2      ca+a    Ca  1.500
Ca11    28.310693715   39.258311775   19.859796448 XXX  2      ca+a    Ca  1.500
Ca12    25.725544609   42.107312467   19.345041505 XXX  2      ca+a    Ca  1.500
Al3     26.659185301   23.956752335   22.785406638 XXX  2      ac1     Al  1.200
Al4     26.883887460   27.489406268   22.927832329 XXX  2      ac1     Al  1.200
O7      26.486263636   25.682703138   23.104133606 XXX  2      oc3     O  -0.750
O8      23.034090666   25.525905407   18.791198476 XXX  2      oc3     O  -0.750
O9      26.719441866   27.893715466   21.286934196 XXX  2      oc4     O  -0.900
O10     27.183308688   14.319739936   18.578127256 XXX  2      oc4     O  -1.350
O11     25.236561422   23.233374970   23.513618443 XXX  2      oc4     O  -1.350
O12     28.319726924   23.606594270   23.351210797 XXX  2      oc4     O  -1.350
Ca13    23.020783579   23.284064643   15.375897966 XXX  2      ca+a    Ca  1.500
Ca14    18.638157230   26.418121143   17.996803758 XXX  2      ca+a    Ca  1.500
Ca15    26.672759172   19.753345737   26.662409052 XXX  2      ca+a    Ca  1.500
Ca16    28.343287806   17.930865983   24.813342668 XXX  2      ca+a    Ca  1.500
Ca17    24.903158836   17.834480563   28.311093537 XXX  2      ca+a    Ca  1.500
Ca18    28.816233857   17.654871487   28.738556289 XXX  2      ca+a    Ca  1.500
Al5     26.889452044   23.383706361   30.487552528 XXX  2      ac1     Al  1.200
Al6     26.475435983   19.957361065   30.603011670 XXX  2      ac1     Al  1.200
O13     27.088081695   21.614680023   30.682164067 XXX  2      oc3     O  -0.750
O14     15.017530661   21.697198258   26.527936363 XXX  2      oc3     O  -0.750
O15     26.864251284   19.327746905   29.010244955 XXX  2      oc4     O  -1.350
O16     27.427543291   33.874162246   26.570447225 XXX  2      oc4     O  -0.900
O17     28.397952105   24.139110687   30.939234820 XXX  2      oc4     O  -1.350
O18     25.274144300   23.776511628   30.997458353 XXX  2      oc4     O  -1.350
Ca19    17.456692534   18.079877780   20.957706944 XXX  2      ca+a    Ca  1.500
Ca20    17.166055824   25.140497360   20.897586055 XXX  2      ca+a    Ca  1.500
Al7     15.379736899   19.744384934   15.698419921 XXX  2      ac1     Al  1.200
Al8     15.096851947   19.384597485   19.044664915 XXX  2      ac1     Al  1.200
O19     15.004920638   19.894958982   17.409442542 XXX  2      oc3     O  -0.750
O20     19.114446889   23.216731778   17.164320296 XXX  2      oc3     O  -0.750
O21     16.674880890   19.667787618   19.531374242 XXX  2      oc4     O  -1.350
O22     19.429776375   19.288436287   21.379616386 XXX  2      oc4     O  -1.350
O23     14.666846402   21.180472649   14.968720861 XXX  2      oc4     O  -1.350
O24     14.896171611   18.135131064   15.311641645 XXX  2      oc4     O  -1.350
Ca21    24.576173349   21.429560224   24.705588222 XXX  2      ca+a    Ca  1.500
Ca22    24.540847894   17.695839962   24.896918220 XXX  2      ca+a    Ca  1.500
Al9     23.094215968   19.625654067   30.260290888 XXX  2      ac1     Al  1.200
Al10    22.854706265   19.791881144   26.898714003 XXX  2      ac1     Al  1.200
O25     22.939627101   19.236768702   28.556945579 XXX  2      oc3     O  -0.750
O26     26.547201082   32.138349406   28.658782760 XXX  2      oc3     O  -0.750
O27     24.484663757   19.504605695   26.224739131 XXX  2      oc4     O  -1.350
O28     26.940856244   19.955620804   24.476661793 XXX  2      oc4     O  -1.350
O29     22.413278536   18.232217036   31.041814145 XXX  2      oc4     O  -1.350
O30     22.465022281   21.235074022   30.408066853 XXX  2      oc4     O  -1.350
Ca23    20.550996763   35.078782550   27.964567176 XXX  2      ca+a    Ca  1.500
Ca24    21.347240714   25.337579349   28.696083691 XXX  2      ca+a    Ca  1.500
Al11    22.935495905   27.333164747   23.180246553 XXX  2      ac1     Al  1.200
Al12    22.860916076   27.758827770   26.633088098 XXX  2      ac1     Al  1.200
O31     23.051494129   27.181052632   24.966103631 XXX  2      oc3     O  -0.750
O32     19.288515712   23.776771356   24.809671749 XXX  2      oc3     O  -0.750
O33     21.326517996   27.096448465   27.042401963 XXX  2      oc4     O  -0.900
O34     18.329459190   27.564356504   13.626674426 XXX  2      oc4     O  -0.900
O35     23.602046417   25.809662676   22.629353787 XXX  2      oc4     O  -0.900
O36     23.570093265   28.911775884   22.716093194 XXX  2      oc4     O  -0.900
Ca25    28.293988343   30.413655689   19.347254570 XXX  2      ca+a    Ca  1.500
Ca26    29.104785782   32.777589753   16.368841666 XXX  2      ca+a    Ca  1.500
Al13    30.358368503   27.462032380   22.912487429 XXX  2      ac1     Al  1.200
Al14    30.415493320   27.599794869   19.404191183 XXX  2      ac1     Al  1.200
O37     30.753000665   27.768034156   21.170586829 XXX  2      oc3     O  -0.750
O38     26.834018966   15.587108067   21.078209721 XXX  2      oc3     O  -0.750
O39     28.795778170   28.150445023   19.232328848 XXX  2      oc4     O  -0.900
O40     25.733249348   27.501286761   31.977944808 XXX  2      oc4     O  -0.900
O41     31.246537920   28.735695027   23.734805423 XXX  2      oc4     O  -0.900
O42     30.682457670   25.765466879   23.148455331 XXX  2      oc4     O  -0.900
Ca27    20.858713609   18.163025964   17.388184886 XXX  2      ca+a    Ca  1.500
Ca28    20.944026770   17.553684780   21.147896175 XXX  2      ca+a    Ca  1.500
Al15    15.524889156   16.021955120   19.109871616 XXX  2      ac1     Al  1.200
Al16    18.993703525   15.882759135   18.788099605 XXX  2      ac1     Al  1.200
O43     17.312636764   15.955850883   19.337725884 XXX  2      oc3     O  -0.750
O44     17.053468508   19.790820652   22.676032494 XXX  2      oc3     O  -0.750
O45     19.676042848   17.349982730   19.197149151 XXX  2      oc4     O  -1.350
O46     21.458655035   20.109391789   18.709687379 XXX  2      oc4     O  -1.350
O47     14.942719797   15.186796044   20.595971335 XXX  2      oc4     O  -1.350
O48     15.320834722   15.345758405   17.518622508 XXX  2      oc4     O  -1.350
Ca29    25.596785639   26.964591239   19.198539360 XXX  2      ca+a    Ca  1.500
Ca30    28.189918850   25.638826130   17.287534907 XXX  2      ca+a    Ca  1.500
Al17    30.329091973   24.147884862   19.041769989 XXX  2      ac1     Al  1.200
Al18    26.955639415   23.567885652   19.351769877 XXX  2      ac1     Al  1.200
O49     28.678873841   23.479615021   19.062288174 XXX  2      oc3     O  -0.750
O50     28.405934135   27.598110877   31.059604545 XXX  2      oc3     O  -0.750
O51     26.632824568   25.209984442   18.722200903 XXX  2      oc4     O  -1.350
O52     23.512251496   28.156527380   19.762277314 XXX  2      oc4     O  -0.900
O53     30.871115488   23.624961183   17.571304227 XXX  2      oc4     O  -1.350
O54     31.070564156   23.710065054   20.580676337 XXX  2      oc4     O  -1.350
Ca31    28.617325340   21.025352345   28.534248068 XXX  2      ca+a    Ca  1.500
Ca32    28.485085231   21.644226972   24.672133640 XXX  2      ca+a    Ca  1.500
Al19    23.248139509   23.183122264   26.829392181 XXX  2      ac1     Al  1.200
Al20    26.649535863   23.349647649   27.034200370 XXX  2      ac1     Al  1.200
O55     24.985662427   22.994543888   26.655462476 XXX  2      oc3     O  -0.750
O56     24.617956010   19.525627081   23.191734663 XXX  2      oc3     O  -0.750
O57     27.592010129   21.931253347   26.767849202 XXX  2      oc4     O  -1.350
O58     13.670258470   19.294858931   26.981520873 XXX  2      oc4     O  -1.350
O59     22.903116527   23.981672912   25.283875270 XXX  2      oc4     O  -1.350
O60     23.101994231   24.020317845   28.340228738 XXX  2      oc4     O  -1.350
Ca33    17.538701370   35.892697101   23.086059834 XXX  2      ca+a    Ca  1.500
Ca34    15.502136645   32.115333592   28.125068768 XXX  2      ca+a    Ca  1.500
Al21    22.357424928   31.194550266   27.122085887 XXX  2      ac1     Al  1.200
Al22    18.898535568   32.021425172   26.830479416 XXX  2      ac1     Al  1.200
O61     20.610938227   31.482937836   27.384830000 XXX  2      oc3     O  -0.750
O62     20.897994510   27.833049666   14.777665288 XXX  2      oc3     O  -0.750
O63     17.708715918   31.173794099   27.775812771 XXX  2      oc4     O  -0.900
O64     31.930097933   26.712778351   26.726410058 XXX  2      oc4     O  -0.900
O65     23.038738246   31.400341515   28.702138403 XXX  2      oc4     O  -0.900
O66     22.759382411   32.240932795   25.816528038 XXX  2      oc4     O  -0.900
Ca35    24.614247437   30.247532331   24.213454483 XXX  2      ca+a    Ca  1.500
Ca36    24.857072837   24.966520423   24.994540476 XXX  2      ca+a    Ca  1.500
Ca37    28.983001928   25.028145664   28.888304895 XXX  2      ca+a    Ca  1.500
Ca38    24.892433413   25.475398519   28.615146400 XXX  2      ca+a    Ca  1.500
Al23    26.693490613   31.377404873   30.235619129 XXX  2      ac1     Al  1.200
Al24    26.706389768   27.824642278   30.542036642 XXX  2      ac1     Al  1.200
O67     26.366406457   29.592392235   30.190705619 XXX  2      oc3     O  -0.750
O68     22.732602057   29.541353435   26.570799277 XXX  2      oc3     O  -0.750
O69     26.628459748   26.960290540   29.093210163 XXX  2      oc4     O  -0.900
O70     26.832452816   24.847282914   26.225733969 XXX  2      oc4     O  -1.350
O71     25.466186393   32.074742886   31.214590261 XXX  2      oc4     O  -0.900
O72     28.366832036   31.405387089   30.712607203 XXX  2      oc4     O  -0.900
Ca39    26.977465701   19.791982697   18.922998784 XXX  2      ca+a    Ca  1.500
Ca40    28.988395560   22.209845910   16.935609831 XXX  2      ca+a    Ca  1.500
Ca41    25.004353587   21.581515135   20.519147654 XXX  2      ca+a    Ca  1.500
Ca42    28.513917909   21.484079134   21.267584137 XXX  2      ca+a    Ca  1.500
Al25    26.793316962   16.187218607   22.727266522 XXX  2      ac1     Al  1.200
Al26    26.311667295   19.548745732   22.943831568 XXX  2      ac1     Al  1.200
O73     26.943855621   17.946123867   22.737545016 XXX  2      oc3     O  -0.750
O74     14.862448288   17.668259731   19.210958049 XXX  2      oc3     O  -0.750
O75     26.602834943   20.351810462   21.407617059 XXX  2      oc4     O  -1.350
O76     26.376939615   22.020418523   18.751806608 XXX  2      oc4     O  -1.350
O77     28.192809181   15.627506696   23.428446451 XXX  2      oc4     O  -1.350
O78     25.225267790   15.815328471   23.405159173 XXX  2      oc4     O  -1.350
Ca43    17.956648686   20.962549039   27.902325604 XXX  2      ca+a    Ca  1.500
Ca44    20.343464115   18.140538557   28.130047151 XXX  2      ca+a    Ca  1.500
Ca45    17.303408027   18.004854326   25.552666549 XXX  2      ca+a    Ca  1.500
Ca46    20.921797632   17.791576052   24.548852794 XXX  2      ca+a    Ca  1.500
Al27    19.326919227   23.429083095   23.089858417 XXX  2      ac1     Al  1.200
Al28    18.823891188   19.963600880   22.896953862 XXX  2      ac1     Al  1.200
O79     19.450080230   21.636886283   22.852775247 XXX  2      oc3     O  -0.750
O80     22.567044949   21.558296132   26.843952045 XXX  2      oc3     O  -0.750
O81     19.233775546   19.224598492   24.370435637 XXX  2      oc4     O  -1.350
O82     19.013835526   33.728441211   26.848084788 XXX  2      oc4     O  -0.900
O83     20.879976925   24.107324818   22.555071015 XXX  2      oc4     O  -1.350
O84     17.812511100   24.104197440   22.616684067 XXX  2      oc4     O  -1.350
Ca47    22.324923483   33.143199726   19.528168944 XXX  2      ca+a    Ca  1.500
Ca48    17.212077241   36.357624117   18.582087456 XXX  2      ca+a    Ca  1.500
Ca49    20.407686626   35.326333754   16.810106979 XXX  2      ca+a    Ca  1.500
Ca50    17.047715068   34.150440659   14.618861860 XXX  2      ca+a    Ca  1.500
Al29    19.160931016   23.964362969   15.557780556 XXX  2      ac1     Al  1.200
Al30    19.130689791   27.441940053   15.113316202 XXX  2      ac1     Al  1.200
O85     18.904973487   25.707868126   15.678116551 XXX  2      oc3     O  -0.750
O86     30.356282161   25.920017813   18.883926594 XXX  2      oc3     O  -0.750
O87     18.771450557   28.350773655   16.572256352 XXX  2      oc4     O  -0.900
O88     19.663516655   14.363686742   19.469617829 XXX  2      oc4     O  -1.350
O89     17.767803363   23.395864586   14.617953863 XXX  2      oc4     O  -1.350
O90     20.853638567   23.779395389   15.011582799 XXX  2      oc4     O  -1.350
Ca51    29.872400468   34.508868899   25.996982464 XXX  2      ca+a    Ca  1.500
Ca52    28.657000344   25.321141586   25.012475184 XXX  2      ca+a    Ca  1.500
Al31    30.214551031   27.336668927   30.819208462 XXX  2      ac1     Al  1.200
Al32    30.504241488   27.500261280   27.310947393 XXX  2      ac1     Al  1.200
O91     30.709600901   27.301712391   29.073832988 XXX  2      oc3     O  -0.750
O92     26.887537305   23.769765857   28.747804315 XXX  2      oc3     O  -0.750
O93     28.978565727   26.850527008   27.018889692 XXX  2      oc4     O  -0.900
O94     26.024543045   28.207094099   24.226286028 XXX  2      oc4     O  -0.900
O95     30.633249973   25.732052829   31.400187197 XXX  2      oc4     O  -0.900
O96     30.796738907   28.838274742   31.491626310 XXX  2      oc4     O  -0.900
Ca53    20.681861665   25.432561317   20.817835583 XXX  2      ca+a    Ca  1.500
Ca54    20.196315096   35.601656436   20.959294532 XXX  2      ca+a    Ca  1.500
Al33    22.597309183   28.060722464   15.455967802 XXX  2      ac1     Al  1.200
Al34    22.404592574   27.235788434   18.798935652 XXX  2      ac1     Al  1.200
O97     22.530664798   28.055353339   17.226148657 XXX  2      oc3     O  -0.750
O98     19.330097830   15.682570878   17.079508676 XXX  2      oc3     O  -0.750
O99     20.694580761   27.180601508   19.217829106 XXX  2      oc4     O  -0.900
O100    18.718497046   27.133909078   21.423963495 XXX  2      oc4     O  -0.900
O101    23.133224579   29.667957404   15.005643030 XXX  2      oc4     O  -0.900
O102    23.432091519   26.621341857   15.059519733 XXX  2      oc4     O  -0.900
Ca55    25.244889337   17.892830533   17.222252093 XXX  2      ca+a    Ca  1.500
Ca56    24.808012355   21.757867373   17.245673986 XXX  2      ca+a    Ca  1.500
Al35    23.004373167   19.700002143   22.656825278 XXX  2      ac1     Al  1.200
Al36    22.938495092   19.480327589   19.241102408 XXX  2      ac1     Al  1.200
O103    22.913469666   20.006883885   20.888683036 XXX  2      oc3     O  -0.750
O104    26.594895097   23.436815833   21.087234721 XXX  2      oc3     O  -0.750
O105    24.551136869   19.860499100   18.576649751 XXX  2      oc4     O  -1.350
O106    27.066092192   19.244999095   31.999860406 XXX  2      oc4     O  -1.350
O107    22.530263689   21.110682897   23.473783867 XXX  2      oc4     O  -1.350
O108    22.321200249   18.119368154   22.952831397 XXX  2      oc4     O  -1.350
Ca57    15.704959153   23.473039226   30.219551183 XXX  2      ca+a    Ca  1.500
Ca58    16.857452504   17.712707563   28.773223639 XXX  2      ca+a    Ca  1.500
Al37    15.447109702   19.563410935   23.166535461 XXX  2      ac1     Al  1.200
Al38    15.179904147   19.882167968   26.458181732 XXX  2      ac1     Al  1.200
O109    15.264533757   19.243738227   24.845098004 XXX  2      oc3     O  -0.750
O110    18.585032419   31.640416520   25.082835254 XXX  2      oc3     O  -0.750
O111    16.585954583   19.396721183   27.216818637 XXX  2      oc4     O  -1.350
O112    19.421126502   20.231767185   13.849372043 XXX  2      oc4     O  -1.350
O113    14.765602190   18.117711211   22.526393427 XXX  2      oc4     O  -1.350
O114    14.661171949   21.159260089   22.922587970 XXX  2      oc4     O  -1.350
Ca59    23.213607390   32.974786232   30.604974638 XXX  2      ca+a    Ca  1.500
Ca60    22.051110662   33.444783330   23.933843085 XXX  2      ca+a    Ca  1.500
Al39    29.981961176   30.801237769   26.033453870 XXX  2      ac1     Al  1.200
Al40    26.918956495   32.259263055   26.907685038 XXX  2      ac1     Al  1.200
O115    28.259867172   31.171440313   26.416143170 XXX  2      oc3     O  -0.750
O116    28.617511037   27.676459313   23.294845169 XXX  2      oc3     O  -0.750
O117    25.454305432   31.684921067   26.114638018 XXX  2      oc4     O  -0.900
O118    24.340311358   27.278850323   27.384287400 XXX  2      oc4     O  -0.900
O119    29.934843566   30.617772596   24.356073291 XXX  2      oc4     O  -0.900
O120    30.894732164   32.134981118   26.768704050 XXX  2      oc4     O  -0.900
Ca61    20.642711706   20.892685235   25.049629553 XXX  2      ca+a    Ca  1.500
Ca62    21.064344060   21.635343663   28.742691047 XXX  2      ca+a    Ca  1.500
Al41    15.774820120   23.358561148   26.633590362 XXX  2      ac1     Al  1.200
Al42    19.120622785   23.452292325   26.461509711 XXX  2      ac1     Al  1.200
O121    17.483799880   23.392847151   26.955077681 XXX  2      oc3     O  -0.750
O122    17.073193530   19.878775060   15.258643333 XXX  2      oc3     O  -0.750
O123    19.703118967   21.880372106   26.801595237 XXX  2      oc4     O  -1.350
O124    21.434435383   19.061678995   26.258291444 XXX  2      oc4     O  -1.350
O125    15.087013840   24.150363444   28.016354473 XXX  2      oc4     O  -1.350
O126    15.608657808   24.073576076   24.972345696 XXX  2      oc4     O  -1.350
Ca63    17.496919426   30.027870746   17.453134923 XXX  2      ca+a    Ca  1.500
Ca64    21.759431439   31.515467644   15.302554761 XXX  2      ca+a    Ca  1.500
Al43    22.803448167   23.731364141   19.060023012 XXX  2      ac1     Al  1.200
Al44    19.452845051   23.381955857   18.937558610 XXX  2      ac1     Al  1.200
O127    21.097998805   23.451359772   19.385601638 XXX  2      oc3     O  -0.750
O128    21.239976238   27.405985159   22.661302092 XXX  2      oc3     O  -0.750
O129    18.816378610   24.888450921   19.518863479 XXX  2      oc4     O  -1.350
O130    31.693414879   28.351106145   18.496180677 XXX  2      oc4     O  -0.900
O131    23.524022017   23.205136895   20.563920851 XXX  2      oc4     O  -1.350
O132    22.902362113   22.853718257   17.550132938 XXX  2      oc4     O  -1.350
Ca65    28.611993944   18.004551122   20.741696173 XXX  2      ca+a    Ca  1.500
Ca66    28.601014104   17.609334476   17.134638583 XXX  2      ca+a    Ca  1.500
Al45    23.178219547   16.088227620   19.047550450 XXX  2      ac1     Al  1.200
Al46    26.568408350   15.797488440   19.317790608 XXX  2      ac1     Al  1.200
O133    24.892464510   15.892004308   18.736473988 XXX  2      oc3     O  -0.750
O134    24.777973468   19.749242744   30.777614898 XXX  2      oc3     O  -0.750
O135    27.297975370   17.348530027   18.920586992 XXX  2      oc4     O  -1.350
O136    13.764862609   20.163051491   19.776435721 XXX  2      oc4     O  -1.350
O137    22.544547776   15.272406804   17.640969607 XXX  2      oc4     O  -1.350
O138    22.915971627   15.477455678   20.690887408 XXX  2      oc4     O  -1.350
H1      26.687774190   34.368199940   26.274816092 XXX  2      hoc     H   0.300
H2      25.141457613   31.346383249   31.682253308 XXX  2      hoc     H   0.300
H3      28.824930947   31.595147257   29.946196991 XXX  2      hoc     H   0.300
H4      25.129756721   31.434194774   26.932291991 XXX  2      hoc     H   0.300
H5      23.690113832   32.372216842   25.787882688 XXX  2      hoc     H   0.300
H6      22.976323586   30.574677085   28.975913763 XXX  2      hoc     H   0.300
H7      21.239195494   30.741526016   24.082898991 XXX  2      hoc     H   0.300
H8      18.830356319   33.958053996   25.961916514 XXX  2      hoc     H   0.300
H9      17.396238802   32.101648404   22.805330691 XXX  2      hoc     H   0.300
H10     17.854672650   30.270375651   27.680769057 XXX  2      hoc     H   0.300
H11     31.804793961   32.021763039   26.604368171 XXX  2      hoc     H   0.300
H12     29.152569033   30.179655970   24.121473946 XXX  2      hoc     H   0.300
H13     30.714615517   29.037169278   24.479203877 XXX  2      hoc     H   0.300
H14     23.145619164   28.844017819   21.876316463 XXX  2      hoc     H   0.300
H15     26.962230691   28.803262623   21.135676846 XXX  2      hoc     H   0.300
H16     26.659893674   28.308143724   24.911072357 XXX  2      hoc     H   0.300
H17     23.670365281   28.987151981   19.356392346 XXX  2      hoc     H   0.300
H18     31.683517868   27.820056252   17.799063675 XXX  2      hoc     H   0.300
H19     19.474684425   29.036987759   16.505413873 XXX  2      hoc     H   0.300
H20     24.039434496   29.650494970   14.782126671 XXX  2      hoc     H   0.300
H21     31.400731124   29.263374812   30.931180835 XXX  2      hoc     H   0.300
H22     18.547717381   27.987215628   21.015982016 XXX  2      hoc     H   0.300
H23     18.846429895   27.420128930   25.001849036 XXX  2      hoc     H   0.300
H24     18.461251654   28.451274553   13.392966059 XXX  2      hoc     H   0.300
H25     23.807840321   26.395373129   15.895828168 XXX  2      hoc     H   0.300
H26     23.669174252   25.895683710   21.769573697 XXX  2      hoc     H   0.300
H27     29.906786422   25.492141472   22.692416630 XXX  2      hoc     H   0.300
H28     20.844278990   27.893424032   19.845717241 XXX  2      hoc     H   0.300
H29     20.691591892   27.683124897   27.090698588 XXX  2      hoc     H   0.300
H30     25.122427526   28.200615346   32.012432775 XXX  2      hoc     H   0.300
H31     26.666774839   27.599522494   28.431937526 XXX  2      hoc     H   0.300
H32     28.327138509   27.757404497   19.990583963 XXX  2      hoc     H   0.300
H33     28.359929271   27.304985816   27.580060065 XXX  2      hoc     H   0.300
H34     32.351754180   27.320475138   26.098759463 XXX  2      hoc     H   0.300
H35     29.770059580   25.399810580   31.467894781 XXX  2      hoc     H   0.300
H36     24.731427923   28.094005260   27.617394978 XXX  2      hoc     H   0.300
end
O1       3.087661937   38.385065993    1.378076404 XXXX 17     oc5     O  -1.000
O2       4.930200105   35.288379959    7.812524544 XXXX 17     oc5     O  -1.000
O3       6.715717419   33.489524441    4.802616974 XXXX 17     oc5     O  -1.000
O4       4.532737302   35.648837926   12.561943445 XXXX 17     oc5     O  -1.000
O5       4.142474055   29.499814023    4.236146596 XXXX 17     oc5     O  -1.000
O6       3.280588268   32.255751304    3.589299850 XXXX 17     oc5     O  -1.000
O7      10.311747174   31.662296516    7.137881674 XXXX 17     oc5     O  -1.000
O8      10.631221394   28.189357672    2.972450229 XXXX 17     oc5     O  -1.000
O9       7.353769131   34.675644482   10.969272959 XXXX 17     oc5     O  -1.000
O10      9.264359820   33.196723198    3.175574759 XXXX 17     oc5     O  -1.000
O11     10.941746124   31.147606691    4.477662179 XXXX 17     oc5     O  -1.000
O12      9.400772409   35.229125862    0.984887849 XXXX 17     oc5     O  -1.000
O13     14.081891486   38.874616759    1.681495193 XXXX 17     oc5     O  -1.000
O14     14.272188882   30.873129193    4.305200217 XXXX 17     oc5     O  -1.000
O15     -0.476723619   37.998115093   13.808435970 XXXX 17     oc5     O  -1.000
O16      0.255146142   34.470479306    8.039377459 XXXX 17     oc5     O  -1.000
O17     -2.159206623   33.700120431    2.636447254 XXXX 17     oc5     O  -1.000
O18      0.473328800   38.642016563    5.281069537 XXXX 17     oc5     O  -1.000
O19      0.542415520   38.962161889   11.094003562 XXXX 17     oc5     O  -1.000
O20      4.120163104   38.969176612    4.799937389 XXXX 17     oc5     O  -1.000
O21      6.721960766   30.760700556    2.335742816 XXXX 17     oc5     O  -1.000
O22      6.859589609   38.043674001    7.921286885 XXXX 17     oc5     O  -1.000
O23     10.436485122   34.755098219    5.364856757 XXXX 17     oc5     O  -1.000
O24      7.872070841   30.697319638    5.168459109 XXXX 17     oc5     O  -1.000
O25     11.455719975   42.081594241    3.995308684 XXXX 17     oc5     O  -1.000
O26      8.689352983   36.196070348    3.706248914 XXXX 17     oc5     O  -1.000
O27     12.117929682   36.818815904    2.949092099 XXXX 17     oc5     O  -1.000
O28     13.283475850   39.086725254    5.010132748 XXXX 17     oc5     O  -1.000
O29     10.686893982   30.810431891    1.553080811 XXXX 17     oc5     O  -1.000
O30      9.290819151   37.052093115    9.098969963 XXXX 17     oc5     O  -1.000
O31     13.628477205   31.455503696    1.650604894 XXXX 17     oc5     O  -1.000
O32      0.120500534   38.985065521    1.921218723 XXXX 17     oc5     O  -1.000
O33      2.303169154   36.603781052    3.542678782 XXXX 17     oc5     O  -1.000
O34      1.670219910   36.649264476   12.626629530 XXXX 17     oc5     O  -1.000
O35      2.595817716   37.189817591    7.331022023 XXXX 17     oc5     O  -1.000
O36      6.166631412   36.487419993    1.330867887 XXXX 17     oc5     O  -1.000
O37     18.243958031   30.200295755    2.109994576 XXXX 17     oc5     O  -1.000
O38     17.104524676   37.291365774    7.192233455 XXXX 17     oc5     O  -1.000
O39     20.381891607   32.619960019    5.074594148 XXXX 17     oc5     O  -1.000
O40     17.445325475   39.151032042   13.506334246 XXXX 17     oc5     O  -1.000
O41     23.368139094   25.796776440   -0.026819890 XXXX 17     oc5     O  -1.000
O42     17.364247794   29.636768639    5.460977728 XXXX 17     oc5     O  -1.000
O43     23.874341258   30.950835487    5.680362742 XXXX 17     oc5     O  -1.000
O44     27.440238351   30.184076579    3.617701394 XXXX 17     oc5     O  -1.000
O45     22.619345820   36.110240739   12.498623354 XXXX 17     oc5     O  -1.000
O46     22.377204713   33.066887141    7.199515038 XXXX 17     oc5     O  -1.000
O47     24.380788802   32.548564649    3.363861344 XXXX 17     oc5     O  -1.000
O48     24.007533070   34.892504419    1.304742570 XXXX 17     oc5     O  -1.000
O49     26.768357801   38.675025806    2.367851797 XXXX 17     oc5     O  -1.000
O50     30.777777036   31.267202722    3.010215762 XXXX 17     oc5     O  -1.000
O51     16.742307102   35.422310289   12.401590014 XXXX 17     oc5     O  -1.000
O52     14.692089061   33.276526614    6.307862182 XXXX 17     oc5     O  -1.000
O53     15.115384854   35.838501205    1.336307063 XXXX 17     oc5     O  -1.000
O54     16.537652139   34.714661998    9.377869398 XXXX 17     oc5     O  -1.000
O55     14.311194126   36.636217751   10.633360371 XXXX 17     oc5     O  -1.000
O56     19.392155393   37.786610632    3.285139652 XXXX 17     oc5     O  -1.000
O57     19.062819457   33.877391388    1.878030957 XXXX 17     oc5     O  -1.000
O58     22.707455754   39.138098045    4.072327106 XXXX 17     oc5     O  -1.000
O59     22.177107210   35.000521589    5.051962003 XXXX 17     oc5     O  -1.000
O60     20.287812429   29.812866129    4.329738744 XXXX 17     oc5     O  -1.000
O61     28.516211801   44.361129347    7.164765269 XXXX 17     oc5     O  -1.000
O62     25.500439926   41.465070676    3.398217358 XXXX 17     oc5     O  -1.000
O63     26.765313540   38.836679774    5.442828600 XXXX 17     oc5     O  -1.000
O64     28.942001026   41.134022551    3.651595686 XXXX 17     oc5     O  -1.000
O65     25.987694503   34.846073744    4.376338693 XXXX 17     oc5     O  -1.000
O66     25.263988340   33.084957476    7.639102694 XXXX 17     oc5     O  -1.000
O67     35.151633240   32.419373274   -0.274612342 XXXX 17     oc5     O  -1.000
O68     16.151991240   38.802388462    4.323151442 XXXX 17     oc5     O  -1.000
O69     16.023405606   35.634868961    4.632944776 XXXX 17     oc5     O  -1.000
O70     20.240033901   34.824096213   10.783025345 XXXX 17     oc5     O  -1.000
O71     20.332187852   37.778562447    6.241432896 XXXX 17     oc5     O  -1.000
O72     21.355177531   34.156587224   -0.575519082 XXXX 17     oc5     O  -1.000
O73      1.887094594   38.423845230   15.608585291 XXXX 17     oc5     O  -1.000
O74      7.620402419   37.502023174   25.271260630 XXXX 17     oc5     O  -1.000
O75      5.447519112   31.860770571   17.389228324 XXXX 17     oc5     O  -1.000
O76      3.984426854   37.119778000   26.375596885 XXXX 17     oc5     O  -1.000
O77      7.702638166   25.876549880   15.342491149 XXXX 17     oc5     O  -1.000
O78      1.619266152   31.024077910   20.153961871 XXXX 17     oc5     O  -1.000
O79      4.596197626   30.391588407   19.844659614 XXXX 17     oc5     O  -1.000
O80     12.019161685   29.785270904   19.317940119 XXXX 17     oc5     O  -1.000
O81      8.636971594   36.115176092   27.906728738 XXXX 17     oc5     O  -1.000
O82      7.855579762   35.274703228   20.946615735 XXXX 17     oc5     O  -1.000
O83     13.642303649   32.681009449   18.106001533 XXXX 17     oc5     O  -1.000
O84      9.566510215   35.151246334   17.572732275 XXXX 17     oc5     O  -1.000
O85     12.175387988   36.091589266   16.735825771 XXXX 17     oc5     O  -1.000
O86     15.607929096   30.624171748   19.002323921 XXXX 17     oc5     O  -1.000
O87     -1.886498501   36.685458634   25.334072893 XXXX 17     oc5     O  -1.000
O88     -0.345167967   33.543599337   23.679803119 XXXX 17     oc5     O  -1.000
O89      0.069227116   34.536727197   16.969247711 XXXX 17     oc5     O  -1.000
O90      1.543658853   35.537085054   19.643889601 XXXX 17     oc5     O  -1.000
O91      1.043315490   36.183392859   26.314465444 XXXX 17     oc5     O  -1.000
O92      5.447155208   38.740197975   18.737032210 XXXX 17     oc5     O  -1.000
O93      2.514422852   32.120955687   17.163661206 XXXX 17     oc5     O  -1.000
O94      8.441538973   37.574143358   19.193693454 XXXX 17     oc5     O  -1.000
O95      5.771789259   35.482785511   17.984905847 XXXX 17     oc5     O  -1.000
O96      8.489321926   31.155919479   20.888971964 XXXX 17     oc5     O  -1.000
O97     10.143088496   41.893198409   21.374211035 XXXX 17     oc5     O  -1.000
O98     10.146426406   39.986508000   17.325507904 XXXX 17     oc5     O  -1.000
O99     11.325350516   38.031170173   19.529648371 XXXX 17     oc5     O  -1.000
O100    13.396782747   39.701228004   20.858337622 XXXX 17     oc5     O  -1.000
O101    12.071074533   34.920262442   19.604590308 XXXX 17     oc5     O  -1.000
O102     8.127366371   33.413459314   23.392762503 XXXX 17     oc5     O  -1.000
O103    14.419142818   31.256236885   15.160200860 XXXX 17     oc5     O  -1.000
O104    -0.068738987   40.103161906   19.335757646 XXXX 17     oc5     O  -1.000
O105     2.646416254   35.785037434   16.673001229 XXXX 17     oc5     O  -1.000
O106     5.018247365   35.964263659   28.914122248 XXXX 17     oc5     O  -1.000
O107     4.376671722   36.199615105   23.237645879 XXXX 17     oc5     O  -1.000
O108     6.038175051   34.367108000   15.188809890 XXXX 17     oc5     O  -1.000
O109    18.905799938   35.621056903   14.802224061 XXXX 17     oc5     O  -1.000
O110    19.917867141   34.931094215   23.289601420 XXXX 17     oc5     O  -1.000
O111    21.402227902   33.887033936   14.998707089 XXXX 17     oc5     O  -1.000
O112    16.186861137   31.894604329   30.430896965 XXXX 17     oc5     O  -1.000
O113    18.408502370   29.612941889   19.844607008 XXXX 17     oc5     O  -1.000
O114    20.171891752   30.541334575   16.763298057 XXXX 17     oc5     O  -1.000
O115    24.650552598   33.033689440   19.755852582 XXXX 17     oc5     O  -1.000
O116    26.001239175   29.802927673   19.153866142 XXXX 17     oc5     O  -1.000
O117    21.630391145   34.973577157   25.895915556 XXXX 17     oc5     O  -1.000
O118    25.119526541   37.236743172   16.982029519 XXXX 17     oc5     O  -1.000
O119    27.503033575   32.224888185   17.989938314 XXXX 17     oc5     O  -1.000
O120    26.175033968   37.523243555   14.269686480 XXXX 17     oc5     O  -1.000
O121    28.774286510   39.634468590   17.343751410 XXXX 17     oc5     O  -1.000
O122    28.893226115   30.419342948   21.559559554 XXXX 17     oc5     O  -1.000
O123    15.872303419   37.218111359   27.476120709 XXXX 17     oc5     O  -1.000
O124    16.344015488   33.775661157   23.360517909 XXXX 17     oc5     O  -1.000
O125    15.292082738   36.444138927   16.811018526 XXXX 17     oc5     O  -1.000
O126    15.388637488   36.719845890   23.440884685 XXXX 17     oc5     O  -1.000
O127    15.142690431   34.526877019   29.133915164 XXXX 17     oc5     O  -1.000
O128    19.628308691   36.580386163   18.762737933 XXXX 17     oc5     O  -1.000
O129    17.955426523   34.635077422   17.011386153 XXXX 17     oc5     O  -1.000
O130    22.346790861   34.528429515   21.513037897 XXXX 17     oc5     O  -1.000
O131    22.114771680   35.340569317   18.414232340 XXXX 17     oc5     O  -1.000
O132    22.826405230   31.696048898   17.756954304 XXXX 17     oc5     O  -1.000
O133    25.113747746   46.284592709   17.102416856 XXXX 17     oc5     O  -1.000
O134    25.654689257   40.631976690   17.107654755 XXXX 17     oc5     O  -1.000
O135    25.833407442   39.828610721   20.113652424 XXXX 17     oc5     O  -1.000
O136    28.082109869   41.916402974   20.180110021 XXXX 17     oc5     O  -1.000
O137    28.338408277   35.085909211   18.801216134 XXXX 17     oc5     O  -1.000
O138    24.094834459   32.357319301   23.073969012 XXXX 17     oc5     O  -1.000
O139    30.112408665   31.397858323   18.094437813 XXXX 17     oc5     O  -1.000
O140    15.633235668   37.945192787   19.332772538 XXXX 17     oc5     O  -1.000
O141    17.549475138   35.150064346   20.698747298 XXXX 17     oc5     O  -1.000
O142    18.807654671   36.794068856   28.299975850 XXXX 17     oc5     O  -1.000
O143    18.863551054   37.519992911   21.778116280 XXXX 17     oc5     O  -1.000
O144    21.623681856   36.967428324   15.599246690 XXXX 17     oc5     O  -1.000
H1       3.647262822   37.586228941    1.418615455 XXXX 17     hoc     H   0.250
H2       5.419257733   34.648733130    7.295603609 XXXX 17     hoc     H   0.250
H3       5.936389664   34.051311104    4.602639100 XXXX 17     hoc     H   0.250
H4       4.043205919   36.330637048   12.193814439 XXXX 17     hoc     H   0.250
H5       3.991349772   28.623943175    4.544880658 XXXX 17     hoc     H   0.250
H6       2.863820433   32.058115225    4.425590289 XXXX 17     hoc     H   0.250
H7      10.955323921   31.545450364    6.415921796 XXXX 17     hoc     H   0.250
H8      10.215912474   27.360149855    2.848724748 XXXX 17     hoc     H   0.250
H9       7.702286503   33.855565345   10.643061339 XXXX 17     hoc     H   0.250
H10      9.900201039   32.465498361    3.151192890 XXXX 17     hoc     H   0.250
H11     10.737592992   30.911614455    5.353491005 XXXX 17     hoc     H   0.250
H12      9.951304895   35.812699076    0.494651058 XXXX 17     hoc     H   0.250
H13     14.495544102   39.705829846    1.812559904 XXXX 17     hoc     H   0.250
H14     14.054161647   31.625327243    4.728101307 XXXX 17     hoc     H   0.250
H15     -0.779714432   38.062933402   14.628555066 XXXX 17     hoc     H   0.250
H16     -0.277350602   34.720509580    7.264027616 XXXX 17     hoc     H   0.250
H17     -2.179850780   32.917950743    3.101092508 XXXX 17     hoc     H   0.250
H18      0.021403520   37.976652240    5.790360606 XXXX 17     hoc     H   0.250
H19      0.598122631   38.833991310   10.119303972 XXXX 17     hoc     H   0.250
H20      4.747561972   38.979314836    4.041048441 XXXX 17     hoc     H   0.250
H21      6.228517987   29.986747706    2.625419933 XXXX 17     hoc     H   0.250
H22      7.778139480   38.038893823    7.999387123 XXXX 17     hoc     H   0.250
H23     10.293527473   35.450088898    6.012380250 XXXX 17     hoc     H   0.250
H24      8.086942458   30.004424184    5.814749650 XXXX 17     hoc     H   0.250
H25     11.803358609   41.766599856    4.782622637 XXXX 17     hoc     H   0.250
H26      9.149055097   35.713480926    4.361103669 XXXX 17     hoc     H   0.250
H27     11.900946342   37.318104239    2.183477981 XXXX 17     hoc     H   0.250
H28     12.740320089   38.448358735    5.430611646 XXXX 17     hoc     H   0.250
H29     11.122812716   30.436033060    0.788513181 XXXX 17     hoc     H   0.250
H30      9.837907250   37.665725911    8.669464342 XXXX 17     hoc     H   0.250
H31     12.776277751   31.621862854    1.256933737 XXXX 17     hoc     H   0.250
H32     -0.688207643   38.920439771    1.409888726 XXXX 17     hoc     H   0.250
H33      2.045084798   36.735679794    4.415264281 XXXX 17     hoc     H   0.250
H34      2.427150585   36.186133208   12.911647752 XXXX 17     hoc     H   0.250
H35      2.036323079   37.279031855    6.655790289 XXXX 17     hoc     H   0.250
H36      6.031557717   36.442494689    0.427859643 XXXX 17     hoc     H   0.250
H37     18.809779425   29.949229000    1.380432088 XXXX 17     hoc     H   0.250
H38     17.462726749   37.245087140    8.040432737 XXXX 17     hoc     H   0.250
H39     20.701884479   33.425322740    5.362650835 XXXX 17     hoc     H   0.250
H40     16.667899967   39.401822287   14.034975449 XXXX 17     hoc     H   0.250
H41     23.245949313   26.537379016    0.463344583 XXXX 17     hoc     H   0.250
H42     17.814209798   29.355437619    6.249636250 XXXX 17     hoc     H   0.250
H43     23.946276870   31.143906741    4.748524893 XXXX 17     hoc     H   0.250
H44     26.611441656   30.677749546    3.844331755 XXXX 17     hoc     H   0.250
H45     23.397874489   35.840766002   12.039168913 XXXX 17     hoc     H   0.250
H46     21.894407445   33.500065169    6.543880126 XXXX 17     hoc     H   0.250
H47     24.919789825   31.764109212    3.391974230 XXXX 17     hoc     H   0.250
H48     24.467222288   35.430975988    0.756787834 XXXX 17     hoc     H   0.250
H49     27.001857337   38.890390651    1.471639696 XXXX 17     hoc     H   0.250
H50     30.539448287   31.364463261    3.912181601 XXXX 17     hoc     H   0.250
H51     17.409026050   35.383798795   11.796626512 XXXX 17     hoc     H   0.250
H52     14.977153049   33.606170401    5.488730020 XXXX 17     hoc     H   0.250
H53     15.884083682   35.677064619    1.861750530 XXXX 17     hoc     H   0.250
H54     16.806394470   33.867145420    9.664029209 XXXX 17     hoc     H   0.250
H55     14.149494347   36.947076155    9.782279318 XXXX 17     hoc     H   0.250
H56     19.462578155   38.709264780    3.115981809 XXXX 17     hoc     H   0.250
H57     19.969519218   33.873494608    1.647322726 XXXX 17     hoc     H   0.250
H58     22.203901092   39.652711129    3.477365618 XXXX 17     hoc     H   0.250
H59     21.806001543   35.398672248    5.828430056 XXXX 17     hoc     H   0.250
H60     19.637972342   29.949166893    5.026171339 XXXX 17     hoc     H   0.250
H61     28.667685977   45.140234459    7.698129695 XXXX 17     hoc     H   0.250
H62     26.477998554   41.522258323    3.243355248 XXXX 17     hoc     H   0.250
H63     27.306815094   38.108833813    5.724600440 XXXX 17     hoc     H   0.250
H64     28.233286525   41.607370659    3.260386215 XXXX 17     hoc     H   0.250
H65     26.353575745   35.673738981    4.742238193 XXXX 17     hoc     H   0.250
H66     24.954367566   33.273912819    8.462634883 XXXX 17     hoc     H   0.250
H67     34.404463790   32.069415877   -0.802359416 XXXX 17     hoc     H   0.250
H68     15.553013004   39.541056658    4.394486545 XXXX 17     hoc     H   0.250
H69     16.156251894   34.815596561    4.111642529 XXXX 17     hoc     H   0.250
H70     19.561845638   34.185562882   11.139225683 XXXX 17     hoc     H   0.250
H71     19.729299886   38.149451896    6.871662164 XXXX 17     hoc     H   0.250
H72     20.658423734   33.547463113   -0.408397269 XXXX 17     hoc     H   0.250
H73      1.589665200   38.230471670   16.494684564 XXXX 17     hoc     H   0.250
H74      8.403527117   36.990415609   25.043505587 XXXX 17     hoc     H   0.250
H75      4.914896908   31.140290156   17.156910414 XXXX 17     hoc     H   0.250
H76      3.952701836   37.995494266   26.730258626 XXXX 17     hoc     H   0.250
H77      7.319329361   26.552955964   15.859043883 XXXX 17     hoc     H   0.250
H78      1.024970345   30.952021340   19.436827878 XXXX 17     hoc     H   0.250
H79      4.281967342   30.453401622   20.751523747 XXXX 17     hoc     H   0.250
H80     12.052622401   29.655352754   20.226456007 XXXX 17     hoc     H   0.250
H81      8.742814449   36.434494543   27.009336446 XXXX 17     hoc     H   0.250
H82      7.934437900   35.073486333   21.841092413 XXXX 17     hoc     H   0.250
H83     13.371315349   32.346514366   18.931663503 XXXX 17     hoc     H   0.250
H84      8.800006988   35.275038350   17.054153534 XXXX 17     hoc     H   0.250
H85     12.503761052   35.614727032   16.001206254 XXXX 17     hoc     H   0.250
H86     14.956789192   31.131624489   19.539634393 XXXX 17     hoc     H   0.250
H87     -1.149534192   37.214145276   25.596328511 XXXX 17     hoc     H   0.250
H88      0.087470969   32.670913738   23.852122263 XXXX 17     hoc     H   0.250
H89     -0.416248453   35.251330012   17.318471361 XXXX 17     hoc     H   0.250
H90      1.938518969   35.983662119   18.864529716 XXXX 17     hoc     H   0.250
H91      0.664646214   36.927217105   26.752786164 XXXX 17     hoc     H   0.250
H92      6.102305925   39.246224848   19.124694407 XXXX 17     hoc     H   0.250
H93      2.235670178   31.527374945   16.477711364 XXXX 17     hoc     H   0.250
H94      8.169962578   38.310405681   18.717561222 XXXX 17     hoc     H   0.250
H95      5.922639094   35.749003924   17.126419064 XXXX 17     hoc     H   0.250
H96      8.860672023   30.306135272   20.781372720 XXXX 17     hoc     H   0.250
H97      9.357984303   41.315342083   21.371199288 XXXX 17     hoc     H   0.250
H98     10.464772741   40.697218315   16.758067138 XXXX 17     hoc     H   0.250
H99     11.703758364   37.830404570   20.380005246 XXXX 17     hoc     H   0.250
H100    13.966255128   39.741771956   20.144302329 XXXX 17     hoc     H   0.250
H101    12.857196648   34.864010578   20.160176456 XXXX 17     hoc     H   0.250
H102     8.343570810   33.593874252   24.224872582 XXXX 17     hoc     H   0.250
H103    13.924208204   30.767472063   14.523139521 XXXX 17     hoc     H   0.250
H104    -0.572173620   40.057124793   18.540320193 XXXX 17     hoc     H   0.250
H105     1.854688522   35.376597131   17.005512236 XXXX 17     hoc     H   0.250
H106     4.775791540   36.561657391   29.604775837 XXXX 17     hoc     H   0.250
H107     4.921456766   35.460840196   23.406961616 XXXX 17     hoc     H   0.250
H108     6.717719825   34.906567477   15.536979314 XXXX 17     hoc     H   0.250
H109    18.521747278   36.292860494   15.351767229 XXXX 17     hoc     H   0.250
H110    19.516536095   34.577876776   24.059280804 XXXX 17     hoc     H   0.250
H111    22.314481888   34.030808440   14.892438279 XXXX 17     hoc     H   0.250
H112    17.087382185   31.705769326   30.380875132 XXXX 17     hoc     H   0.250
H113    19.324313829   29.500113929   19.714264948 XXXX 17     hoc     H   0.250
H114    20.484954139   29.774003243   17.153265048 XXXX 17     hoc     H   0.250
H115    24.583241697   32.404692903   20.458358935 XXXX 17     hoc     H   0.250
H116    25.704621528   29.286147086   19.883396261 XXXX 17     hoc     H   0.250
H117    21.690687153   35.672870947   25.288513122 XXXX 17     hoc     H   0.250
H118    24.482658271   37.473641906   17.581462538 XXXX 17     hoc     H   0.250
H119    27.542244397   33.088388936   18.364619659 XXXX 17     hoc     H   0.250
H120    26.876293025   36.893093921   14.467285018 XXXX 17     hoc     H   0.250
H121    28.439520137   40.524066273   17.214613018 XXXX 17     hoc     H   0.250
H122    28.934563325   29.553575385   21.924098081 XXXX 17     hoc     H   0.250
H123    15.276540199   37.640833603   26.923196231 XXXX 17     hoc     H   0.250
H124    16.744082080   33.283137638   24.030623652 XXXX 17     hoc     H   0.250
H125    15.187624021   35.493169396   16.782949182 XXXX 17     hoc     H   0.250
H126    14.963952319   37.372131975   24.033898086 XXXX 17     hoc     H   0.250
H127    14.502481503   35.059393133   28.695696106 XXXX 17     hoc     H   0.250
H128    20.437185949   37.088413716   18.892195406 XXXX 17     hoc     H   0.250
H129    18.212049732   33.733934867   16.881579269 XXXX 17     hoc     H   0.250
H130    23.175342296   34.758844969   21.297068920 XXXX 17     hoc     H   0.250
H131    22.337959119   36.247273404   18.282531077 XXXX 17     hoc     H   0.250
H132    22.478584861   30.864651277   18.061124851 XXXX 17     hoc     H   0.250
H133    24.612843044   45.630374870   16.645571845 XXXX 17     hoc     H   0.250
H134    25.261137410   41.302942657   16.593089719 XXXX 17     hoc     H   0.250
H135    25.322623583   39.909574718   20.885816703 XXXX 17     hoc     H   0.250
H136    29.010564304   42.050482943   20.220029094 XXXX 17     hoc     H   0.250
H137    28.839170563   34.506815316   19.431271252 XXXX 17     hoc     H   0.250
H138    24.129485894   32.797807768   22.252059141 XXXX 17     hoc     H   0.250
H139    30.561156870   30.727410180   17.661037959 XXXX 17     hoc     H   0.250
H140    15.180731748   37.711307673   20.105408839 XXXX 17     hoc     H   0.250
H141    17.413130802   34.177121396   20.711075422 XXXX 17     hoc     H   0.250
H142    19.270845439   37.343022752   28.859398601 XXXX 17     hoc     H   0.250
H143    19.043292687   38.098155783   21.015995030 XXXX 17     hoc     H   0.250
H144    21.234634357   37.375032211   14.839519116 XXXX 17     hoc     H   0.250
end
O17     12.033255317   34.277628916    0.372990252 XXXX 1      o*      O  -0.820
H33     12.100453991   34.978922874   -0.307911283 XXXX 1      h*      H   0.410
H34     11.446640145   33.613443498   -0.116802465 XXXX 1      h*      H   0.410
end
O43      4.428238141   50.614720225   26.823650604 XXXX 1      o*      O  -0.820
H85      4.579678940   50.354622169   27.761618147 XXXX 1      h*      H   0.410
H92      4.631315040   49.784208021   26.358450245 XXXX 1      h*      H   0.410
O1227    6.600182036   47.644452724   15.416332667 XXXX 1      o*      O  -0.820
H2379    6.844993512   47.678416919   14.388293781 XXXX 1      h*      H   0.410
H2498    5.994370695   46.895751539   15.456423560 XXXX 1      h*      H   0.410
end
O68      0.690355403   74.363096011   -1.379875574 XXXX 1      o*      O  -0.820
H135     0.619424905   74.071735464   -2.326897077 XXXX 1      h*      H   0.410
H137     0.832659941   73.479434122   -0.979512381 XXXX 1      h*      H   0.410
end
O68     19.406307834   69.943059213   -3.168136497 XXXX 1      o*      O  -0.820
H135    19.021159669   69.084947019   -3.464239406 XXXX 1      h*      H   0.410
H137    19.124201645   70.486221328   -3.957122848 XXXX 1      h*      H   0.410
end
O101    25.257133292   62.219745241   13.546243780 XXXX 1      o*      O  -0.820
H200    25.632295578   61.657470703   14.260152699 XXXX 1      h*      H   0.410
H202    24.373735342   61.776220917   13.466334448 XXXX 1      h*      H   0.410
O1038   26.611906275   53.525089507    7.764851111 XXXX 1      o*      O  -0.820
H2059   25.689137225   53.845664352    7.626830735 XXXX 1      h*      H   0.410
H2175   26.853724984   53.069642850    6.924448412 XXXX 1      h*      H   0.410
end
O130    28.476152401   87.119647573    6.208011121 XXXX 1      o*      O  -0.820
H258    28.891813629   86.508263556    5.610247793 XXXX 1      h*      H   0.410
H261    28.014709774   86.419065829    6.778526115 XXXX 1      h*      H   0.410
end
O138     8.789455064   84.032205409    8.690249623 XXXX 1      o*      O  -0.820
H270     9.548188237   83.534770842    8.342392091 XXXX 1      h*      H   0.410
H277     8.223213435   83.257019613    8.801833746 XXXX 1      h*      H   0.410
end
O157     0.810996496   73.243656736   18.656090333 XXXX 1      o*      O  -0.820
H313     1.624469451   72.931973569   18.176213455 XXXX 1      h*      H   0.410
H318     0.125723805   72.528562781   18.504253271 XXXX 1      h*      H   0.410
end
O169    -0.131461868   68.609022402   30.850583521 XXXX 1      o*      O  -0.820
H337    -0.553810679   69.093403760   30.085021367 XXXX 1      h*      H   0.410
H339    -0.415666795   69.147169516   31.592057477 XXXX 1      h*      H   0.410
end
O248     8.835904874   80.870565713    3.369526992 XXXX 1      o*      O  -0.820
H489     9.120021818   80.227473820    2.691510214 XXXX 1      h*      H   0.410
H496     9.442792795   80.546501120    4.035555465 XXXX 1      h*      H   0.410
O1232    2.054298632   39.168401816   24.806508295 XXXX 1      o*      O  -0.820
H2384    2.653849291   39.740378195   25.345908112 XXXX 1      h*      H   0.410
H2503    1.128928697   39.648269620   24.810667941 XXXX 1      h*      H   0.410
end
O671    10.000340272   75.962767242    1.291687291 XXXX 1      o*      O  -0.820
H1307   10.701258716   75.728868897    0.586397188 XXXX 1      h*      H   0.410
H1372    9.924701959   75.075608092    1.690049676 XXXX 1      h*      H   0.410
end
O261    25.322058991   41.074723691   13.909375154 XXXX 1      o*      O  -0.820
H520    26.205806560   41.372623612   14.197891595 XXXX 1      h*      H   0.410
H524    25.577682937   40.234799226   13.446847015 XXXX 1      h*      H   0.410
end
O1213   12.740058229   68.947967820   25.092292714 XXXX 1      o*      O  -0.820
H2365   12.991459722   68.087428105   24.693544188 XXXX 1      h*      H   0.410
H2484   13.491731395   69.424344191   24.633295015 XXXX 1      h*      H   0.410
end
O329     9.584568025   83.761376408   23.652043238 XXXX 1      o*      O  -0.820
H652     9.631865202   83.301851042   22.776440883 XXXX 1      h*      H   0.410
H664     8.715630018   83.509065941   23.955992741 XXXX 1      h*      H   0.410
end
O382    12.368750596   65.017800152   26.465489909 XXXX 1      o*      O  -0.820
H762    11.516003567   64.801194922   26.924513370 XXXX 1      h*      H   0.410
H765    12.459512530   65.951828014   26.733731310 XXXX 1      h*      H   0.410
O405    14.974379680   63.943485919   27.579449388 XXXX 1      o*      O  -0.820
H809    14.000748000   64.217173189   27.711460984 XXXX 1      h*      H   0.410
H810    15.301662681   63.871838926   28.514223944 XXXX 1      h*      H   0.410
O522    14.168541176   72.975037778    3.908999266 XXXX 1      o*      O  -0.820
H1040   13.563705099   73.589888416    3.448982420 XXXX 1      h*      H   0.410
H1047   13.563968227   72.188265082    3.935395542 XXXX 1      h*      H   0.410
end
O1327   20.564745198   45.381557100    1.028244342 XXXX 1      o*      O  -0.820
H2602   20.323968822   44.678663906    1.696478474 XXXX 1      h*      H   0.410
H2663   19.696203445   45.442923192    0.574687208 XXXX 1      h*      H   0.410
end
O396    29.183290011   66.209393396   19.020246444 XXXX 1      o*      O  -0.820
H790    29.016215819   66.034406629   19.943084124 XXXX 1      h*      H   0.410
H792    29.411372804   65.266115093   18.697027398 XXXX 1      h*      H   0.410
end
O440    27.729303524   60.353762677   13.796617321 XXXX 1      o*      O  -0.820
H878    28.474178885   60.413755025   13.161042528 XXXX 1      h*      H   0.410
H885    27.023289859   60.386200111   13.070191601 XXXX 1      h*      H   0.410
end
O1178    8.497998149   70.407724656    9.522111243 XXXX 1      o*      O  -0.820
H2330    9.272662122   70.165559740   10.128461481 XXXX 1      h*      H   0.410
H2449    7.829817715   69.967432749   10.090341334 XXXX 1      h*      H   0.410
end
O511    27.560328845   57.698777772    1.385971956 XXXX 1      o*      O  -0.820
H1018   28.074205342   56.980485793    1.759846630 XXXX 1      h*      H   0.410
H1025   28.304394849   58.310364867    1.307031949 XXXX 1      h*      H   0.410
end
O515    24.874497272   71.596994248    1.870330627 XXXX 1      o*      O  -0.820
H1029   24.870799656   71.083961353    2.738946442 XXXX 1      h*      H   0.410
H1031   24.470001839   71.002266927    1.177707989 XXXX 1      h*      H   0.410
end
O1006   30.437768992   38.791941448   27.830781696 XXXX 1      o*      O  -0.820
H2002   30.958494481   39.564762344   27.464463773 XXXX 1      h*      H   0.410
H2017   29.795285536   38.708199992   27.048042577 XXXX 1      h*      H   0.410
end
O1143    1.463459686   52.609264189   22.984260753 XXXX 1      o*      O  -0.820
H2283    1.387862027   51.712419337   22.573125076 XXXX 1      h*      H   0.410
H2295    2.455882794   52.585152094   23.059009591 XXXX 1      h*      H   0.410
end
O1213   16.089762732   73.161016717   30.115721593 XXXX 1      o*      O  -0.820
H2365   15.248248005   72.884742637   30.510026746 XXXX 1      h*      H   0.410
H2484   16.429713973   72.293374714   29.756556841 XXXX 1      h*      H   0.410
end
O1232    0.002810194   58.969317746   24.275676605 XXXX 1      o*      O  -0.820
H2384   -0.468778356   58.678429493   25.128987917 XXXX 1      h*      H   0.410
H2503   -0.234530003   58.200031550   23.651238905 XXXX 1      h*      H   0.410
end
O1385   23.626367779   67.502258121   17.434193051 XXXX 1      o*      O  -0.820
H2729   24.567687866   67.408638066   17.155842398 XXXX 1      h*      H   0.410
H2774   23.495037099   66.539709458   17.707769709 XXXX 1      h*      H   0.410
end
end
