!BIOSYM archive 3
PBC=ON
Materials Studio Generated CAR File
!DATE Sat Jun 06 01:05:09 2009
PBC   11.2600   11.2600   21.4800   90.0000   90.0000  120.0000 (P1)
AL1     -0.000000000    0.000000000    0.000000000 XXX  1      ac2     Al  1.200
CA1      1.137259846   -1.794219977   18.795000076 XXX  1      ca+e    Ca  1.600
CA2     -1.131630669    1.843023062    2.684999943 XXX  1      ca+e    Ca  1.600
O1      -0.821980247    1.306693554   -1.116959076 XXX  1      oc8     O  -0.900
O2       0.715010052   -1.316398627    1.224359989 XXX  1      oc5     O  -0.900
O3      -0.776940048    1.423711181   17.291400909 XXX  1      oc7     O  -0.900
O4       0.743160133   -1.209133154    4.253039837 XXX  1      oc8     O  -0.900
O5      -1.959239960    3.393503189    1.009559989 XXX  1      o*      O  -0.820
O6       2.009909992   -3.286191470   -0.902159195 XXX  1      o*      O  -0.820
O7      -1.976130247    3.364248991    4.274519920 XXX  1      o*      O  -0.820
O8       1.897310381   -3.364202505   16.926240921 XXX  1      o*      O  -0.820
O9       0.681229889    3.949335814   13.274640083 XXX  1      o*      O  -0.820
O10     -0.591150169   -3.968792445    8.033519745 XXX  1      o*      O  -0.820
O11      0.630559981    3.959087133    2.706480026 XXX  1      o*      O  -0.820
O12     -0.349059944   -3.920035368   18.687599182 XXX  1      o*      O  -0.820
O13      0.000000000    6.500964165    9.021599770 XXX  1      oc11    O  -0.600
O14      0.000000000    6.500964165   17.484720230 XXX  1      oc11    O  -0.600
O15     -0.000000000    6.500964165    1.503600001 XXX  1      oc11    O  -0.600
O16     -1.418760061    6.260428429   11.126640320 XXX  1      oc11    O  -0.600
O17     -1.294899940    6.045896530   15.530039787 XXX  1      oc11    O  -0.600
O18     -1.131630182    5.704596043   -0.386639099 XXX  1      oc11    O  -0.600
O19     -1.368090034    6.211670876    5.219639778 XXX  1      o*      O  -0.820
S1       0.000000000    6.500964165   10.546680450 XXX  1      s'      S   0.600
S2       0.000000000    6.500964165   16.110000610 XXX  1      s'      S   0.600
S3      -0.000000000    6.500964165    0.193320006 XXX  1      s'      S   0.600
H1       2.968343382   -3.519035345   -0.766373138 XXX  1      h*      H   0.410
H2       1.599835033   -4.107073313   -0.522785645 XXX  1      h*      H   0.410
H3      -1.684652448    4.267569542    4.532945633 XXX  1      h*      H   0.410
H4      -2.951022873    3.482839823    4.442905903 XXX  1      h*      H   0.410
H5       1.564700012   -4.287577635   16.898065567 XXX  1      h*      H   0.410
H6       2.784100647   -3.498332030   16.503772736 XXX  1      h*      H   0.410
H7       0.695483088    4.569942951   12.497735023 XXX  1      h*      H   0.410
H8       0.721337199    4.614229679   14.010982513 XXX  1      h*      H   0.410
H9      -0.705076103   -4.517923838    8.849774361 XXX  1      h*      H   0.410
H10     -0.395300274   -4.721764571    7.421123028 XXX  1      h*      H   0.410
H11      1.564376831    3.710553646    2.512103319 XXX  1      h*      H   0.410
H12      0.523905396    4.783421993    2.167901516 XXX  1      h*      H   0.410
H13     -0.199182873   -4.830423838   19.049863815 XXX  1      h*      H   0.410
H14     -1.328688984   -3.878678805   18.708490372 XXX  1      h*      H   0.410
H15     -1.583420396    4.220837593    0.609109521 XXX  1      h*      H   0.410
H16     -2.918172607    3.575492859    0.844888985 XXX  1      h*      H   0.410
H17     -0.927250028    7.023202419    5.561179161 XXX  1      h*      H   0.410
H18     -1.695261955    6.577116489    4.363513947 XXX  1      h*      H   0.410
AL1      0.000000000   -0.000000000    5.369999886 XXX  2      ac2     Al  1.200
H2       1.162021999   -2.045717722    0.846347451 XXX  3      hoc     H   0.350
H1      -1.242642522    2.133135319   16.898513794 XXX  4      hoc     H   0.350
H2       1.200866108   -1.924282557    4.637388706 XXX  4      hoc     H   0.350
H3      -1.291028142    2.006481886   -0.714264374 XXX  4      hoc     H   0.350
CA1      0.985250056    1.882028937   18.795000076 XXX  5      ca+e    Ca  1.600
CA2     -1.030289536   -1.901486403    2.684999943 XXX  5      ca+e    Ca  1.600
O1      -0.720639591   -1.365156180   -1.116959076 XXX  5      oc9     O  -0.900
O2       0.782569408    1.277439356    1.224359989 XXX  5      oc6     O  -0.900
O3      -0.844499950   -1.384659773   17.291400909 XXX  5      oc6     O  -0.900
O4       0.675599813    1.248185158    4.253039837 XXX  5      oc9     O  -0.900
O5      -1.959240084   -3.393456942    1.009559989 XXX  5      o*      O  -0.820
O6       1.841010213    3.383751869   -0.902159195 XXX  5      o*      O  -0.820
O7      -1.925459986   -3.393457419    4.274519920 XXX  5      o*      O  -0.820
O8       1.964869499    3.325243235   16.926240921 XXX  5      o*      O  -0.820
O9      -3.760840063   -1.384659773   13.274640083 XXX  5      o*      O  -0.820
O10      3.732690096    1.472468138    8.033519745 XXX  5      o*      O  -0.820
O11     -3.743950014   -1.433416373    2.706480026 XXX  5      o*      O  -0.820
O12      3.569420099    1.657745957   18.687599182 XXX  5      o*      O  -0.820
O13      0.917689979    5.392549515   11.126640320 XXX  5      oc11    O  -0.600
O14      1.041550040    5.607081413   15.530039787 XXX  5      oc11    O  -0.600
O15      1.255489945    5.919127464   -0.386639099 XXX  5      oc11    O  -0.600
O16      0.934580266    5.460809708    5.219639778 XXX  5      o*      O  -0.820
H1       1.563417912    4.330193520   -0.766363602 XXX  5      h*      H   0.410
H2       2.756950378    3.439075947   -0.522785645 XXX  5      h*      H   0.410
H3      -1.540747528   -4.297050959    4.442894459 XXX  5      h*      H   0.410
H4      -2.853502636   -3.592648989    4.532960415 XXX  5      h*      H   0.410
H5       2.930853367    3.498820066   16.898071289 XXX  5      h*      H   0.410
H6       1.637678504    4.160307884   16.503774643 XXX  5      h*      H   0.410
H7      -4.305432920   -1.682633406   12.497744560 XXX  5      h*      H   0.410
H8      -4.356702809   -1.682367331   14.010989189 XXX  5      h*      H   0.410
H9       4.265227795    1.648302436    8.849781036 XXX  5      h*      H   0.410
H10      4.286833286    2.018636703    7.421163559 XXX  5      h*      H   0.410
H11     -3.995629435   -0.500437743    2.512140989 XXX  5      h*      H   0.410
H12     -4.404530768   -1.937931067    2.167901039 XXX  5      h*      H   0.410
H13      4.023565292    0.788762569   18.708362579 XXX  5      h*      H   0.410
H14      4.282845497    2.242796659   19.049877167 XXX  5      h*      H   0.410
H15     -2.863654499   -3.481657034    0.609136879 XXX  5      h*      H   0.410
H16     -1.637385969   -4.314914709    0.844900429 XXX  5      h*      H   0.410
H17      0.011345729    5.436851978    5.561158657 XXX  5      h*      H   0.410
H18      0.781725883    4.994570732    4.363601685 XXX  5      h*      H   0.410
H19      1.190677047    2.029222727    0.846353054 XXX  5      hoc     H   0.350
H20     -1.225949650   -2.142719275   16.898509979 XXX  5      hoc     H   0.350
H21      1.066077709    2.002148867    4.637385368 XXX  5      hoc     H   0.350
H22     -1.092147236   -2.121253020   -0.714252930 XXX  5      hoc     H   0.350
CA3     -2.122509842   -0.087717062   18.795000076 XXX  5      ca+e    Ca  1.600
CA4      2.161920071    0.058509376    2.684999943 XXX  5      ca+e    Ca  1.600
O17      1.542619944    0.058509000   -1.116959076 XXX  5      oc10    O  -0.900
O18     -1.497579346    0.039005268    1.224359989 XXX  5      oc7     O  -0.900
O19      1.621440053   -0.039005771   17.291400909 XXX  5      oc5     O  -0.900
O20     -1.418760071   -0.039005954    4.253039837 XXX  5      oc10    O  -0.900
O21      3.918479919   -0.000000017    1.009559989 XXX  5      o*      O  -0.820
O22     -3.850920205   -0.097468382   -0.902159195 XXX  5      o*      O  -0.820
O23      3.901590109    0.029254509    4.274519920 XXX  5      o*      O  -0.820
O24     -3.862180004    0.039005294   16.926240921 XXX  5      o*      O  -0.820
O25      3.079610233   -2.564584261   13.274640083 XXX  5      o*      O  -0.820
O26     -3.141540298    2.496370316    8.033519745 XXX  5      o*      O  -0.820
O27      3.113390093   -2.525578505    2.706480026 XXX  5      o*      O  -0.820
O28     -3.220360527    2.262335539   18.687599182 XXX  5      o*      O  -0.820
O29      0.501070082    7.849914074   11.126640320 XXX  5      oc11    O  -0.600
O30      0.253349960    7.849914074   15.530039787 XXX  5      oc11    O  -0.600
O31     -0.123859815    7.879168510   -0.386639099 XXX  5      oc11    O  -0.600
O32      0.433509797    7.830411434    5.219639778 XXX  5      o*      O  -0.820
H23     -4.356781487    0.668107980   -0.522779922 XXX  5      h*      H   0.410
H24     -4.531783352   -0.811120629   -0.766357880 XXX  5      h*      H   0.410
H25      4.491712337    0.814312929    4.442882538 XXX  5      h*      H   0.410
H26      4.538152218   -0.674804628    4.533014297 XXX  5      h*      H   0.410
H27     -4.495551114    0.788773531   16.897974014 XXX  5      h*      H   0.410
H28     -4.421698341   -0.661938429   16.503768921 XXX  5      h*      H   0.410
H29      3.635365372   -2.931749350   14.010994911 XXX  5      h*      H   0.410
H30      3.609956150   -2.887246615   12.497749329 XXX  5      h*      H   0.410
H31     -3.560093174    2.869639635    8.849780083 XXX  5      h*      H   0.410
H32     -3.891591797    2.703203917    7.421150684 XXX  5      h*      H   0.410
H33      3.880601530   -2.845389372    2.167892456 XXX  5      h*      H   0.410
H34      2.431251650   -3.210038191    2.512161255 XXX  5      h*      H   0.410
H35     -2.694879303    3.090132475   18.708358765 XXX  5      h*      H   0.410
H36     -4.083743820    2.587645769   19.049879074 XXX  5      h*      H   0.410
H37      4.447012191   -0.739124304    0.609103382 XXX  5      h*      H   0.410
H38      4.555612087    0.739417493    0.844898999 XXX  5      h*      H   0.410
H39      0.915864408    7.042844296    5.561170101 XXX  5      h*      H   0.410
H40      0.913687587    7.931113720    4.363583565 XXX  5      h*      H   0.410
H41     -2.352692375    0.016549703    0.846344054 XXX  5      hoc     H   0.350
H42      2.468673468    0.009657307   16.898525238 XXX  5      hoc     H   0.350
H43     -2.266951332   -0.077845022    4.637382507 XXX  5      hoc     H   0.350
H44      2.383177996    0.114832073   -0.714262466 XXX  5      hoc     H   0.350
AL1      0.000000000   -0.000000000   10.739999771 XXX  5      ac2     Al  1.200
CA5     -2.122509727    0.087762907    8.055000305 XXX  5      ca+e    Ca  1.600
CA6      2.161920195   -0.058463103   13.425000191 XXX  5      ca+e    Ca  1.600
O33      1.542620068   -0.058463103    9.623041153 XXX  5      oc10    O  -0.900
O34     -1.497579346   -0.039005268   11.964360237 XXX  5      oc7     O  -0.900
O35      1.621440053    0.039005771    6.551401138 XXX  5      oc7     O  -0.900
O36     -1.418760071    0.039005954   14.993040085 XXX  5      oc8     O  -0.900
O37      3.918479919    0.000000017   11.749560356 XXX  5      o*      O  -0.820
O38     -3.850919971    0.097514354    9.837841034 XXX  5      o*      O  -0.820
O39      3.901590109   -0.029254509   15.014519691 XXX  5      o*      O  -0.820
O40     -3.862180004   -0.039005294    6.186241150 XXX  5      o*      O  -0.820
O41      3.079610109    2.564630270    2.534640074 XXX  5      o*      O  -0.820
O42     -3.141539936   -2.496324068   18.773519516 XXX  5      o*      O  -0.820
O43      3.113389969    2.525624514   13.446479797 XXX  5      o*      O  -0.820
O44     -3.220360165   -2.262289530    7.947599411 XXX  5      o*      O  -0.820
O45      5.630000114    3.250482082   -1.718399506 XXX  5      oc11    O  -0.600
O46      5.630000114    3.250482082    6.744720459 XXX  5      oc11    O  -0.600
O47      5.630000114    3.250482082   12.243599892 XXX  5      oc11    O  -0.600
O48      6.131070137    1.901531935    0.386640310 XXX  5      oc11    O  -0.600
O49      5.883349895    1.901532054    4.790040016 XXX  5      oc11    O  -0.600
O50      5.506140232    1.872277498   10.353361130 XXX  5      oc11    O  -0.600
O51      6.063509941    1.921034694   15.959639549 XXX  5      o*      O  -0.820
S1       5.630000114    3.250482082   -0.193319778 XXX  5      s'      S   0.600
S2       5.630000114    3.250482082    5.370000839 XXX  5      s'      S   0.600
S3       5.630000114    3.250482082   10.933320045 XXX  5      s'      S   0.600
H45     -4.531795750    0.811115086    9.973605156 XXX  5      h*      H   0.410
H46     -4.356776004   -0.668011671   10.217235565 XXX  5      h*      H   0.410
H47      4.538129807    0.674866498   15.272902489 XXX  5      h*      H   0.410
H48      4.491771226   -0.814170844   15.182913780 XXX  5      h*      H   0.410
H49     -4.421761284    0.661889791    5.763772011 XXX  5      h*      H   0.410
H50     -4.495496755   -0.788732535    6.158050537 XXX  5      h*      H   0.410
H51      3.609943867    2.887269258    1.757731080 XXX  5      h*      H   0.410
H52      3.635368824    2.931828737    3.270975590 XXX  5      h*      H   0.410
H53     -3.891580586   -2.703154570   18.161138535 XXX  5      h*      H   0.410
H54     -3.560116892   -2.869583136   19.589771271 XXX  5      h*      H   0.410
H55      3.880597353    2.845461607   12.907900810 XXX  5      h*      H   0.410
H56      2.431237936    3.210079432   13.252176285 XXX  5      h*      H   0.410
H57     -2.694875603   -3.090083605    7.968408585 XXX  5      h*      H   0.410
H58     -4.083752637   -2.587590701    8.309867859 XXX  5      h*      H   0.410
H59      4.447059631    0.739129126   11.349095345 XXX  5      h*      H   0.410
H60      4.555570011   -0.739418036   11.584943771 XXX  5      h*      H   0.410
H61      6.545885563    2.708537102   16.301294327 XXX  5      h*      H   0.410
H62      6.543633461    1.820500255   15.103531837 XXX  5      h*      H   0.410
AL2      0.000000000   -0.000000000   16.110000610 XXX  5      ac2     Al  1.200
H63     -2.352696190   -0.016580164   11.586350441 XXX  5      hoc     H   0.350
H64      2.468668461   -0.009646916    6.158517361 XXX  5      hoc     H   0.350
H65     -2.266943703    0.077920638   15.377391815 XXX  5      hoc     H   0.350
H66      2.383175135   -0.114858799   10.025739670 XXX  5      hoc     H   0.350
CA7      1.137259841    1.794265985    8.055000305 XXX  5      ca+e    Ca  1.600
CA8     -1.131630783   -1.842977053   13.425000191 XXX  5      ca+e    Ca  1.600
O52     -0.821980362   -1.306647307    9.623041153 XXX  5      oc9     O  -0.900
O53      0.715010285    1.316444635   11.964360237 XXX  5      oc6     O  -0.900
O54     -0.776940231   -1.423665053    6.551401138 XXX  5      oc6     O  -0.900
O55      0.743160129    1.209179163   14.993040085 XXX  5      oc9     O  -0.900
O56     -1.959239845   -3.393456942   11.749560356 XXX  5      o*      O  -0.820
O57      2.009910107    3.286237478    9.837841034 XXX  5      o*      O  -0.820
O58     -1.976130371   -3.364202982   15.014519691 XXX  5      o*      O  -0.820
O59      1.897310376    3.364248514    6.186241150 XXX  5      o*      O  -0.820
O60      0.681229706   -3.949289805    2.534640074 XXX  5      o*      O  -0.820
O61     -0.591150165    3.968838453   18.773519516 XXX  5      o*      O  -0.820
O62      0.630560036   -3.959041125   13.446479797 XXX  5      o*      O  -0.820
O63     -0.349059939    3.920081377    7.947599411 XXX  5      o*      O  -0.820
O64      4.211239815    3.491017580    0.386640310 XXX  5      oc11    O  -0.600
O65      4.335100174    3.705549479    4.790040016 XXX  5      oc11    O  -0.600
O66      4.498369694    4.046850204   10.353361130 XXX  5      oc11    O  -0.600
O67      4.261909962    3.539775133   15.959639549 XXX  5      o*      O  -0.820
H67      2.968346834    3.519061089    9.973649025 XXX  5      h*      H   0.410
H68      1.599840522    4.107116699   10.217224121 XXX  5      h*      H   0.410
H69     -1.684608822   -4.267517096   15.272921562 XXX  5      h*      H   0.410
H70     -2.951017027   -3.482837683   15.182912827 XXX  5      h*      H   0.410
H71      1.564629078    4.287597656    6.158054829 XXX  5      h*      H   0.410
H72      2.784090281    3.498428106    5.763770103 XXX  5      h*      H   0.410
H73      0.695475216   -4.569904333    1.757741809 XXX  5      h*      H   0.410
H74      0.721341724   -4.614175803    3.270989656 XXX  5      h*      H   0.410
H75     -0.395223439    4.721817970   18.161155701 XXX  5      h*      H   0.410
H76     -0.705161810    4.517955780   19.589769363 XXX  5      h*      H   0.410
H77      0.523938293   -4.783378130   12.907896996 XXX  5      h*      H   0.410
H78      1.564397926   -3.710520750   13.252190590 XXX  5      h*      H   0.410
H79     -1.328692675    3.878895760    7.968420982 XXX  5      h*      H   0.410
H80     -0.199081033    4.830452919    8.309863091 XXX  5      h*      H   0.410
H81     -2.918165569   -3.575480944   11.584892273 XXX  5      h*      H   0.410
H82     -1.583391075   -4.220782763   11.349121094 XXX  5      h*      H   0.410
H83      3.934621334    3.174263000   15.103587151 XXX  5      h*      H   0.410
H84      4.702803612    2.728273153   16.301177979 XXX  5      h*      H   0.410
H85      1.162010431    2.045771599   11.586348534 XXX  5      hoc     H   0.350
H86     -1.242689018   -2.133060461    6.158517361 XXX  5      hoc     H   0.350
H87      1.200877190    1.924317241   15.377395630 XXX  5      hoc     H   0.350
H88     -1.291013603   -2.006443507   10.025738716 XXX  5      hoc     H   0.350
CA9      0.985250111   -1.881982809    8.055000305 XXX  5      ca+e    Ca  1.600
CA10    -1.030289412    1.901532412   13.425000191 XXX  5      ca+e    Ca  1.600
O68     -0.720639706    1.365202546    9.623041153 XXX  5      oc8     O  -0.900
O69      0.782569294   -1.277393347   11.964360237 XXX  5      oc5     O  -0.900
O70     -0.844500005    1.384705424    6.551401138 XXX  5      oc5     O  -0.900
O71      0.675599937   -1.248139388   14.993040085 XXX  5      oc10    O  -0.900
O72     -1.959239960    3.393503189   11.749560356 XXX  5      o*      O  -0.820
O73      1.841010208   -3.383705622    9.837841034 XXX  5      o*      O  -0.820
O74     -1.925459981    3.393503428   15.014519691 XXX  5      o*      O  -0.820
O75      1.964869623   -3.325197226    6.186241150 XXX  5      o*      O  -0.820
O76     -3.760840187    1.384705544    2.534640074 XXX  5      o*      O  -0.820
O77      3.732690101   -1.472422606   18.773519516 XXX  5      o*      O  -0.820
O78     -3.743950138    1.433462620   13.446479797 XXX  5      o*      O  -0.820
O79      3.569419985   -1.657699591    7.947599411 XXX  5      o*      O  -0.820
O80      6.547689915    4.358896255    0.386640310 XXX  5      oc11    O  -0.600
O81      6.671549797    4.144364357    4.790040016 XXX  5      oc11    O  -0.600
O82      6.885489941    3.832318544   10.353361130 XXX  5      oc11    O  -0.600
O83      6.564580441    4.290636063   15.959639549 XXX  5      o*      O  -0.820
H89      1.563452358   -4.330158717    9.973628998 XXX  5      h*      H   0.410
H90      2.756943111   -3.438997752   10.217238426 XXX  5      h*      H   0.410
H91     -2.853503952    3.592715979   15.272936821 XXX  5      h*      H   0.410
H92     -1.540739059    4.297094345   15.182878494 XXX  5      h*      H   0.410
H93      1.637690182   -4.160261637    5.763766289 XXX  5      h*      H   0.410
H94      2.930854445   -3.498761183    6.158067226 XXX  5      h*      H   0.410
H95     -4.356710682    1.682404995    3.270986080 XXX  5      h*      H   0.410
H96     -4.305430660    1.682671905    1.757740021 XXX  5      h*      H   0.410
H97      4.286847954   -2.018561846   18.161149979 XXX  5      h*      H   0.410
H98      4.265226369   -1.648280150   19.589776993 XXX  5      h*      H   0.410
H99     -3.995613823    0.500467718   13.252185822 XXX  5      h*      H   0.410
H100    -4.404526482    1.937943220   12.907865524 XXX  5      h*      H   0.410
H101     4.282844429   -2.242746836    8.309886932 XXX  5      h*      H   0.410
H102     4.023562198   -0.788713461    7.968350410 XXX  5      h*      H   0.410
H103    -2.863643417    3.481695175   11.349110603 XXX  5      h*      H   0.410
H104    -1.637386322    4.314958572   11.584890366 XXX  5      h*      H   0.410
H105     5.641361713    4.314604759   16.301223755 XXX  5      h*      H   0.410
H106     6.411673069    4.756824970   15.103584290 XXX  5      h*      H   0.410
H107     1.190693264   -2.029171950   11.586359978 XXX  5      hoc     H   0.350
H108    -1.225953341    2.142766953    6.158517361 XXX  5      hoc     H   0.350
H109     1.066062813   -2.002103812   15.377398491 XXX  5      hoc     H   0.350
H110    -1.092199564    2.121278048   10.025741577 XXX  5      hoc     H   0.350
end
end
