!BIOSYM archive 3
PBC=ON
Materials Studio Generated CAR File
!DATE Thu Apr 17 22:25:47 2014
PBC   25.7700   26.8260   14.7820   91.9300  105.0500   89.8000 (P1)
Al1      0.938276811    4.401836405    3.352685177 XXXX 1      ay1     Al  1.449
Al2      1.082772059    7.303633477    3.217151390 XXXX 1      ay2     Al  1.449
Al3      3.644013041    8.801274934    3.352689112 XXXX 1      ay1     Al  1.449
Al4      3.498106040    2.848365587    3.281350393 XXXX 1      ay2     Al  1.449
Si1      0.222968064    3.107174125    0.399469296 XXXX 1      sy1     Si  1.100
Si2      0.283022963    5.791435618    0.613470235 XXXX 1      sy2     Si  1.100
Si3      2.679016228    7.501762690    0.542136260 XXXX 1      sy1     Si  1.100
Si4      2.768464571    1.602265940    0.477937407 XXXX 1      sy2     Si  1.100
O1      -0.011567381    2.983785187    2.189943822 XXXX 1      oy7     O  -0.758
O2       0.226868330    5.840381317    2.068676206 XXXX 1      oy8     O  -0.758
O3       0.489678017    4.370212200   -0.192604590 XXXX 1      oy1     O  -0.550
O4       1.380138084    1.972073010   -0.142669634 XXXX 1      oy2     O  -0.550
O5       1.297181170    6.875891611   -0.249662975 XXXX 1      oy3     O  -0.550
O6       2.688486643    7.466842499    2.097208636 XXXX 1      oy7     O  -0.758
O7       2.946212398    1.329524178    2.189946646 XXXX 1      oy8     O  -0.758
O8       2.870542104    0.032639092   -0.171198135 XXXX 1      oy1     O  -0.550
O9       3.938787316    6.475647352    0.214002884 XXXX 1      oy2     O  -0.550
O10      3.990687424    2.347147387   -0.128397506 XXXX 1      oy3     O  -0.550
O11      0.034421876    8.571291044    2.225617303 XXXX 1      oy9     O  -0.683
O12      4.162228161    1.422807677    4.166771704 XXXX 1      oy5     O  -0.683
O13     -0.448482013    4.016300843    4.173022179 XXXX 1      oy4     O  -0.683
O14     -0.576940381    7.392971704    4.272888891 XXXX 1      oy6     O  -0.683
O15      2.559659429    4.111191394    2.168550176 XXXX 1      oy9     O  -0.683
O16      1.587069529    5.758535089    4.215826847 XXXX 1      oy5     O  -0.683
O17      1.979372098    8.569692863    4.115960000 XXXX 1      oy4     O  -0.683
O18      1.888439948    3.157883456    4.173020528 XXXX 1      oy6     O  -0.683
H1       0.630849095    9.502510418    2.453863486 XXXX 1      hoy     H   0.200
H2       4.683068711    1.525685619    5.086983251 XXXX 1      hok     H   0.200
H3      -0.960346821    4.532695251    5.029024387 XXXX 1      hok     H   0.200
H4      -0.918262243    7.320165384    5.100366877 XXXX 1      hok     H   0.200
H5       3.095014401    4.874914093    1.797610719 XXXX 1      hoy     H   0.200
H6       1.849340867    5.611037091    5.136029265 XXXX 1      hok     H   0.200
H7       1.701344240    8.606105104    5.150296425 XXXX 1      hok     H   0.200
H8       1.781445979    2.467345917    5.021891655 XXXX 1      hok     H   0.200
Al1      6.092276811    4.401836405    3.352685177 XXXX 2      ay1     Al  1.449
Al2      6.236772059    7.303633477    3.217151390 XXXX 2      ay2     Al  1.449
Al3      8.798013041    8.801274934    3.352689112 XXXX 2      ay1     Al  1.449
Al4      8.652106040    2.848365587    3.281350393 XXXX 2      ay2     Al  1.449
Si1      5.376968064    3.107174125    0.399469296 XXXX 2      sy1     Si  1.100
Si2      5.437022963    5.791435618    0.613470235 XXXX 2      sy2     Si  1.100
Si3      7.833016228    7.501762690    0.542136260 XXXX 2      sy1     Si  1.100
Si4      7.922464571    1.602265940    0.477937407 XXXX 2      sy2     Si  1.100
O1       5.142432619    2.983785187    2.189943822 XXXX 2      oy7     O  -0.758
O2       5.380868330    5.840381317    2.068676206 XXXX 2      oy8     O  -0.758
O3       5.643678017    4.370212200   -0.192604590 XXXX 2      oy1     O  -0.550
O4       6.534138084    1.972073010   -0.142669634 XXXX 2      oy2     O  -0.550
O5       6.451181170    6.875891611   -0.249662975 XXXX 2      oy3     O  -0.550
O6       7.842486643    7.466842499    2.097208636 XXXX 2      oy7     O  -0.758
O7       8.100212398    1.329524178    2.189946646 XXXX 2      oy8     O  -0.758
O8       8.024542104    0.032639092   -0.171198135 XXXX 2      oy1     O  -0.550
O9       9.092787316    6.475647352    0.214002884 XXXX 2      oy2     O  -0.550
O10      9.144687424    2.347147387   -0.128397506 XXXX 2      oy3     O  -0.550
O11      5.188421876    8.571291044    2.225617303 XXXX 2      oy9     O  -0.683
O12      9.316228161    1.422807677    4.166771704 XXXX 2      oy5     O  -0.683
O13      4.705517987    4.016300843    4.173022179 XXXX 2      oy4     O  -0.683
O14      4.577059619    7.392971704    4.272888891 XXXX 2      oy6     O  -0.683
O15      7.713659429    4.111191394    2.168550176 XXXX 2      oy9     O  -0.683
O16      6.741069529    5.758535089    4.215826847 XXXX 2      oy5     O  -0.683
O17      7.133372098    8.569692863    4.115960000 XXXX 2      oy4     O  -0.683
O18      7.042439948    3.157883456    4.173020528 XXXX 2      oy6     O  -0.683
H1       5.784849095    9.502510418    2.453863486 XXXX 2      hoy     H   0.200
H2       9.837068711    1.525685619    5.086983251 XXXX 2      hok     H   0.200
H3       4.193653179    4.532695251    5.029024387 XXXX 2      hok     H   0.200
H4       4.235737757    7.320165384    5.100366877 XXXX 2      hok     H   0.200
H5       8.249014401    4.874914093    1.797610719 XXXX 2      hoy     H   0.200
H6       7.003340867    5.611037091    5.136029265 XXXX 2      hok     H   0.200
H7       6.855344240    8.606105104    5.150296425 XXXX 2      hok     H   0.200
H8       6.935445979    2.467345917    5.021891655 XXXX 2      hok     H   0.200
Al1     11.246276811    4.401836405    3.352685177 XXXX 3      ay1     Al  1.449
Al2     11.390772059    7.303633477    3.217151390 XXXX 3      ay2     Al  1.449
Al3     13.952013041    8.801274934    3.352689112 XXXX 3      ay1     Al  1.449
Al4     13.806106040    2.848365587    3.281350393 XXXX 3      ay2     Al  1.449
Si1     10.530968064    3.107174125    0.399469296 XXXX 3      sy1     Si  1.100
Si2     10.591022963    5.791435618    0.613470235 XXXX 3      sy2     Si  1.100
Si3     12.987016228    7.501762690    0.542136260 XXXX 3      sy1     Si  1.100
Si4     13.076464571    1.602265940    0.477937407 XXXX 3      sy2     Si  1.100
O1      10.296432619    2.983785187    2.189943822 XXXX 3      oy7     O  -0.758
O2      10.534868330    5.840381317    2.068676206 XXXX 3      oy8     O  -0.758
O3      10.797678017    4.370212200   -0.192604590 XXXX 3      oy1     O  -0.550
O4      11.688138084    1.972073010   -0.142669634 XXXX 3      oy2     O  -0.550
O5      11.605181170    6.875891611   -0.249662975 XXXX 3      oy3     O  -0.550
O6      12.996486643    7.466842499    2.097208636 XXXX 3      oy7     O  -0.758
O7      13.254212398    1.329524178    2.189946646 XXXX 3      oy8     O  -0.758
O8      13.178542104    0.032639092   -0.171198135 XXXX 3      oy1     O  -0.550
O9      14.246787316    6.475647352    0.214002884 XXXX 3      oy2     O  -0.550
O10     14.298687424    2.347147387   -0.128397506 XXXX 3      oy3     O  -0.550
O11     10.342421876    8.571291044    2.225617303 XXXX 3      oy9     O  -0.683
O12     14.470228161    1.422807677    4.166771704 XXXX 3      oy5     O  -0.683
O13      9.859517987    4.016300843    4.173022179 XXXX 3      oy4     O  -0.683
O14      9.731059619    7.392971704    4.272888891 XXXX 3      oy6     O  -0.683
O15     12.867659429    4.111191394    2.168550176 XXXX 3      oy9     O  -0.683
O16     11.895069529    5.758535089    4.215826847 XXXX 3      oy5     O  -0.683
O17     12.287372098    8.569692863    4.115960000 XXXX 3      oy4     O  -0.683
O18     12.196439948    3.157883456    4.173020528 XXXX 3      oy6     O  -0.683
H1      10.938849095    9.502510418    2.453863486 XXXX 3      hoy     H   0.200
H2      14.991068711    1.525685619    5.086983251 XXXX 3      hok     H   0.200
H3       9.347653179    4.532695251    5.029024387 XXXX 3      hok     H   0.200
H4       9.389737757    7.320165384    5.100366877 XXXX 3      hok     H   0.200
H5      13.403014401    4.874914093    1.797610719 XXXX 3      hoy     H   0.200
H6      12.157340867    5.611037091    5.136029265 XXXX 3      hok     H   0.200
H7      12.009344240    8.606105104    5.150296425 XXXX 3      hok     H   0.200
H8      12.089445979    2.467345917    5.021891655 XXXX 3      hok     H   0.200
Al1     16.400276811    4.401836405    3.352685177 XXXX 4      ay1     Al  1.449
Al2     16.544772059    7.303633477    3.217151390 XXXX 4      ay2     Al  1.449
Al3     19.106013041    8.801274934    3.352689112 XXXX 4      ay1     Al  1.449
Al4     18.960106040    2.848365587    3.281350393 XXXX 4      ay2     Al  1.449
Si1     15.684968064    3.107174125    0.399469296 XXXX 4      sy1     Si  1.100
Si2     15.745022963    5.791435618    0.613470235 XXXX 4      sy2     Si  1.100
Si3     18.141016228    7.501762690    0.542136260 XXXX 4      sy1     Si  1.100
Si4     18.230464571    1.602265940    0.477937407 XXXX 4      sy2     Si  1.100
O1      15.450432619    2.983785187    2.189943822 XXXX 4      oy7     O  -0.758
O2      15.688868330    5.840381317    2.068676206 XXXX 4      oy8     O  -0.758
O3      15.951678017    4.370212200   -0.192604590 XXXX 4      oy1     O  -0.550
O4      16.842138084    1.972073010   -0.142669634 XXXX 4      oy2     O  -0.550
O5      16.759181170    6.875891611   -0.249662975 XXXX 4      oy3     O  -0.550
O6      18.150486643    7.466842499    2.097208636 XXXX 4      oy7     O  -0.758
O7      18.408212398    1.329524178    2.189946646 XXXX 4      oy8     O  -0.758
O8      18.332542104    0.032639092   -0.171198135 XXXX 4      oy1     O  -0.550
O9      19.400787316    6.475647352    0.214002884 XXXX 4      oy2     O  -0.550
O10     19.452687424    2.347147387   -0.128397506 XXXX 4      oy3     O  -0.550
O11     15.496421876    8.571291044    2.225617303 XXXX 4      oy9     O  -0.683
O12     19.624228161    1.422807677    4.166771704 XXXX 4      oy5     O  -0.683
O13     15.013517987    4.016300843    4.173022179 XXXX 4      oy4     O  -0.683
O14     14.885059619    7.392971704    4.272888891 XXXX 4      oy6     O  -0.683
O15     18.021659429    4.111191394    2.168550176 XXXX 4      oy9     O  -0.683
O16     17.049069529    5.758535089    4.215826847 XXXX 4      oy5     O  -0.683
O17     17.441372098    8.569692863    4.115960000 XXXX 4      oy4     O  -0.683
O18     17.350439948    3.157883456    4.173020528 XXXX 4      oy6     O  -0.683
H1      16.092849095    9.502510418    2.453863486 XXXX 4      hoy     H   0.200
H2      20.145068711    1.525685619    5.086983251 XXXX 4      hok     H   0.200
H3      14.501653179    4.532695251    5.029024387 XXXX 4      hok     H   0.200
H4      14.543737757    7.320165384    5.100366877 XXXX 4      hok     H   0.200
H5      18.557014401    4.874914093    1.797610719 XXXX 4      hoy     H   0.200
H6      17.311340867    5.611037091    5.136029265 XXXX 4      hok     H   0.200
H7      17.163344240    8.606105104    5.150296425 XXXX 4      hok     H   0.200
H8      17.243445979    2.467345917    5.021891655 XXXX 4      hok     H   0.200
Al1     21.554276811    4.401836405    3.352685177 XXXX 5      ay1     Al  1.449
Al2     21.698772059    7.303633477    3.217151390 XXXX 5      ay2     Al  1.449
Al3     24.260013041    8.801274934    3.352689112 XXXX 5      ay1     Al  1.449
Al4     24.114106040    2.848365587    3.281350393 XXXX 5      ay2     Al  1.449
Si1     20.838968064    3.107174125    0.399469296 XXXX 5      sy1     Si  1.100
Si2     20.899022963    5.791435618    0.613470235 XXXX 5      sy2     Si  1.100
Si3     23.295016228    7.501762690    0.542136260 XXXX 5      sy1     Si  1.100
Si4     23.384464571    1.602265940    0.477937407 XXXX 5      sy2     Si  1.100
O1      20.604432619    2.983785187    2.189943822 XXXX 5      oy7     O  -0.758
O2      20.842868330    5.840381317    2.068676206 XXXX 5      oy8     O  -0.758
O3      21.105678017    4.370212200   -0.192604590 XXXX 5      oy1     O  -0.550
O4      21.996138084    1.972073010   -0.142669634 XXXX 5      oy2     O  -0.550
O5      21.913181170    6.875891611   -0.249662975 XXXX 5      oy3     O  -0.550
O6      23.304486643    7.466842499    2.097208636 XXXX 5      oy7     O  -0.758
O7      23.562212398    1.329524178    2.189946646 XXXX 5      oy8     O  -0.758
O8      23.486542104    0.032639092   -0.171198135 XXXX 5      oy1     O  -0.550
O9      24.554787316    6.475647352    0.214002884 XXXX 5      oy2     O  -0.550
O10     24.606687424    2.347147387   -0.128397506 XXXX 5      oy3     O  -0.550
O11     20.650421876    8.571291044    2.225617303 XXXX 5      oy9     O  -0.683
O13     20.167517987    4.016300843    4.173022179 XXXX 5      oy4     O  -0.683
O14     20.039059619    7.392971704    4.272888891 XXXX 5      oy6     O  -0.683
O15     23.175659429    4.111191394    2.168550176 XXXX 5      oy9     O  -0.683
O16     22.203069529    5.758535089    4.215826847 XXXX 5      oy5     O  -0.683
O17     22.595372098    8.569692863    4.115960000 XXXX 5      oy4     O  -0.683
O18     22.504439948    3.157883456    4.173020528 XXXX 5      oy6     O  -0.683
H1      21.246849095    9.502510418    2.453863486 XXXX 5      hoy     H   0.200
H3      19.655653179    4.532695251    5.029024387 XXXX 5      hok     H   0.200
H4      19.697737757    7.320165384    5.100366877 XXXX 5      hok     H   0.200
H5      23.711014401    4.874914093    1.797610719 XXXX 5      hoy     H   0.200
H6      22.465340867    5.611037091    5.136029265 XXXX 5      hok     H   0.200
H7      22.317344240    8.606105104    5.150296425 XXXX 5      hok     H   0.200
H8      22.397445979    2.467345917    5.021891655 XXXX 5      hok     H   0.200
Al1      0.969490216   13.343781927    3.352685177 XXXX 6      ay1     Al  1.449
Al2      1.113985464   16.245578999    3.217151390 XXXX 6      ay2     Al  1.449
Al3      3.675226446   17.743220456    3.352689112 XXXX 6      ay1     Al  1.449
Al4      3.529319445   11.790311109    3.281350393 XXXX 6      ay2     Al  1.449
Si1      0.254181469   12.049119647    0.399469296 XXXX 6      sy1     Si  1.100
Si2      0.314236368   14.733381140    0.613470235 XXXX 6      sy2     Si  1.100
Si3      2.710229633   16.443708212    0.542136260 XXXX 6      sy1     Si  1.100
Si4      2.799677976   10.544211462    0.477937407 XXXX 6      sy2     Si  1.100
O1       0.019646024   11.925730709    2.189943822 XXXX 6      oy7     O  -0.758
O2       0.258081735   14.782326839    2.068676206 XXXX 6      oy8     O  -0.758
O3       0.520891422   13.312157722   -0.192604590 XXXX 6      oy1     O  -0.550
O4       1.411351489   10.914018532   -0.142669634 XXXX 6      oy2     O  -0.550
O5       1.328394575   15.817837133   -0.249662975 XXXX 6      oy3     O  -0.550
O6       2.719700048   16.408788021    2.097208636 XXXX 6      oy7     O  -0.758
O7       2.977425803   10.271469700    2.189946646 XXXX 6      oy8     O  -0.758
O8       2.901755509    8.974584614   -0.171198135 XXXX 6      oy1     O  -0.550
O9       3.970000721   15.417592874    0.214002884 XXXX 6      oy2     O  -0.550
O10      4.021900829   11.289092909   -0.128397506 XXXX 6      oy3     O  -0.550
O11      0.065635281   17.513236566    2.225617303 XXXX 6      oy9     O  -0.683
O12      4.193441566   10.364753199    4.166771704 XXXX 6      oy5     O  -0.683
O13     -0.417268608   12.958246365    4.173022179 XXXX 6      oy4     O  -0.683
O14     -0.545726976   16.334917226    4.272888891 XXXX 6      oy6     O  -0.683
O15      2.590872834   13.053136916    2.168550176 XXXX 6      oy9     O  -0.683
O16      1.618282934   14.700480611    4.215826847 XXXX 6      oy5     O  -0.683
O17      2.010585503   17.511638385    4.115960000 XXXX 6      oy4     O  -0.683
O18      1.919653353   12.099828978    4.173020528 XXXX 6      oy6     O  -0.683
H1       0.662062500   18.444455940    2.453863486 XXXX 6      hoy     H   0.200
H2       4.714282116   10.467631141    5.086983251 XXXX 6      hok     H   0.200
H3      -0.929133416   13.474640773    5.029024387 XXXX 6      hok     H   0.200
H4      -0.887048838   16.262110906    5.100366877 XXXX 6      hok     H   0.200
H5       3.126227806   13.816859615    1.797610719 XXXX 6      hoy     H   0.200
H6       1.880554272   14.552982613    5.136029265 XXXX 6      hok     H   0.200
H7       1.732557645   17.548050626    5.150296425 XXXX 6      hok     H   0.200
H8       1.812659384   11.409291439    5.021891655 XXXX 6      hok     H   0.200
Al1      6.123490216   13.343781927    3.352685177 XXXX 7      ay1     Al  1.449
Al2      6.267985464   16.245578999    3.217151390 XXXX 7      ay2     Al  1.449
Al3      8.829226446   17.743220456    3.352689112 XXXX 7      ay1     Al  1.449
Al4      8.683319445   11.790311109    3.281350393 XXXX 7      ay2     Al  1.449
Si1      5.408181469   12.049119647    0.399469296 XXXX 7      sy1     Si  1.100
Si2      5.468236368   14.733381140    0.613470235 XXXX 7      sy2     Si  1.100
Si3      7.864229633   16.443708212    0.542136260 XXXX 7      sy1     Si  1.100
Si4      7.953677976   10.544211462    0.477937407 XXXX 7      sy2     Si  1.100
O1       5.173646024   11.925730709    2.189943822 XXXX 7      oy7     O  -0.758
O2       5.412081735   14.782326839    2.068676206 XXXX 7      oy8     O  -0.758
O3       5.674891422   13.312157722   -0.192604590 XXXX 7      oy1     O  -0.550
O4       6.565351489   10.914018532   -0.142669634 XXXX 7      oy2     O  -0.550
O5       6.482394575   15.817837133   -0.249662975 XXXX 7      oy3     O  -0.550
O6       7.873700048   16.408788021    2.097208636 XXXX 7      oy7     O  -0.758
O7       8.131425803   10.271469700    2.189946646 XXXX 7      oy8     O  -0.758
O8       8.055755509    8.974584614   -0.171198135 XXXX 7      oy1     O  -0.550
O9       9.124000721   15.417592874    0.214002884 XXXX 7      oy2     O  -0.550
O10      9.175900829   11.289092909   -0.128397506 XXXX 7      oy3     O  -0.550
O11      5.219635281   17.513236566    2.225617303 XXXX 7      oy9     O  -0.683
O12      9.347441566   10.364753199    4.166771704 XXXX 7      oy5     O  -0.683
O13      4.736731392   12.958246365    4.173022179 XXXX 7      oy4     O  -0.683
O14      4.608273024   16.334917226    4.272888891 XXXX 7      oy6     O  -0.683
O15      7.744872834   13.053136916    2.168550176 XXXX 7      oy9     O  -0.683
O16      6.772282934   14.700480611    4.215826847 XXXX 7      oy5     O  -0.683
O17      7.164585503   17.511638385    4.115960000 XXXX 7      oy4     O  -0.683
O18      7.073653353   12.099828978    4.173020528 XXXX 7      oy6     O  -0.683
H1       5.816062500   18.444455940    2.453863486 XXXX 7      hoy     H   0.200
H2       9.868282116   10.467631141    5.086983251 XXXX 7      hok     H   0.200
H3       4.224866584   13.474640773    5.029024387 XXXX 7      hok     H   0.200
H4       4.266951162   16.262110906    5.100366877 XXXX 7      hok     H   0.200
H5       8.280227806   13.816859615    1.797610719 XXXX 7      hoy     H   0.200
H6       7.034554272   14.552982613    5.136029265 XXXX 7      hok     H   0.200
H7       6.886557645   17.548050626    5.150296425 XXXX 7      hok     H   0.200
H8       6.966659384   11.409291439    5.021891655 XXXX 7      hok     H   0.200
Al1     11.277490216   13.343781927    3.352685177 XXXX 8      ay1     Al  1.449
Al2     11.421985464   16.245578999    3.217151390 XXXX 8      ay2     Al  1.449
Al3     13.983226446   17.743220456    3.352689112 XXXX 8      ay1     Al  1.449
Al4     13.837319445   11.790311109    3.281350393 XXXX 8      ay2     Al  1.449
Si1     10.562181469   12.049119647    0.399469296 XXXX 8      sy1     Si  1.100
Si2     10.622236368   14.733381140    0.613470235 XXXX 8      sy2     Si  1.100
Si3     13.018229633   16.443708212    0.542136260 XXXX 8      sy1     Si  1.100
Si4     13.107677976   10.544211462    0.477937407 XXXX 8      sy2     Si  1.100
O1      10.327646024   11.925730709    2.189943822 XXXX 8      oy7     O  -0.758
O2      10.566081735   14.782326839    2.068676206 XXXX 8      oy8     O  -0.758
O3      10.828891422   13.312157722   -0.192604590 XXXX 8      oy1     O  -0.550
O4      11.719351489   10.914018532   -0.142669634 XXXX 8      oy2     O  -0.550
O5      11.636394575   15.817837133   -0.249662975 XXXX 8      oy3     O  -0.550
O6      13.027700048   16.408788021    2.097208636 XXXX 8      oy7     O  -0.758
O7      13.285425803   10.271469700    2.189946646 XXXX 8      oy8     O  -0.758
O8      13.209755509    8.974584614   -0.171198135 XXXX 8      oy1     O  -0.550
O9      14.278000721   15.417592874    0.214002884 XXXX 8      oy2     O  -0.550
O10     14.329900829   11.289092909   -0.128397506 XXXX 8      oy3     O  -0.550
O11     10.373635281   17.513236566    2.225617303 XXXX 8      oy9     O  -0.683
O12     14.501441566   10.364753199    4.166771704 XXXX 8      oy5     O  -0.683
O13      9.890731392   12.958246365    4.173022179 XXXX 8      oy4     O  -0.683
O14      9.762273024   16.334917226    4.272888891 XXXX 8      oy6     O  -0.683
O15     12.898872834   13.053136916    2.168550176 XXXX 8      oy9     O  -0.683
O16     11.926282934   14.700480611    4.215826847 XXXX 8      oy5     O  -0.683
O17     12.318585503   17.511638385    4.115960000 XXXX 8      oy4     O  -0.683
O18     12.227653353   12.099828978    4.173020528 XXXX 8      oy6     O  -0.683
H1      10.970062500   18.444455940    2.453863486 XXXX 8      hoy     H   0.200
H2      15.022282116   10.467631141    5.086983251 XXXX 8      hok     H   0.200
H3       9.378866584   13.474640773    5.029024387 XXXX 8      hok     H   0.200
H4       9.420951162   16.262110906    5.100366877 XXXX 8      hok     H   0.200
H5      13.434227806   13.816859615    1.797610719 XXXX 8      hoy     H   0.200
H6      12.188554272   14.552982613    5.136029265 XXXX 8      hok     H   0.200
H7      12.040557645   17.548050626    5.150296425 XXXX 8      hok     H   0.200
H8      12.120659384   11.409291439    5.021891655 XXXX 8      hok     H   0.200
Al1     16.431490216   13.343781927    3.352685177 XXXX 9      ay1     Al  1.449
Al2     16.575985464   16.245578999    3.217151390 XXXX 9      ay2     Al  1.449
Al3     19.137226446   17.743220456    3.352689112 XXXX 9      ay1     Al  1.449
Al4     18.991319445   11.790311109    3.281350393 XXXX 9      ay2     Al  1.449
Si1     15.716181469   12.049119647    0.399469296 XXXX 9      sy1     Si  1.100
Si2     15.776236368   14.733381140    0.613470235 XXXX 9      sy2     Si  1.100
Si3     18.172229633   16.443708212    0.542136260 XXXX 9      sy1     Si  1.100
Si4     18.261677976   10.544211462    0.477937407 XXXX 9      sy2     Si  1.100
O1      15.481646024   11.925730709    2.189943822 XXXX 9      oy7     O  -0.758
O2      15.720081735   14.782326839    2.068676206 XXXX 9      oy8     O  -0.758
O3      15.982891422   13.312157722   -0.192604590 XXXX 9      oy1     O  -0.550
O4      16.873351489   10.914018532   -0.142669634 XXXX 9      oy2     O  -0.550
O5      16.790394575   15.817837133   -0.249662975 XXXX 9      oy3     O  -0.550
O6      18.181700048   16.408788021    2.097208636 XXXX 9      oy7     O  -0.758
O7      18.439425803   10.271469700    2.189946646 XXXX 9      oy8     O  -0.758
O8      18.363755509    8.974584614   -0.171198135 XXXX 9      oy1     O  -0.550
O9      19.432000721   15.417592874    0.214002884 XXXX 9      oy2     O  -0.550
O10     19.483900829   11.289092909   -0.128397506 XXXX 9      oy3     O  -0.550
O11     15.527635281   17.513236566    2.225617303 XXXX 9      oy9     O  -0.683
O12     19.655441566   10.364753199    4.166771704 XXXX 9      oy5     O  -0.683
O13     15.044731392   12.958246365    4.173022179 XXXX 9      oy4     O  -0.683
O14     14.916273024   16.334917226    4.272888891 XXXX 9      oy6     O  -0.683
O15     18.052872834   13.053136916    2.168550176 XXXX 9      oy9     O  -0.683
O16     17.080282934   14.700480611    4.215826847 XXXX 9      oy5     O  -0.683
O17     17.472585503   17.511638385    4.115960000 XXXX 9      oy4     O  -0.683
O18     17.381653353   12.099828978    4.173020528 XXXX 9      oy6     O  -0.683
H1      16.124062500   18.444455940    2.453863486 XXXX 9      hoy     H   0.200
H2      20.176282116   10.467631141    5.086983251 XXXX 9      hok     H   0.200
H3      14.532866584   13.474640773    5.029024387 XXXX 9      hok     H   0.200
H4      14.574951162   16.262110906    5.100366877 XXXX 9      hok     H   0.200
H5      18.588227806   13.816859615    1.797610719 XXXX 9      hoy     H   0.200
H6      17.342554272   14.552982613    5.136029265 XXXX 9      hok     H   0.200
H7      17.194557645   17.548050626    5.150296425 XXXX 9      hok     H   0.200
H8      17.274659384   11.409291439    5.021891655 XXXX 9      hok     H   0.200
Al1     21.585490216   13.343781927    3.352685177 XXXX 10     ay1     Al  1.449
Al2     21.729985464   16.245578999    3.217151390 XXXX 10     ay2     Al  1.449
Al3     24.291226446   17.743220456    3.352689112 XXXX 10     ay1     Al  1.449
Al4     24.145319445   11.790311109    3.281350393 XXXX 10     ay2     Al  1.449
Si1     20.870181469   12.049119647    0.399469296 XXXX 10     sy1     Si  1.100
Si2     20.930236368   14.733381140    0.613470235 XXXX 10     sy2     Si  1.100
Si3     23.326229633   16.443708212    0.542136260 XXXX 10     sy1     Si  1.100
Si4     23.415677976   10.544211462    0.477937407 XXXX 10     sy2     Si  1.100
O1      20.635646024   11.925730709    2.189943822 XXXX 10     oy7     O  -0.758
O2      20.874081735   14.782326839    2.068676206 XXXX 10     oy8     O  -0.758
O3      21.136891422   13.312157722   -0.192604590 XXXX 10     oy1     O  -0.550
O4      22.027351489   10.914018532   -0.142669634 XXXX 10     oy2     O  -0.550
O5      21.944394575   15.817837133   -0.249662975 XXXX 10     oy3     O  -0.550
O6      23.335700048   16.408788021    2.097208636 XXXX 10     oy7     O  -0.758
O7      23.593425803   10.271469700    2.189946646 XXXX 10     oy8     O  -0.758
O8      23.517755509    8.974584614   -0.171198135 XXXX 10     oy1     O  -0.550
O9      24.586000721   15.417592874    0.214002884 XXXX 10     oy2     O  -0.550
O10     24.637900829   11.289092909   -0.128397506 XXXX 10     oy3     O  -0.550
O11     20.681635281   17.513236566    2.225617303 XXXX 10     oy9     O  -0.683
O13     20.198731392   12.958246365    4.173022179 XXXX 10     oy4     O  -0.683
O14     20.070273024   16.334917226    4.272888891 XXXX 10     oy6     O  -0.683
O15     23.206872834   13.053136916    2.168550176 XXXX 10     oy9     O  -0.683
O16     22.234282934   14.700480611    4.215826847 XXXX 10     oy5     O  -0.683
O17     22.626585503   17.511638385    4.115960000 XXXX 10     oy4     O  -0.683
O18     22.535653353   12.099828978    4.173020528 XXXX 10     oy6     O  -0.683
H1      21.278062500   18.444455940    2.453863486 XXXX 10     hoy     H   0.200
H3      19.686866584   13.474640773    5.029024387 XXXX 10     hok     H   0.200
H4      19.728951162   16.262110906    5.100366877 XXXX 10     hok     H   0.200
H5      23.742227806   13.816859615    1.797610719 XXXX 10     hoy     H   0.200
H6      22.496554272   14.552982613    5.136029265 XXXX 10     hok     H   0.200
H7      22.348557645   17.548050626    5.150296425 XXXX 10     hok     H   0.200
H8      22.428659384   11.409291439    5.021891655 XXXX 10     hok     H   0.200
Al1      1.000703621   22.285727450    3.352685177 XXXX 11     ay1     Al  1.449
Al2      1.145198869   25.187524522    3.217151390 XXXX 11     ay2     Al  1.449
Al3      3.706439851   26.685165979    3.352689112 XXXX 11     ay1     Al  1.449
Al4      3.560532850   20.732256632    3.281350393 XXXX 11     ay2     Al  1.449
Si1      0.285394874   20.991065170    0.399469296 XXXX 11     sy1     Si  1.100
Si2      0.345449773   23.675326663    0.613470235 XXXX 11     sy2     Si  1.100
Si3      2.741443038   25.385653735    0.542136260 XXXX 11     sy1     Si  1.100
Si4      2.830891381   19.486156985    0.477937407 XXXX 11     sy2     Si  1.100
O1       0.050859429   20.867676232    2.189943822 XXXX 11     oy7     O  -0.758
O2       0.289295140   23.724272362    2.068676206 XXXX 11     oy8     O  -0.758
O3       0.552104827   22.254103245   -0.192604590 XXXX 11     oy1     O  -0.550
O4       1.442564894   19.855964055   -0.142669634 XXXX 11     oy2     O  -0.550
O5       1.359607980   24.759782656   -0.249662975 XXXX 11     oy3     O  -0.550
O6       2.750913453   25.350733544    2.097208636 XXXX 11     oy7     O  -0.758
O7       3.008639208   19.213415223    2.189946646 XXXX 11     oy8     O  -0.758
O8       2.932968914   17.916530137   -0.171198135 XXXX 11     oy1     O  -0.550
O9       4.001214126   24.359538397    0.214002884 XXXX 11     oy2     O  -0.550
O10      4.053114234   20.231038432   -0.128397506 XXXX 11     oy3     O  -0.550
O11      0.096848686   26.455182089    2.225617303 XXXX 11     oy9     O  -0.683
O12      4.224654971   19.306698722    4.166771704 XXXX 11     oy5     O  -0.683
O13     -0.386055203   21.900191888    4.173022179 XXXX 11     oy4     O  -0.683
O14     -0.514513571   25.276862749    4.272888891 XXXX 11     oy6     O  -0.683
O15      2.622086239   21.995082439    2.168550176 XXXX 11     oy9     O  -0.683
O16      1.649496339   23.642426134    4.215826847 XXXX 11     oy5     O  -0.683
O17      2.041798908   26.453583908    4.115960000 XXXX 11     oy4     O  -0.683
O18      1.950866758   21.041774501    4.173020528 XXXX 11     oy6     O  -0.683
H2       4.745495521   19.409576664    5.086983251 XXXX 11     hok     H   0.200
H3      -0.897920011   22.416586296    5.029024387 XXXX 11     hok     H   0.200
H4      -0.855835433   25.204056429    5.100366877 XXXX 11     hok     H   0.200
H5       3.157441211   22.758805138    1.797610719 XXXX 11     hoy     H   0.200
H6       1.911767677   23.494928136    5.136029265 XXXX 11     hok     H   0.200
H7       1.763771050   26.489996149    5.150296425 XXXX 11     hok     H   0.200
H8       1.843872789   20.351236962    5.021891655 XXXX 11     hok     H   0.200
Al1      6.154703621   22.285727450    3.352685177 XXXX 12     ay1     Al  1.449
Al2      6.299198869   25.187524522    3.217151390 XXXX 12     ay2     Al  1.449
Al3      8.860439851   26.685165979    3.352689112 XXXX 12     ay1     Al  1.449
Al4      8.714532850   20.732256632    3.281350393 XXXX 12     ay2     Al  1.449
Si1      5.439394874   20.991065170    0.399469296 XXXX 12     sy1     Si  1.100
Si2      5.499449773   23.675326663    0.613470235 XXXX 12     sy2     Si  1.100
Si3      7.895443038   25.385653735    0.542136260 XXXX 12     sy1     Si  1.100
Si4      7.984891381   19.486156985    0.477937407 XXXX 12     sy2     Si  1.100
O1       5.204859429   20.867676232    2.189943822 XXXX 12     oy7     O  -0.758
O2       5.443295140   23.724272362    2.068676206 XXXX 12     oy8     O  -0.758
O3       5.706104827   22.254103245   -0.192604590 XXXX 12     oy1     O  -0.550
O4       6.596564894   19.855964055   -0.142669634 XXXX 12     oy2     O  -0.550
O5       6.513607980   24.759782656   -0.249662975 XXXX 12     oy3     O  -0.550
O6       7.904913453   25.350733544    2.097208636 XXXX 12     oy7     O  -0.758
O7       8.162639208   19.213415223    2.189946646 XXXX 12     oy8     O  -0.758
O8       8.086968914   17.916530137   -0.171198135 XXXX 12     oy1     O  -0.550
O9       9.155214126   24.359538397    0.214002884 XXXX 12     oy2     O  -0.550
O10      9.207114234   20.231038432   -0.128397506 XXXX 12     oy3     O  -0.550
O11      5.250848686   26.455182089    2.225617303 XXXX 12     oy9     O  -0.683
O12      9.378654971   19.306698722    4.166771704 XXXX 12     oy5     O  -0.683
O13      4.767944797   21.900191888    4.173022179 XXXX 12     oy4     O  -0.683
O14      4.639486429   25.276862749    4.272888891 XXXX 12     oy6     O  -0.683
O15      7.776086239   21.995082439    2.168550176 XXXX 12     oy9     O  -0.683
O16      6.803496339   23.642426134    4.215826847 XXXX 12     oy5     O  -0.683
O17      7.195798908   26.453583908    4.115960000 XXXX 12     oy4     O  -0.683
O18      7.104866758   21.041774501    4.173020528 XXXX 12     oy6     O  -0.683
H2       9.899495521   19.409576664    5.086983251 XXXX 12     hok     H   0.200
H3       4.256079989   22.416586296    5.029024387 XXXX 12     hok     H   0.200
H4       4.298164567   25.204056429    5.100366877 XXXX 12     hok     H   0.200
H5       8.311441211   22.758805138    1.797610719 XXXX 12     hoy     H   0.200
H6       7.065767677   23.494928136    5.136029265 XXXX 12     hok     H   0.200
H7       6.917771050   26.489996149    5.150296425 XXXX 12     hok     H   0.200
H8       6.997872789   20.351236962    5.021891655 XXXX 12     hok     H   0.200
Al1     11.308703621   22.285727450    3.352685177 XXXX 13     ay1     Al  1.449
Al2     11.453198869   25.187524522    3.217151390 XXXX 13     ay2     Al  1.449
Al3     14.014439851   26.685165979    3.352689112 XXXX 13     ay1     Al  1.449
Al4     13.868532850   20.732256632    3.281350393 XXXX 13     ay2     Al  1.449
Si1     10.593394874   20.991065170    0.399469296 XXXX 13     sy1     Si  1.100
Si2     10.653449773   23.675326663    0.613470235 XXXX 13     sy2     Si  1.100
Si3     13.049443038   25.385653735    0.542136260 XXXX 13     sy1     Si  1.100
Si4     13.138891381   19.486156985    0.477937407 XXXX 13     sy2     Si  1.100
O1      10.358859429   20.867676232    2.189943822 XXXX 13     oy7     O  -0.758
O2      10.597295140   23.724272362    2.068676206 XXXX 13     oy8     O  -0.758
O3      10.860104827   22.254103245   -0.192604590 XXXX 13     oy1     O  -0.550
O4      11.750564894   19.855964055   -0.142669634 XXXX 13     oy2     O  -0.550
O5      11.667607980   24.759782656   -0.249662975 XXXX 13     oy3     O  -0.550
O6      13.058913453   25.350733544    2.097208636 XXXX 13     oy7     O  -0.758
O7      13.316639208   19.213415223    2.189946646 XXXX 13     oy8     O  -0.758
O8      13.240968914   17.916530137   -0.171198135 XXXX 13     oy1     O  -0.550
O9      14.309214126   24.359538397    0.214002884 XXXX 13     oy2     O  -0.550
O10     14.361114234   20.231038432   -0.128397506 XXXX 13     oy3     O  -0.550
O11     10.404848686   26.455182089    2.225617303 XXXX 13     oy9     O  -0.683
O12     14.532654971   19.306698722    4.166771704 XXXX 13     oy5     O  -0.683
O13      9.921944797   21.900191888    4.173022179 XXXX 13     oy4     O  -0.683
O14      9.793486429   25.276862749    4.272888891 XXXX 13     oy6     O  -0.683
O15     12.930086239   21.995082439    2.168550176 XXXX 13     oy9     O  -0.683
O16     11.957496339   23.642426134    4.215826847 XXXX 13     oy5     O  -0.683
O17     12.349798908   26.453583908    4.115960000 XXXX 13     oy4     O  -0.683
O18     12.258866758   21.041774501    4.173020528 XXXX 13     oy6     O  -0.683
H2      15.053495521   19.409576664    5.086983251 XXXX 13     hok     H   0.200
H3       9.410079989   22.416586296    5.029024387 XXXX 13     hok     H   0.200
H4       9.452164567   25.204056429    5.100366877 XXXX 13     hok     H   0.200
H5      13.465441211   22.758805138    1.797610719 XXXX 13     hoy     H   0.200
H6      12.219767677   23.494928136    5.136029265 XXXX 13     hok     H   0.200
H7      12.071771050   26.489996149    5.150296425 XXXX 13     hok     H   0.200
H8      12.151872789   20.351236962    5.021891655 XXXX 13     hok     H   0.200
Al1     16.462703621   22.285727450    3.352685177 XXXX 14     ay1     Al  1.449
Al2     16.607198869   25.187524522    3.217151390 XXXX 14     ay2     Al  1.449
Al3     19.168439851   26.685165979    3.352689112 XXXX 14     ay1     Al  1.449
Al4     19.022532850   20.732256632    3.281350393 XXXX 14     ay2     Al  1.449
Si1     15.747394874   20.991065170    0.399469296 XXXX 14     sy1     Si  1.100
Si2     15.807449773   23.675326663    0.613470235 XXXX 14     sy2     Si  1.100
Si3     18.203443038   25.385653735    0.542136260 XXXX 14     sy1     Si  1.100
Si4     18.292891381   19.486156985    0.477937407 XXXX 14     sy2     Si  1.100
O1      15.512859429   20.867676232    2.189943822 XXXX 14     oy7     O  -0.758
O2      15.751295140   23.724272362    2.068676206 XXXX 14     oy8     O  -0.758
O3      16.014104827   22.254103245   -0.192604590 XXXX 14     oy1     O  -0.550
O4      16.904564894   19.855964055   -0.142669634 XXXX 14     oy2     O  -0.550
O5      16.821607980   24.759782656   -0.249662975 XXXX 14     oy3     O  -0.550
O6      18.212913453   25.350733544    2.097208636 XXXX 14     oy7     O  -0.758
O7      18.470639208   19.213415223    2.189946646 XXXX 14     oy8     O  -0.758
O8      18.394968914   17.916530137   -0.171198135 XXXX 14     oy1     O  -0.550
O9      19.463214126   24.359538397    0.214002884 XXXX 14     oy2     O  -0.550
O10     19.515114234   20.231038432   -0.128397506 XXXX 14     oy3     O  -0.550
O11     15.558848686   26.455182089    2.225617303 XXXX 14     oy9     O  -0.683
O12     19.686654971   19.306698722    4.166771704 XXXX 14     oy5     O  -0.683
O13     15.075944797   21.900191888    4.173022179 XXXX 14     oy4     O  -0.683
O14     14.947486429   25.276862749    4.272888891 XXXX 14     oy6     O  -0.683
O15     18.084086239   21.995082439    2.168550176 XXXX 14     oy9     O  -0.683
O16     17.111496339   23.642426134    4.215826847 XXXX 14     oy5     O  -0.683
O17     17.503798908   26.453583908    4.115960000 XXXX 14     oy4     O  -0.683
O18     17.412866758   21.041774501    4.173020528 XXXX 14     oy6     O  -0.683
H2      20.207495521   19.409576664    5.086983251 XXXX 14     hok     H   0.200
H3      14.564079989   22.416586296    5.029024387 XXXX 14     hok     H   0.200
H4      14.606164567   25.204056429    5.100366877 XXXX 14     hok     H   0.200
H5      18.619441211   22.758805138    1.797610719 XXXX 14     hoy     H   0.200
H6      17.373767677   23.494928136    5.136029265 XXXX 14     hok     H   0.200
H7      17.225771050   26.489996149    5.150296425 XXXX 14     hok     H   0.200
H8      17.305872789   20.351236962    5.021891655 XXXX 14     hok     H   0.200
Al1     21.616703621   22.285727450    3.352685177 XXXX 15     ay1     Al  1.449
Al2     21.761198869   25.187524522    3.217151390 XXXX 15     ay2     Al  1.449
Al3     24.322439851   26.685165979    3.352689112 XXXX 15     ay1     Al  1.449
Al4     24.176532850   20.732256632    3.281350393 XXXX 15     ay2     Al  1.449
Si1     20.901394874   20.991065170    0.399469296 XXXX 15     sy1     Si  1.100
Si2     20.961449773   23.675326663    0.613470235 XXXX 15     sy2     Si  1.100
Si3     23.357443038   25.385653735    0.542136260 XXXX 15     sy1     Si  1.100
Si4     23.446891381   19.486156985    0.477937407 XXXX 15     sy2     Si  1.100
O1      20.666859429   20.867676232    2.189943822 XXXX 15     oy7     O  -0.758
O2      20.905295140   23.724272362    2.068676206 XXXX 15     oy8     O  -0.758
O3      21.168104827   22.254103245   -0.192604590 XXXX 15     oy1     O  -0.550
O4      22.058564894   19.855964055   -0.142669634 XXXX 15     oy2     O  -0.550
O5      21.975607980   24.759782656   -0.249662975 XXXX 15     oy3     O  -0.550
O6      23.366913453   25.350733544    2.097208636 XXXX 15     oy7     O  -0.758
O7      23.624639208   19.213415223    2.189946646 XXXX 15     oy8     O  -0.758
O8      23.548968914   17.916530137   -0.171198135 XXXX 15     oy1     O  -0.550
O9      24.617214126   24.359538397    0.214002884 XXXX 15     oy2     O  -0.550
O10     24.669114234   20.231038432   -0.128397506 XXXX 15     oy3     O  -0.550
O11     20.712848686   26.455182089    2.225617303 XXXX 15     oy9     O  -0.683
O13     20.229944797   21.900191888    4.173022179 XXXX 15     oy4     O  -0.683
O14     20.101486429   25.276862749    4.272888891 XXXX 15     oy6     O  -0.683
O15     23.238086239   21.995082439    2.168550176 XXXX 15     oy9     O  -0.683
O16     22.265496339   23.642426134    4.215826847 XXXX 15     oy5     O  -0.683
O17     22.657798908   26.453583908    4.115960000 XXXX 15     oy4     O  -0.683
O18     22.566866758   21.041774501    4.173020528 XXXX 15     oy6     O  -0.683
H3      19.718079989   22.416586296    5.029024387 XXXX 15     hok     H   0.200
H4      19.760164567   25.204056429    5.100366877 XXXX 15     hok     H   0.200
H5      23.773441211   22.758805138    1.797610719 XXXX 15     hoy     H   0.200
H6      22.527767677   23.494928136    5.136029265 XXXX 15     hok     H   0.200
H7      22.379771050   26.489996149    5.150296425 XXXX 15     hok     H   0.200
H8      22.459872789   20.351236962    5.021891655 XXXX 15     hok     H   0.200
Al1     -0.980884113    4.159616370   10.486059680 XXXX 16     ay1     Al  1.449
Al2     -0.836388865    7.061413442   10.350525893 XXXX 16     ay2     Al  1.449
Al3      1.724852117    8.559054899   10.486063615 XXXX 16     ay1     Al  1.449
Al4      1.578945116    2.606145552   10.414724896 XXXX 16     ay2     Al  1.449
Si1     -1.696192860    2.864954090    7.532843799 XXXX 16     sy1     Si  1.100
Si2     -1.636137961    5.549215583    7.746844738 XXXX 16     sy2     Si  1.100
Si3      0.759855304    7.259542655    7.675510763 XXXX 16     sy1     Si  1.100
Si4      0.849303647    1.360045905    7.611311910 XXXX 16     sy2     Si  1.100
O1      -1.930728305    2.741565152    9.323318325 XXXX 16     oy7     O  -0.758
O2      -1.692292594    5.598161282    9.202050709 XXXX 16     oy8     O  -0.758
O3      -1.429482907    4.127992165    6.940769913 XXXX 16     oy1     O  -0.550
O4      -0.539022840    1.729852975    6.990704869 XXXX 16     oy2     O  -0.550
O5      -0.621979754    6.633671576    6.883711528 XXXX 16     oy3     O  -0.550
O6       0.769325719    7.224622464    9.230583139 XXXX 16     oy7     O  -0.758
O7       1.027051474    1.087304143    9.323321149 XXXX 16     oy8     O  -0.758
O8       0.951381180   -0.209580943    6.962176368 XXXX 16     oy1     O  -0.550
O9       2.019626392    6.233427317    7.347377387 XXXX 16     oy2     O  -0.550
O10      2.071526500    2.104927352    7.004976997 XXXX 16     oy3     O  -0.550
O11     -1.884739048    8.329071009    9.358991806 XXXX 16     oy9     O  -0.683
O12      2.243067237    1.180587642   11.300146207 XXXX 16     oy5     O  -0.683
O13     -2.367642937    3.774080808   11.306396682 XXXX 16     oy4     O  -0.683
O14     -2.496101305    7.150751669   11.406263394 XXXX 16     oy6     O  -0.683
O15      0.640498505    3.868971359    9.301924679 XXXX 16     oy9     O  -0.683
O16     -0.332091395    5.516315054   11.349201350 XXXX 16     oy5     O  -0.683
O17      0.060211174    8.327472828   11.249334503 XXXX 16     oy4     O  -0.683
O18     -0.030720976    2.915663421   11.306395031 XXXX 16     oy6     O  -0.683
H1      -1.288311829    9.260290383    9.587237989 XXXX 16     hoy     H   0.200
H2       2.763907787    1.283465584   12.220357754 XXXX 16     hok     H   0.200
H3      -2.879507745    4.290475216   12.162398890 XXXX 16     hok     H   0.200
H4      -2.837423167    7.077945349   12.233741380 XXXX 16     hok     H   0.200
H5       1.175853477    4.632694058    8.930985222 XXXX 16     hoy     H   0.200
H6      -0.069820057    5.368817056   12.269403768 XXXX 16     hok     H   0.200
H7      -0.217816684    8.363885069   12.283670928 XXXX 16     hok     H   0.200
H8      -0.137714945    2.225125882   12.155266158 XXXX 16     hok     H   0.200
Al1      4.173115887    4.159616370   10.486059680 XXXX 17     ay1     Al  1.449
Al2      4.317611135    7.061413442   10.350525893 XXXX 17     ay2     Al  1.449
Al3      6.878852117    8.559054899   10.486063615 XXXX 17     ay1     Al  1.449
Al4      6.732945116    2.606145552   10.414724896 XXXX 17     ay2     Al  1.449
Si1      3.457807140    2.864954090    7.532843799 XXXX 17     sy1     Si  1.100
Si2      3.517862039    5.549215583    7.746844738 XXXX 17     sy2     Si  1.100
Si3      5.913855304    7.259542655    7.675510763 XXXX 17     sy1     Si  1.100
Si4      6.003303647    1.360045905    7.611311910 XXXX 17     sy2     Si  1.100
O1       3.223271695    2.741565152    9.323318325 XXXX 17     oy7     O  -0.758
O2       3.461707406    5.598161282    9.202050709 XXXX 17     oy8     O  -0.758
O3       3.724517093    4.127992165    6.940769913 XXXX 17     oy1     O  -0.550
O4       4.614977160    1.729852975    6.990704869 XXXX 17     oy2     O  -0.550
O5       4.532020246    6.633671576    6.883711528 XXXX 17     oy3     O  -0.550
O6       5.923325719    7.224622464    9.230583139 XXXX 17     oy7     O  -0.758
O7       6.181051474    1.087304143    9.323321149 XXXX 17     oy8     O  -0.758
O8       6.105381180   -0.209580943    6.962176368 XXXX 17     oy1     O  -0.550
O9       7.173626392    6.233427317    7.347377387 XXXX 17     oy2     O  -0.550
O10      7.225526500    2.104927352    7.004976997 XXXX 17     oy3     O  -0.550
O11      3.269260952    8.329071009    9.358991806 XXXX 17     oy9     O  -0.683
O12      7.397067237    1.180587642   11.300146207 XXXX 17     oy5     O  -0.683
O13      2.786357063    3.774080808   11.306396682 XXXX 17     oy4     O  -0.683
O14      2.657898695    7.150751669   11.406263394 XXXX 17     oy6     O  -0.683
O15      5.794498505    3.868971359    9.301924679 XXXX 17     oy9     O  -0.683
O16      4.821908605    5.516315054   11.349201350 XXXX 17     oy5     O  -0.683
O17      5.214211174    8.327472828   11.249334503 XXXX 17     oy4     O  -0.683
O18      5.123279024    2.915663421   11.306395031 XXXX 17     oy6     O  -0.683
H1       3.865688171    9.260290383    9.587237989 XXXX 17     hoy     H   0.200
H2       7.917907787    1.283465584   12.220357754 XXXX 17     hok     H   0.200
H3       2.274492255    4.290475216   12.162398890 XXXX 17     hok     H   0.200
H4       2.316576833    7.077945349   12.233741380 XXXX 17     hok     H   0.200
H5       6.329853477    4.632694058    8.930985222 XXXX 17     hoy     H   0.200
H6       5.084179943    5.368817056   12.269403768 XXXX 17     hok     H   0.200
H7       4.936183316    8.363885069   12.283670928 XXXX 17     hok     H   0.200
H8       5.016285055    2.225125882   12.155266158 XXXX 17     hok     H   0.200
Al1      9.327115887    4.159616370   10.486059680 XXXX 18     ay1     Al  1.449
Al2      9.471611135    7.061413442   10.350525893 XXXX 18     ay2     Al  1.449
Al3     12.032852117    8.559054899   10.486063615 XXXX 18     ay1     Al  1.449
Al4     11.886945116    2.606145552   10.414724896 XXXX 18     ay2     Al  1.449
Si1      8.611807140    2.864954090    7.532843799 XXXX 18     sy1     Si  1.100
Si2      8.671862039    5.549215583    7.746844738 XXXX 18     sy2     Si  1.100
Si3     11.067855304    7.259542655    7.675510763 XXXX 18     sy1     Si  1.100
Si4     11.157303647    1.360045905    7.611311910 XXXX 18     sy2     Si  1.100
O1       8.377271695    2.741565152    9.323318325 XXXX 18     oy7     O  -0.758
O2       8.615707406    5.598161282    9.202050709 XXXX 18     oy8     O  -0.758
O3       8.878517093    4.127992165    6.940769913 XXXX 18     oy1     O  -0.550
O4       9.768977160    1.729852975    6.990704869 XXXX 18     oy2     O  -0.550
O5       9.686020246    6.633671576    6.883711528 XXXX 18     oy3     O  -0.550
O6      11.077325719    7.224622464    9.230583139 XXXX 18     oy7     O  -0.758
O7      11.335051474    1.087304143    9.323321149 XXXX 18     oy8     O  -0.758
O8      11.259381180   -0.209580943    6.962176368 XXXX 18     oy1     O  -0.550
O9      12.327626392    6.233427317    7.347377387 XXXX 18     oy2     O  -0.550
O10     12.379526500    2.104927352    7.004976997 XXXX 18     oy3     O  -0.550
O11      8.423260952    8.329071009    9.358991806 XXXX 18     oy9     O  -0.683
O12     12.551067237    1.180587642   11.300146207 XXXX 18     oy5     O  -0.683
O13      7.940357063    3.774080808   11.306396682 XXXX 18     oy4     O  -0.683
O14      7.811898695    7.150751669   11.406263394 XXXX 18     oy6     O  -0.683
O15     10.948498505    3.868971359    9.301924679 XXXX 18     oy9     O  -0.683
O16      9.975908605    5.516315054   11.349201350 XXXX 18     oy5     O  -0.683
O17     10.368211174    8.327472828   11.249334503 XXXX 18     oy4     O  -0.683
O18     10.277279024    2.915663421   11.306395031 XXXX 18     oy6     O  -0.683
H1       9.019688171    9.260290383    9.587237989 XXXX 18     hoy     H   0.200
H2      13.071907787    1.283465584   12.220357754 XXXX 18     hok     H   0.200
H3       7.428492255    4.290475216   12.162398890 XXXX 18     hok     H   0.200
H4       7.470576833    7.077945349   12.233741380 XXXX 18     hok     H   0.200
H5      11.483853477    4.632694058    8.930985222 XXXX 18     hoy     H   0.200
H6      10.238179943    5.368817056   12.269403768 XXXX 18     hok     H   0.200
H7      10.090183316    8.363885069   12.283670928 XXXX 18     hok     H   0.200
H8      10.170285055    2.225125882   12.155266158 XXXX 18     hok     H   0.200
Al1     14.481115887    4.159616370   10.486059680 XXXX 19     ay1     Al  1.449
Al2     14.625611135    7.061413442   10.350525893 XXXX 19     ay2     Al  1.449
Al3     17.186852117    8.559054899   10.486063615 XXXX 19     ay1     Al  1.449
Al4     17.040945116    2.606145552   10.414724896 XXXX 19     ay2     Al  1.449
Si1     13.765807140    2.864954090    7.532843799 XXXX 19     sy1     Si  1.100
Si2     13.825862039    5.549215583    7.746844738 XXXX 19     sy2     Si  1.100
Si3     16.221855304    7.259542655    7.675510763 XXXX 19     sy1     Si  1.100
Si4     16.311303647    1.360045905    7.611311910 XXXX 19     sy2     Si  1.100
O1      13.531271695    2.741565152    9.323318325 XXXX 19     oy7     O  -0.758
O2      13.769707406    5.598161282    9.202050709 XXXX 19     oy8     O  -0.758
O3      14.032517093    4.127992165    6.940769913 XXXX 19     oy1     O  -0.550
O4      14.922977160    1.729852975    6.990704869 XXXX 19     oy2     O  -0.550
O5      14.840020246    6.633671576    6.883711528 XXXX 19     oy3     O  -0.550
O6      16.231325719    7.224622464    9.230583139 XXXX 19     oy7     O  -0.758
O7      16.489051474    1.087304143    9.323321149 XXXX 19     oy8     O  -0.758
O8      16.413381180   -0.209580943    6.962176368 XXXX 19     oy1     O  -0.550
O9      17.481626392    6.233427317    7.347377387 XXXX 19     oy2     O  -0.550
O10     17.533526500    2.104927352    7.004976997 XXXX 19     oy3     O  -0.550
O11     13.577260952    8.329071009    9.358991806 XXXX 19     oy9     O  -0.683
O12     17.705067237    1.180587642   11.300146207 XXXX 19     oy5     O  -0.683
O13     13.094357063    3.774080808   11.306396682 XXXX 19     oy4     O  -0.683
O14     12.965898695    7.150751669   11.406263394 XXXX 19     oy6     O  -0.683
O15     16.102498505    3.868971359    9.301924679 XXXX 19     oy9     O  -0.683
O16     15.129908605    5.516315054   11.349201350 XXXX 19     oy5     O  -0.683
O17     15.522211174    8.327472828   11.249334503 XXXX 19     oy4     O  -0.683
O18     15.431279024    2.915663421   11.306395031 XXXX 19     oy6     O  -0.683
H1      14.173688171    9.260290383    9.587237989 XXXX 19     hoy     H   0.200
H2      18.225907787    1.283465584   12.220357754 XXXX 19     hok     H   0.200
H3      12.582492255    4.290475216   12.162398890 XXXX 19     hok     H   0.200
H4      12.624576833    7.077945349   12.233741380 XXXX 19     hok     H   0.200
H5      16.637853477    4.632694058    8.930985222 XXXX 19     hoy     H   0.200
H6      15.392179943    5.368817056   12.269403768 XXXX 19     hok     H   0.200
H7      15.244183316    8.363885069   12.283670928 XXXX 19     hok     H   0.200
H8      15.324285055    2.225125882   12.155266158 XXXX 19     hok     H   0.200
Al1     19.635115887    4.159616370   10.486059680 XXXX 20     ay1     Al  1.449
Al2     19.779611135    7.061413442   10.350525893 XXXX 20     ay2     Al  1.449
Al3     22.340852117    8.559054899   10.486063615 XXXX 20     ay1     Al  1.449
Al4     22.194945116    2.606145552   10.414724896 XXXX 20     ay2     Al  1.449
Si1     18.919807140    2.864954090    7.532843799 XXXX 20     sy1     Si  1.100
Si2     18.979862039    5.549215583    7.746844738 XXXX 20     sy2     Si  1.100
Si3     21.375855304    7.259542655    7.675510763 XXXX 20     sy1     Si  1.100
Si4     21.465303647    1.360045905    7.611311910 XXXX 20     sy2     Si  1.100
O1      18.685271695    2.741565152    9.323318325 XXXX 20     oy7     O  -0.758
O2      18.923707406    5.598161282    9.202050709 XXXX 20     oy8     O  -0.758
O3      19.186517093    4.127992165    6.940769913 XXXX 20     oy1     O  -0.550
O4      20.076977160    1.729852975    6.990704869 XXXX 20     oy2     O  -0.550
O5      19.994020246    6.633671576    6.883711528 XXXX 20     oy3     O  -0.550
O6      21.385325719    7.224622464    9.230583139 XXXX 20     oy7     O  -0.758
O7      21.643051474    1.087304143    9.323321149 XXXX 20     oy8     O  -0.758
O8      21.567381180   -0.209580943    6.962176368 XXXX 20     oy1     O  -0.550
O9      22.635626392    6.233427317    7.347377387 XXXX 20     oy2     O  -0.550
O10     22.687526500    2.104927352    7.004976997 XXXX 20     oy3     O  -0.550
O11     18.731260952    8.329071009    9.358991806 XXXX 20     oy9     O  -0.683
O13     18.248357063    3.774080808   11.306396682 XXXX 20     oy4     O  -0.683
O14     18.119898695    7.150751669   11.406263394 XXXX 20     oy6     O  -0.683
O15     21.256498505    3.868971359    9.301924679 XXXX 20     oy9     O  -0.683
O16     20.283908605    5.516315054   11.349201350 XXXX 20     oy5     O  -0.683
O17     20.676211174    8.327472828   11.249334503 XXXX 20     oy4     O  -0.683
O18     20.585279024    2.915663421   11.306395031 XXXX 20     oy6     O  -0.683
H1      19.327688171    9.260290383    9.587237989 XXXX 20     hoy     H   0.200
H3      17.736492255    4.290475216   12.162398890 XXXX 20     hok     H   0.200
H4      17.778576833    7.077945349   12.233741380 XXXX 20     hok     H   0.200
H5      21.791853477    4.632694058    8.930985222 XXXX 20     hoy     H   0.200
H6      20.546179943    5.368817056   12.269403768 XXXX 20     hok     H   0.200
H7      20.398183316    8.363885069   12.283670928 XXXX 20     hok     H   0.200
H8      20.478285055    2.225125882   12.155266158 XXXX 20     hok     H   0.200
Al1     -0.949670708   13.101561893   10.486059680 XXXX 21     ay1     Al  1.449
Al2     -0.805175460   16.003358965   10.350525893 XXXX 21     ay2     Al  1.449
Al3      1.756065522   17.501000422   10.486063615 XXXX 21     ay1     Al  1.449
Al4      1.610158521   11.548091075   10.414724896 XXXX 21     ay2     Al  1.449
Si1     -1.664979455   11.806899613    7.532843799 XXXX 21     sy1     Si  1.100
Si2     -1.604924556   14.491161106    7.746844738 XXXX 21     sy2     Si  1.100
Si3      0.791068709   16.201488178    7.675510763 XXXX 21     sy1     Si  1.100
Si4      0.880517052   10.301991428    7.611311910 XXXX 21     sy2     Si  1.100
O1      -1.899514900   11.683510675    9.323318325 XXXX 21     oy7     O  -0.758
O2      -1.661079189   14.540106805    9.202050709 XXXX 21     oy8     O  -0.758
O3      -1.398269502   13.069937688    6.940769913 XXXX 21     oy1     O  -0.550
O4      -0.507809435   10.671798498    6.990704869 XXXX 21     oy2     O  -0.550
O5      -0.590766349   15.575617099    6.883711528 XXXX 21     oy3     O  -0.550
O6       0.800539124   16.166567987    9.230583139 XXXX 21     oy7     O  -0.758
O7       1.058264879   10.029249666    9.323321149 XXXX 21     oy8     O  -0.758
O8       0.982594585    8.732364580    6.962176368 XXXX 21     oy1     O  -0.550
O9       2.050839797   15.175372840    7.347377387 XXXX 21     oy2     O  -0.550
O10      2.102739905   11.046872875    7.004976997 XXXX 21     oy3     O  -0.550
O11     -1.853525643   17.271016532    9.358991806 XXXX 21     oy9     O  -0.683
O12      2.274280642   10.122533165   11.300146207 XXXX 21     oy5     O  -0.683
O13     -2.336429532   12.716026331   11.306396682 XXXX 21     oy4     O  -0.683
O14     -2.464887900   16.092697192   11.406263394 XXXX 21     oy6     O  -0.683
O15      0.671711910   12.810916882    9.301924679 XXXX 21     oy9     O  -0.683
O16     -0.300877990   14.458260577   11.349201350 XXXX 21     oy5     O  -0.683
O17      0.091424579   17.269418351   11.249334503 XXXX 21     oy4     O  -0.683
O18      0.000492429   11.857608944   11.306395031 XXXX 21     oy6     O  -0.683
H1      -1.257098424   18.202235906    9.587237989 XXXX 21     hoy     H   0.200
H2       2.795121192   10.225411107   12.220357754 XXXX 21     hok     H   0.200
H3      -2.848294340   13.232420739   12.162398890 XXXX 21     hok     H   0.200
H4      -2.806209762   16.019890872   12.233741380 XXXX 21     hok     H   0.200
H5       1.207066882   13.574639581    8.930985222 XXXX 21     hoy     H   0.200
H6      -0.038606652   14.310762579   12.269403768 XXXX 21     hok     H   0.200
H7      -0.186603279   17.305830592   12.283670928 XXXX 21     hok     H   0.200
H8      -0.106501540   11.167071405   12.155266158 XXXX 21     hok     H   0.200
Al1      4.204329292   13.101561893   10.486059680 XXXX 22     ay1     Al  1.449
Al2      4.348824540   16.003358965   10.350525893 XXXX 22     ay2     Al  1.449
Al3      6.910065522   17.501000422   10.486063615 XXXX 22     ay1     Al  1.449
Al4      6.764158521   11.548091075   10.414724896 XXXX 22     ay2     Al  1.449
Si1      3.489020545   11.806899613    7.532843799 XXXX 22     sy1     Si  1.100
Si2      3.549075444   14.491161106    7.746844738 XXXX 22     sy2     Si  1.100
Si3      5.945068709   16.201488178    7.675510763 XXXX 22     sy1     Si  1.100
Si4      6.034517052   10.301991428    7.611311910 XXXX 22     sy2     Si  1.100
O1       3.254485100   11.683510675    9.323318325 XXXX 22     oy7     O  -0.758
O2       3.492920811   14.540106805    9.202050709 XXXX 22     oy8     O  -0.758
O3       3.755730498   13.069937688    6.940769913 XXXX 22     oy1     O  -0.550
O4       4.646190565   10.671798498    6.990704869 XXXX 22     oy2     O  -0.550
O5       4.563233651   15.575617099    6.883711528 XXXX 22     oy3     O  -0.550
O6       5.954539124   16.166567987    9.230583139 XXXX 22     oy7     O  -0.758
O7       6.212264879   10.029249666    9.323321149 XXXX 22     oy8     O  -0.758
O8       6.136594585    8.732364580    6.962176368 XXXX 22     oy1     O  -0.550
O9       7.204839797   15.175372840    7.347377387 XXXX 22     oy2     O  -0.550
O10      7.256739905   11.046872875    7.004976997 XXXX 22     oy3     O  -0.550
O11      3.300474357   17.271016532    9.358991806 XXXX 22     oy9     O  -0.683
O12      7.428280642   10.122533165   11.300146207 XXXX 22     oy5     O  -0.683
O13      2.817570468   12.716026331   11.306396682 XXXX 22     oy4     O  -0.683
O14      2.689112100   16.092697192   11.406263394 XXXX 22     oy6     O  -0.683
O15      5.825711910   12.810916882    9.301924679 XXXX 22     oy9     O  -0.683
O16      4.853122010   14.458260577   11.349201350 XXXX 22     oy5     O  -0.683
O17      5.245424579   17.269418351   11.249334503 XXXX 22     oy4     O  -0.683
O18      5.154492429   11.857608944   11.306395031 XXXX 22     oy6     O  -0.683
H1       3.896901576   18.202235906    9.587237989 XXXX 22     hoy     H   0.200
H2       7.949121192   10.225411107   12.220357754 XXXX 22     hok     H   0.200
H3       2.305705660   13.232420739   12.162398890 XXXX 22     hok     H   0.200
H4       2.347790238   16.019890872   12.233741380 XXXX 22     hok     H   0.200
H5       6.361066882   13.574639581    8.930985222 XXXX 22     hoy     H   0.200
H6       5.115393348   14.310762579   12.269403768 XXXX 22     hok     H   0.200
H7       4.967396721   17.305830592   12.283670928 XXXX 22     hok     H   0.200
H8       5.047498460   11.167071405   12.155266158 XXXX 22     hok     H   0.200
Al1      9.358329292   13.101561893   10.486059680 XXXX 23     ay1     Al  1.449
Al2      9.502824540   16.003358965   10.350525893 XXXX 23     ay2     Al  1.449
Al3     12.064065522   17.501000422   10.486063615 XXXX 23     ay1     Al  1.449
Al4     11.918158521   11.548091075   10.414724896 XXXX 23     ay2     Al  1.449
Si1      8.643020545   11.806899613    7.532843799 XXXX 23     sy1     Si  1.100
Si2      8.703075444   14.491161106    7.746844738 XXXX 23     sy2     Si  1.100
Si3     11.099068709   16.201488178    7.675510763 XXXX 23     sy1     Si  1.100
Si4     11.188517052   10.301991428    7.611311910 XXXX 23     sy2     Si  1.100
O1       8.408485100   11.683510675    9.323318325 XXXX 23     oy7     O  -0.758
O2       8.646920811   14.540106805    9.202050709 XXXX 23     oy8     O  -0.758
O3       8.909730498   13.069937688    6.940769913 XXXX 23     oy1     O  -0.550
O4       9.800190565   10.671798498    6.990704869 XXXX 23     oy2     O  -0.550
O5       9.717233651   15.575617099    6.883711528 XXXX 23     oy3     O  -0.550
O6      11.108539124   16.166567987    9.230583139 XXXX 23     oy7     O  -0.758
O7      11.366264879   10.029249666    9.323321149 XXXX 23     oy8     O  -0.758
O8      11.290594585    8.732364580    6.962176368 XXXX 23     oy1     O  -0.550
O9      12.358839797   15.175372840    7.347377387 XXXX 23     oy2     O  -0.550
O10     12.410739905   11.046872875    7.004976997 XXXX 23     oy3     O  -0.550
O11      8.454474357   17.271016532    9.358991806 XXXX 23     oy9     O  -0.683
O12     12.582280642   10.122533165   11.300146207 XXXX 23     oy5     O  -0.683
O13      7.971570468   12.716026331   11.306396682 XXXX 23     oy4     O  -0.683
O14      7.843112100   16.092697192   11.406263394 XXXX 23     oy6     O  -0.683
O15     10.979711910   12.810916882    9.301924679 XXXX 23     oy9     O  -0.683
O16     10.007122010   14.458260577   11.349201350 XXXX 23     oy5     O  -0.683
O17     10.399424579   17.269418351   11.249334503 XXXX 23     oy4     O  -0.683
O18     10.308492429   11.857608944   11.306395031 XXXX 23     oy6     O  -0.683
H1       9.050901576   18.202235906    9.587237989 XXXX 23     hoy     H   0.200
H2      13.103121192   10.225411107   12.220357754 XXXX 23     hok     H   0.200
H3       7.459705660   13.232420739   12.162398890 XXXX 23     hok     H   0.200
H4       7.501790238   16.019890872   12.233741380 XXXX 23     hok     H   0.200
H5      11.515066882   13.574639581    8.930985222 XXXX 23     hoy     H   0.200
H6      10.269393348   14.310762579   12.269403768 XXXX 23     hok     H   0.200
H7      10.121396721   17.305830592   12.283670928 XXXX 23     hok     H   0.200
H8      10.201498460   11.167071405   12.155266158 XXXX 23     hok     H   0.200
Al1     14.512329292   13.101561893   10.486059680 XXXX 24     ay1     Al  1.449
Al2     14.656824540   16.003358965   10.350525893 XXXX 24     ay2     Al  1.449
Al3     17.218065522   17.501000422   10.486063615 XXXX 24     ay1     Al  1.449
Al4     17.072158521   11.548091075   10.414724896 XXXX 24     ay2     Al  1.449
Si1     13.797020545   11.806899613    7.532843799 XXXX 24     sy1     Si  1.100
Si2     13.857075444   14.491161106    7.746844738 XXXX 24     sy2     Si  1.100
Si3     16.253068709   16.201488178    7.675510763 XXXX 24     sy1     Si  1.100
Si4     16.342517052   10.301991428    7.611311910 XXXX 24     sy2     Si  1.100
O1      13.562485100   11.683510675    9.323318325 XXXX 24     oy7     O  -0.758
O2      13.800920811   14.540106805    9.202050709 XXXX 24     oy8     O  -0.758
O3      14.063730498   13.069937688    6.940769913 XXXX 24     oy1     O  -0.550
O4      14.954190565   10.671798498    6.990704869 XXXX 24     oy2     O  -0.550
O5      14.871233651   15.575617099    6.883711528 XXXX 24     oy3     O  -0.550
O6      16.262539124   16.166567987    9.230583139 XXXX 24     oy7     O  -0.758
O7      16.520264879   10.029249666    9.323321149 XXXX 24     oy8     O  -0.758
O8      16.444594585    8.732364580    6.962176368 XXXX 24     oy1     O  -0.550
O9      17.512839797   15.175372840    7.347377387 XXXX 24     oy2     O  -0.550
O10     17.564739905   11.046872875    7.004976997 XXXX 24     oy3     O  -0.550
O11     13.608474357   17.271016532    9.358991806 XXXX 24     oy9     O  -0.683
O12     17.736280642   10.122533165   11.300146207 XXXX 24     oy5     O  -0.683
O13     13.125570468   12.716026331   11.306396682 XXXX 24     oy4     O  -0.683
O14     12.997112100   16.092697192   11.406263394 XXXX 24     oy6     O  -0.683
O15     16.133711910   12.810916882    9.301924679 XXXX 24     oy9     O  -0.683
O16     15.161122010   14.458260577   11.349201350 XXXX 24     oy5     O  -0.683
O17     15.553424579   17.269418351   11.249334503 XXXX 24     oy4     O  -0.683
O18     15.462492429   11.857608944   11.306395031 XXXX 24     oy6     O  -0.683
H1      14.204901576   18.202235906    9.587237989 XXXX 24     hoy     H   0.200
H2      18.257121192   10.225411107   12.220357754 XXXX 24     hok     H   0.200
H3      12.613705660   13.232420739   12.162398890 XXXX 24     hok     H   0.200
H4      12.655790238   16.019890872   12.233741380 XXXX 24     hok     H   0.200
H5      16.669066882   13.574639581    8.930985222 XXXX 24     hoy     H   0.200
H6      15.423393348   14.310762579   12.269403768 XXXX 24     hok     H   0.200
H7      15.275396721   17.305830592   12.283670928 XXXX 24     hok     H   0.200
H8      15.355498460   11.167071405   12.155266158 XXXX 24     hok     H   0.200
Al1     19.666329292   13.101561893   10.486059680 XXXX 25     ay1     Al  1.449
Al2     19.810824540   16.003358965   10.350525893 XXXX 25     ay2     Al  1.449
Al3     22.372065522   17.501000422   10.486063615 XXXX 25     ay1     Al  1.449
Al4     22.226158521   11.548091075   10.414724896 XXXX 25     ay2     Al  1.449
Si1     18.951020545   11.806899613    7.532843799 XXXX 25     sy1     Si  1.100
Si2     19.011075444   14.491161106    7.746844738 XXXX 25     sy2     Si  1.100
Si3     21.407068709   16.201488178    7.675510763 XXXX 25     sy1     Si  1.100
Si4     21.496517052   10.301991428    7.611311910 XXXX 25     sy2     Si  1.100
O1      18.716485100   11.683510675    9.323318325 XXXX 25     oy7     O  -0.758
O2      18.954920811   14.540106805    9.202050709 XXXX 25     oy8     O  -0.758
O3      19.217730498   13.069937688    6.940769913 XXXX 25     oy1     O  -0.550
O4      20.108190565   10.671798498    6.990704869 XXXX 25     oy2     O  -0.550
O5      20.025233651   15.575617099    6.883711528 XXXX 25     oy3     O  -0.550
O6      21.416539124   16.166567987    9.230583139 XXXX 25     oy7     O  -0.758
O7      21.674264879   10.029249666    9.323321149 XXXX 25     oy8     O  -0.758
O8      21.598594585    8.732364580    6.962176368 XXXX 25     oy1     O  -0.550
O9      22.666839797   15.175372840    7.347377387 XXXX 25     oy2     O  -0.550
O10     22.718739905   11.046872875    7.004976997 XXXX 25     oy3     O  -0.550
O11     18.762474357   17.271016532    9.358991806 XXXX 25     oy9     O  -0.683
O13     18.279570468   12.716026331   11.306396682 XXXX 25     oy4     O  -0.683
O14     18.151112100   16.092697192   11.406263394 XXXX 25     oy6     O  -0.683
O15     21.287711910   12.810916882    9.301924679 XXXX 25     oy9     O  -0.683
O16     20.315122010   14.458260577   11.349201350 XXXX 25     oy5     O  -0.683
O17     20.707424579   17.269418351   11.249334503 XXXX 25     oy4     O  -0.683
O18     20.616492429   11.857608944   11.306395031 XXXX 25     oy6     O  -0.683
H1      19.358901576   18.202235906    9.587237989 XXXX 25     hoy     H   0.200
H3      17.767705660   13.232420739   12.162398890 XXXX 25     hok     H   0.200
H4      17.809790238   16.019890872   12.233741380 XXXX 25     hok     H   0.200
H5      21.823066882   13.574639581    8.930985222 XXXX 25     hoy     H   0.200
H6      20.577393348   14.310762579   12.269403768 XXXX 25     hok     H   0.200
H7      20.429396721   17.305830592   12.283670928 XXXX 25     hok     H   0.200
H8      20.509498460   11.167071405   12.155266158 XXXX 25     hok     H   0.200
Al1     -0.918457303   22.043507415   10.486059680 XXXX 26     ay1     Al  1.449
Al2     -0.773962055   24.945304487   10.350525893 XXXX 26     ay2     Al  1.449
Al3      1.787278927   26.442945944   10.486063615 XXXX 26     ay1     Al  1.449
Al4      1.641371926   20.490036597   10.414724896 XXXX 26     ay2     Al  1.449
Si1     -1.633766050   20.748845135    7.532843799 XXXX 26     sy1     Si  1.100
Si2     -1.573711151   23.433106628    7.746844738 XXXX 26     sy2     Si  1.100
Si3      0.822282114   25.143433700    7.675510763 XXXX 26     sy1     Si  1.100
Si4      0.911730457   19.243936950    7.611311910 XXXX 26     sy2     Si  1.100
O1      -1.868301495   20.625456197    9.323318325 XXXX 26     oy7     O  -0.758
O2      -1.629865784   23.482052327    9.202050709 XXXX 26     oy8     O  -0.758
O3      -1.367056097   22.011883210    6.940769913 XXXX 26     oy1     O  -0.550
O4      -0.476596030   19.613744020    6.990704869 XXXX 26     oy2     O  -0.550
O5      -0.559552944   24.517562621    6.883711528 XXXX 26     oy3     O  -0.550
O6       0.831752529   25.108513509    9.230583139 XXXX 26     oy7     O  -0.758
O7       1.089478284   18.971195188    9.323321149 XXXX 26     oy8     O  -0.758
O8       1.013807990   17.674310102    6.962176368 XXXX 26     oy1     O  -0.550
O9       2.082053202   24.117318362    7.347377387 XXXX 26     oy2     O  -0.550
O10      2.133953310   19.988818397    7.004976997 XXXX 26     oy3     O  -0.550
O11     -1.822312238   26.212962054    9.358991806 XXXX 26     oy9     O  -0.683
O12      2.305494047   19.064478687   11.300146207 XXXX 26     oy5     O  -0.683
O13     -2.305216127   21.657971853   11.306396682 XXXX 26     oy4     O  -0.683
O14     -2.433674495   25.034642714   11.406263394 XXXX 26     oy6     O  -0.683
O15      0.702925315   21.752862404    9.301924679 XXXX 26     oy9     O  -0.683
O16     -0.269664585   23.400206099   11.349201350 XXXX 26     oy5     O  -0.683
O17      0.122637984   26.211363873   11.249334503 XXXX 26     oy4     O  -0.683
O18      0.031705834   20.799554466   11.306395031 XXXX 26     oy6     O  -0.683
H2       2.826334597   19.167356629   12.220357754 XXXX 26     hok     H   0.200
H3      -2.817080935   22.174366261   12.162398890 XXXX 26     hok     H   0.200
H4      -2.774996357   24.961836394   12.233741380 XXXX 26     hok     H   0.200
H5       1.238280287   22.516585103    8.930985222 XXXX 26     hoy     H   0.200
H6      -0.007393247   23.252708101   12.269403768 XXXX 26     hok     H   0.200
H7      -0.155389874   26.247776114   12.283670928 XXXX 26     hok     H   0.200
H8      -0.075288135   20.109016927   12.155266158 XXXX 26     hok     H   0.200
Al1      4.235542697   22.043507415   10.486059680 XXXX 27     ay1     Al  1.449
Al2      4.380037945   24.945304487   10.350525893 XXXX 27     ay2     Al  1.449
Al3      6.941278927   26.442945944   10.486063615 XXXX 27     ay1     Al  1.449
Al4      6.795371926   20.490036597   10.414724896 XXXX 27     ay2     Al  1.449
Si1      3.520233950   20.748845135    7.532843799 XXXX 27     sy1     Si  1.100
Si2      3.580288849   23.433106628    7.746844738 XXXX 27     sy2     Si  1.100
Si3      5.976282114   25.143433700    7.675510763 XXXX 27     sy1     Si  1.100
Si4      6.065730457   19.243936950    7.611311910 XXXX 27     sy2     Si  1.100
O1       3.285698505   20.625456197    9.323318325 XXXX 27     oy7     O  -0.758
O2       3.524134216   23.482052327    9.202050709 XXXX 27     oy8     O  -0.758
O3       3.786943903   22.011883210    6.940769913 XXXX 27     oy1     O  -0.550
O4       4.677403970   19.613744020    6.990704869 XXXX 27     oy2     O  -0.550
O5       4.594447056   24.517562621    6.883711528 XXXX 27     oy3     O  -0.550
O6       5.985752529   25.108513509    9.230583139 XXXX 27     oy7     O  -0.758
O7       6.243478284   18.971195188    9.323321149 XXXX 27     oy8     O  -0.758
O8       6.167807990   17.674310102    6.962176368 XXXX 27     oy1     O  -0.550
O9       7.236053202   24.117318362    7.347377387 XXXX 27     oy2     O  -0.550
O10      7.287953310   19.988818397    7.004976997 XXXX 27     oy3     O  -0.550
O11      3.331687762   26.212962054    9.358991806 XXXX 27     oy9     O  -0.683
O12      7.459494047   19.064478687   11.300146207 XXXX 27     oy5     O  -0.683
O13      2.848783873   21.657971853   11.306396682 XXXX 27     oy4     O  -0.683
O14      2.720325505   25.034642714   11.406263394 XXXX 27     oy6     O  -0.683
O15      5.856925315   21.752862404    9.301924679 XXXX 27     oy9     O  -0.683
O16      4.884335415   23.400206099   11.349201350 XXXX 27     oy5     O  -0.683
O17      5.276637984   26.211363873   11.249334503 XXXX 27     oy4     O  -0.683
O18      5.185705834   20.799554466   11.306395031 XXXX 27     oy6     O  -0.683
H2       7.980334597   19.167356629   12.220357754 XXXX 27     hok     H   0.200
H3       2.336919065   22.174366261   12.162398890 XXXX 27     hok     H   0.200
H4       2.379003643   24.961836394   12.233741380 XXXX 27     hok     H   0.200
H5       6.392280287   22.516585103    8.930985222 XXXX 27     hoy     H   0.200
H6       5.146606753   23.252708101   12.269403768 XXXX 27     hok     H   0.200
H7       4.998610126   26.247776114   12.283670928 XXXX 27     hok     H   0.200
H8       5.078711865   20.109016927   12.155266158 XXXX 27     hok     H   0.200
Al1      9.389542697   22.043507415   10.486059680 XXXX 28     ay1     Al  1.449
Al2      9.534037945   24.945304487   10.350525893 XXXX 28     ay2     Al  1.449
Al3     12.095278927   26.442945944   10.486063615 XXXX 28     ay1     Al  1.449
Al4     11.949371926   20.490036597   10.414724896 XXXX 28     ay2     Al  1.449
Si1      8.674233950   20.748845135    7.532843799 XXXX 28     sy1     Si  1.100
Si2      8.734288849   23.433106628    7.746844738 XXXX 28     sy2     Si  1.100
Si3     11.130282114   25.143433700    7.675510763 XXXX 28     sy1     Si  1.100
Si4     11.219730457   19.243936950    7.611311910 XXXX 28     sy2     Si  1.100
O1       8.439698505   20.625456197    9.323318325 XXXX 28     oy7     O  -0.758
O2       8.678134216   23.482052327    9.202050709 XXXX 28     oy8     O  -0.758
O3       8.940943903   22.011883210    6.940769913 XXXX 28     oy1     O  -0.550
O4       9.831403970   19.613744020    6.990704869 XXXX 28     oy2     O  -0.550
O5       9.748447056   24.517562621    6.883711528 XXXX 28     oy3     O  -0.550
O6      11.139752529   25.108513509    9.230583139 XXXX 28     oy7     O  -0.758
O7      11.397478284   18.971195188    9.323321149 XXXX 28     oy8     O  -0.758
O8      11.321807990   17.674310102    6.962176368 XXXX 28     oy1     O  -0.550
O9      12.390053202   24.117318362    7.347377387 XXXX 28     oy2     O  -0.550
O10     12.441953310   19.988818397    7.004976997 XXXX 28     oy3     O  -0.550
O11      8.485687762   26.212962054    9.358991806 XXXX 28     oy9     O  -0.683
O12     12.613494047   19.064478687   11.300146207 XXXX 28     oy5     O  -0.683
O13      8.002783873   21.657971853   11.306396682 XXXX 28     oy4     O  -0.683
O14      7.874325505   25.034642714   11.406263394 XXXX 28     oy6     O  -0.683
O15     11.010925315   21.752862404    9.301924679 XXXX 28     oy9     O  -0.683
O16     10.038335415   23.400206099   11.349201350 XXXX 28     oy5     O  -0.683
O17     10.430637984   26.211363873   11.249334503 XXXX 28     oy4     O  -0.683
O18     10.339705834   20.799554466   11.306395031 XXXX 28     oy6     O  -0.683
H2      13.134334597   19.167356629   12.220357754 XXXX 28     hok     H   0.200
H3       7.490919065   22.174366261   12.162398890 XXXX 28     hok     H   0.200
H4       7.533003643   24.961836394   12.233741380 XXXX 28     hok     H   0.200
H5      11.546280287   22.516585103    8.930985222 XXXX 28     hoy     H   0.200
H6      10.300606753   23.252708101   12.269403768 XXXX 28     hok     H   0.200
H7      10.152610126   26.247776114   12.283670928 XXXX 28     hok     H   0.200
H8      10.232711865   20.109016927   12.155266158 XXXX 28     hok     H   0.200
Al1     14.543542697   22.043507415   10.486059680 XXXX 29     ay1     Al  1.449
Al2     14.688037945   24.945304487   10.350525893 XXXX 29     ay2     Al  1.449
Al3     17.249278927   26.442945944   10.486063615 XXXX 29     ay1     Al  1.449
Al4     17.103371926   20.490036597   10.414724896 XXXX 29     ay2     Al  1.449
Si1     13.828233950   20.748845135    7.532843799 XXXX 29     sy1     Si  1.100
Si2     13.888288849   23.433106628    7.746844738 XXXX 29     sy2     Si  1.100
Si3     16.284282114   25.143433700    7.675510763 XXXX 29     sy1     Si  1.100
Si4     16.373730457   19.243936950    7.611311910 XXXX 29     sy2     Si  1.100
O1      13.593698505   20.625456197    9.323318325 XXXX 29     oy7     O  -0.758
O2      13.832134216   23.482052327    9.202050709 XXXX 29     oy8     O  -0.758
O3      14.094943903   22.011883210    6.940769913 XXXX 29     oy1     O  -0.550
O4      14.985403970   19.613744020    6.990704869 XXXX 29     oy2     O  -0.550
O5      14.902447056   24.517562621    6.883711528 XXXX 29     oy3     O  -0.550
O6      16.293752529   25.108513509    9.230583139 XXXX 29     oy7     O  -0.758
O7      16.551478284   18.971195188    9.323321149 XXXX 29     oy8     O  -0.758
O8      16.475807990   17.674310102    6.962176368 XXXX 29     oy1     O  -0.550
O9      17.544053202   24.117318362    7.347377387 XXXX 29     oy2     O  -0.550
O10     17.595953310   19.988818397    7.004976997 XXXX 29     oy3     O  -0.550
O11     13.639687762   26.212962054    9.358991806 XXXX 29     oy9     O  -0.683
O12     17.767494047   19.064478687   11.300146207 XXXX 29     oy5     O  -0.683
O13     13.156783873   21.657971853   11.306396682 XXXX 29     oy4     O  -0.683
O14     13.028325505   25.034642714   11.406263394 XXXX 29     oy6     O  -0.683
O15     16.164925315   21.752862404    9.301924679 XXXX 29     oy9     O  -0.683
O16     15.192335415   23.400206099   11.349201350 XXXX 29     oy5     O  -0.683
O17     15.584637984   26.211363873   11.249334503 XXXX 29     oy4     O  -0.683
O18     15.493705834   20.799554466   11.306395031 XXXX 29     oy6     O  -0.683
H2      18.288334597   19.167356629   12.220357754 XXXX 29     hok     H   0.200
H3      12.644919065   22.174366261   12.162398890 XXXX 29     hok     H   0.200
H4      12.687003643   24.961836394   12.233741380 XXXX 29     hok     H   0.200
H5      16.700280287   22.516585103    8.930985222 XXXX 29     hoy     H   0.200
H6      15.454606753   23.252708101   12.269403768 XXXX 29     hok     H   0.200
H7      15.306610126   26.247776114   12.283670928 XXXX 29     hok     H   0.200
H8      15.386711865   20.109016927   12.155266158 XXXX 29     hok     H   0.200
Al1     19.697542697   22.043507415   10.486059680 XXXX 30     ay1     Al  1.449
Al2     19.842037945   24.945304487   10.350525893 XXXX 30     ay2     Al  1.449
Al3     22.403278927   26.442945944   10.486063615 XXXX 30     ay1     Al  1.449
Al4     22.257371926   20.490036597   10.414724896 XXXX 30     ay2     Al  1.449
Si1     18.982233950   20.748845135    7.532843799 XXXX 30     sy1     Si  1.100
Si2     19.042288849   23.433106628    7.746844738 XXXX 30     sy2     Si  1.100
Si3     21.438282114   25.143433700    7.675510763 XXXX 30     sy1     Si  1.100
Si4     21.527730457   19.243936950    7.611311910 XXXX 30     sy2     Si  1.100
O1      18.747698505   20.625456197    9.323318325 XXXX 30     oy7     O  -0.758
O2      18.986134216   23.482052327    9.202050709 XXXX 30     oy8     O  -0.758
O3      19.248943903   22.011883210    6.940769913 XXXX 30     oy1     O  -0.550
O4      20.139403970   19.613744020    6.990704869 XXXX 30     oy2     O  -0.550
O5      20.056447056   24.517562621    6.883711528 XXXX 30     oy3     O  -0.550
O6      21.447752529   25.108513509    9.230583139 XXXX 30     oy7     O  -0.758
O7      21.705478284   18.971195188    9.323321149 XXXX 30     oy8     O  -0.758
O8      21.629807990   17.674310102    6.962176368 XXXX 30     oy1     O  -0.550
O9      22.698053202   24.117318362    7.347377387 XXXX 30     oy2     O  -0.550
O10     22.749953310   19.988818397    7.004976997 XXXX 30     oy3     O  -0.550
O11     18.793687762   26.212962054    9.358991806 XXXX 30     oy9     O  -0.683
O13     18.310783873   21.657971853   11.306396682 XXXX 30     oy4     O  -0.683
O14     18.182325505   25.034642714   11.406263394 XXXX 30     oy6     O  -0.683
O15     21.318925315   21.752862404    9.301924679 XXXX 30     oy9     O  -0.683
O16     20.346335415   23.400206099   11.349201350 XXXX 30     oy5     O  -0.683
O17     20.738637984   26.211363873   11.249334503 XXXX 30     oy4     O  -0.683
O18     20.647705834   20.799554466   11.306395031 XXXX 30     oy6     O  -0.683
H3      17.798919065   22.174366261   12.162398890 XXXX 30     hok     H   0.200
H4      17.841003643   24.961836394   12.233741380 XXXX 30     hok     H   0.200
H5      21.854280287   22.516585103    8.930985222 XXXX 30     hoy     H   0.200
H6      20.608606753   23.252708101   12.269403768 XXXX 30     hok     H   0.200
H7      20.460610126   26.247776114   12.283670928 XXXX 30     hok     H   0.200
H8      20.540711865   20.109016927   12.155266158 XXXX 30     hok     H   0.200
O12     -0.991771839    1.422807677    4.166771704 XXXX 31     oy5     O  -0.683
H2      -0.470931289    1.525685619    5.086983251 XXXX 31     hok     H   0.200
O12     -0.960558434   10.364753199    4.166771704 XXXX 32     oy5     O  -0.683
H2      -0.439717884   10.467631141    5.086983251 XXXX 32     hok     H   0.200
O12     -0.929345029   19.306698722    4.166771704 XXXX 33     oy5     O  -0.683
H2      -0.408504479   19.409576664    5.086983251 XXXX 33     hok     H   0.200
O12     -2.910932763    1.180587642   11.300146207 XXXX 34     oy5     O  -0.683
H2      -2.390092213    1.283465584   12.220357754 XXXX 34     hok     H   0.200
O12     -2.879719358   10.122533165   11.300146207 XXXX 35     oy5     O  -0.683
H2      -2.358878808   10.225411107   12.220357754 XXXX 35     hok     H   0.200
O12     -2.848505953   19.064478687   11.300146207 XXXX 36     oy5     O  -0.683
H2      -2.327665403   19.167356629   12.220357754 XXXX 36     hok     H   0.200
H1       0.599635690    0.560564896    2.453863486 XXXX 37     hoy     H   0.200
H1       5.753635690    0.560564896    2.453863486 XXXX 38     hoy     H   0.200
H1      10.907635690    0.560564896    2.453863486 XXXX 39     hoy     H   0.200
H1      16.061635690    0.560564896    2.453863486 XXXX 40     hoy     H   0.200
H1      21.215635690    0.560564896    2.453863486 XXXX 41     hoy     H   0.200
H1      -1.319525234    0.318344861    9.587237989 XXXX 42     hoy     H   0.200
H1       3.834474766    0.318344861    9.587237989 XXXX 43     hoy     H   0.200
H1       8.988474766    0.318344861    9.587237989 XXXX 44     hoy     H   0.200
H1      14.142474766    0.318344861    9.587237989 XXXX 45     hoy     H   0.200
H1      19.296474766    0.318344861    9.587237989 XXXX 46     hoy     H   0.200
end
end
