!BIOSYM archive 3
PBC=ON
Materials Studio Generated CAR File
!DATE Mon Mar 23 18:55:16 2015
PBC   37.6680   32.6214  127.5000   90.0000   90.0000   90.0000 (P1)
O1       3.583738699   29.536972217    2.515797942 XXXX 1      oap1    O  -0.650
O2       2.404733088   30.974139623    8.777199300 XXXX 1      oap1    O  -0.800
O3       2.118030449   30.969733682   15.765118695 XXXX 1      oap1    O  -0.800
O4       1.825445141   31.157131669   22.871406648 XXXX 1      oap1    O  -0.800
O5      12.779195067   30.491666617    2.265383096 XXXX 1      oap1    O  -0.650
O6      11.574416107   30.840616569    8.739454525 XXXX 1      oap1    O  -0.800
O7      11.600189149   30.678278707   15.555991326 XXXX 1      oap1    O  -0.800
O8      11.454986097   30.706280294   22.645022934 XXXX 1      oap1    O  -0.800
O9      18.893688585   31.400904925    3.030824014 XXXX 1      oap1    O  -0.650
O10     20.779749168   30.878072064    8.585050847 XXXX 1      oap1    O  -0.800
O11     20.848510140   30.945971885   15.566796302 XXXX 1      oap1    O  -0.800
O12     21.039035107   30.734016309   22.682637382 XXXX 1      oap1    O  -0.800
O13     29.839618077   32.925504038    3.426227239 XXXX 1      oap1    O  -0.650
O14     30.335222481   31.014043212    8.700403647 XXXX 1      oap1    O  -0.800
O15     30.386278453   30.986685447   15.514926013 XXXX 1      oap1    O  -0.800
O16     30.641462705   30.975259743   22.640375624 XXXX 1      oap1    O  -0.800
O17      6.974531605   21.836042532    1.717753290 XXXX 1      oap1    O  -0.650
O18      6.711966573   22.836652179    8.692984510 XXXX 1      oap1    O  -0.800
O19      6.754112790   22.769485981   15.668365521 XXXX 1      oap1    O  -0.800
O20      6.930222616   22.756366651   22.425279087 XXXX 1      oap1    O  -0.800
O21     15.914316386   23.117579397    2.001237009 XXXX 1      oap1    O  -0.650
O22     16.288883691   22.578600525    8.831052835 XXXX 1      oap1    O  -0.800
O23     15.945647139   22.812700167   15.731154039 XXXX 1      oap1    O  -0.800
O24     16.073442466   23.006665863   22.739882147 XXXX 1      oap1    O  -0.800
O25     24.866329297   23.140896307    2.047173491 XXXX 1      oap1    O  -0.650
O26     25.623196337   22.694715227    8.643774424 XXXX 1      oap1    O  -0.800
O27     25.445414338   22.759631254   15.875632186 XXXX 1      oap1    O  -0.800
O28     25.884728908   22.322052151   22.644127645 XXXX 1      oap1    O  -0.800
O29     35.157878386   22.686751763    1.809339297 XXXX 1      oap1    O  -0.650
O30     34.821020565   22.830265307    8.840967701 XXXX 1      oap1    O  -0.800
O31     34.816473326   22.845441428   15.759997676 XXXX 1      oap1    O  -0.800
O32     35.066374413   23.003126321   22.726672205 XXXX 1      oap1    O  -0.800
O33      2.433004568   15.073624999    1.912379602 XXXX 1      oap1    O  -0.650
O34      2.152942638   14.840947122    8.816165260 XXXX 1      oap1    O  -0.800
O35      1.829070502   14.787913044   15.790222590 XXXX 1      oap1    O  -0.800
O36      1.880898657   14.524629407   22.610593076 XXXX 1      oap1    O  -0.800
O37      9.418005505   14.801416279    3.297476160 XXXX 1      oap1    O  -0.650
O38     11.506343173   14.533502016    8.887008339 XXXX 1      oap1    O  -0.800
O39     11.421300514   14.589803974   15.767122135 XXXX 1      oap1    O  -0.800
O40     11.383969630   14.064976271   22.407428144 XXXX 1      oap1    O  -0.800
O41     20.517842101   14.546015874    1.631889867 XXXX 1      oap1    O  -0.650
O42     21.009434612   14.495700305    8.673957862 XXXX 1      oap1    O  -0.800
O43     20.952812168   14.427275258   15.696637962 XXXX 1      oap1    O  -0.800
O44     20.790226225   14.495921948   22.561533406 XXXX 1      oap1    O  -0.800
O45     31.227528787   13.949350861    1.635264825 XXXX 1      oap1    O  -0.650
O46     30.284518623   14.551702871    8.646936830 XXXX 1      oap1    O  -0.800
O47     30.430685245   14.626878134   15.613953452 XXXX 1      oap1    O  -0.800
O48     30.354183543   14.533363607   22.673183737 XXXX 1      oap1    O  -0.800
O49      6.963387098    6.412463576    1.715031129 XXXX 1      oap1    O  -0.650
O50      7.133717196    6.287025751    8.650001926 XXXX 1      oap1    O  -0.800
O51      6.937878002    6.293031350   15.738841212 XXXX 1      oap1    O  -0.800
O52      7.052260300    6.356929601   22.667710460 XXXX 1      oap1    O  -0.800
O53     16.424392273    6.386156704    1.656969217 XXXX 1      oap1    O  -0.650
O54     16.244696183    6.400369600    8.718520340 XXXX 1      oap1    O  -0.800
O55     15.925660454    6.594081058   15.651362339 XXXX 1      oap1    O  -0.800
O56     16.207428654    6.461161455   22.576204716 XXXX 1      oap1    O  -0.800
O57     24.295867055    4.518666647    2.838407325 XXXX 1      oap1    O  -0.650
O58     25.253659689    6.659298392    8.792016427 XXXX 1      oap1    O  -0.800
O59     25.510270654    6.523369044   15.718503104 XXXX 1      oap1    O  -0.800
O60     25.351253911    6.692692398   22.672560694 XXXX 1      oap1    O  -0.800
O61     34.815275229    6.681791682    1.844155659 XXXX 1      oap1    O  -0.650
O62     35.015032290    6.483018660    8.806460174 XXXX 1      oap1    O  -0.800
O63     34.917630914    6.661716966   15.804927207 XXXX 1      oap1    O  -0.800
O64     35.409290009    6.347229150   22.534601898 XXXX 1      oap1    O  -0.800
O65      6.070487089   25.778755063    3.517252133 XXXX 1      oap1    O  -0.650
O66      5.585435917   27.523005241    8.915739329 XXXX 1      oap1    O  -0.800
O67      5.387265830   27.846093800   15.778637146 XXXX 1      oap1    O  -0.800
O68      5.431734383   27.619807224   22.659445808 XXXX 1      oap1    O  -0.800
O69     16.193821740   25.736655287    3.066680263 XXXX 1      oap1    O  -0.650
O70     15.019022156   27.660697846    8.749775163 XXXX 1      oap1    O  -0.800
O71     15.004796870   27.801734295   15.577873468 XXXX 1      oap1    O  -0.800
O72     14.951817027   27.371439891   22.976671492 XXXX 1      oap1    O  -0.800
O73     24.651013508   27.977401798    1.705670798 XXXX 1      oap1    O  -0.650
O74     24.157270370   27.571347496    8.820681486 XXXX 1      oap1    O  -0.800
O75     24.374859325   27.574344028   15.710306233 XXXX 1      oap1    O  -0.800
O76     24.520326853   27.940749279   22.630826980 XXXX 1      oap1    O  -0.800
O77     33.975404828   29.364392368    2.182080838 XXXX 1      oap1    O  -0.650
O78     33.737388317   27.512834021    8.978833620 XXXX 1      oap1    O  -0.800
O79     33.815757679   27.564133428   15.749749971 XXXX 1      oap1    O  -0.800
O80     33.889654971   27.639304770   22.616034165 XXXX 1      oap1    O  -0.800
O81      0.962269784   20.132189431    1.808013424 XXXX 1      oap1    O  -0.650
O82      0.809318119   19.610658533    8.723606811 XXXX 1      oap1    O  -0.800
O83      0.805188103   19.495579878   15.825976222 XXXX 1      oap1    O  -0.800
O84      0.919097029   19.698098537   22.626526024 XXXX 1      oap1    O  -0.800
O85      8.905274015   18.128053267    3.708669097 XXXX 1      oap1    O  -0.650
O86     10.196696767   19.495663775    8.835956783 XXXX 1      oap1    O  -0.800
O87     10.261569546   19.616163521   15.692666627 XXXX 1      oap1    O  -0.800
O88     10.240293032   19.592973642   22.665333225 XXXX 1      oap1    O  -0.800
O89     19.594134809   19.368297129    1.912954046 XXXX 1      oap1    O  -0.650
O90     19.676785173   19.717686348    8.691170869 XXXX 1      oap1    O  -0.800
O91     19.695743133   19.224057427   15.863430342 XXXX 1      oap1    O  -0.800
O92     19.592467181   19.494629659   22.689443680 XXXX 1      oap1    O  -0.800
O93     29.428880242   17.647191245    3.609038037 XXXX 1      oap1    O  -0.650
O94     29.142080122   19.353131066    8.894284149 XXXX 1      oap1    O  -0.800
O95     29.132208489   19.492628368   15.751634059 XXXX 1      oap1    O  -0.800
O96     29.350115463   18.963310109   22.906164319 XXXX 1      oap1    O  -0.800
O97      6.115008604    9.486950071    3.532542867 XXXX 1      oap1    O  -0.650
O98      5.596446576   11.674050277    8.526796127 XXXX 1      oap1    O  -0.800
O99      5.437882634   11.432904570   15.749932730 XXXX 1      oap1    O  -0.800
O100     5.449671843   11.646807167   22.658849242 XXXX 1      oap1    O  -0.800
O101    16.009002164   12.575665906    0.988813627 XXXX 1      oap1    O  -0.650
O102    15.045177831   11.574097369    8.778785944 XXXX 1      oap1    O  -0.800
O103    14.908767244   11.220918257   15.871827175 XXXX 1      oap1    O  -0.800
O104    15.033308257   11.491111543   22.744368840 XXXX 1      oap1    O  -0.800
O105    24.062057899   10.185642898    2.485801550 XXXX 1      oap1    O  -0.650
O106    24.211595236   11.278612104    8.837335330 XXXX 1      oap1    O  -0.800
O107    24.337279859   11.086581723   15.902334771 XXXX 1      oap1    O  -0.800
O108    24.451780493   10.962512693   22.917909662 XXXX 1      oap1    O  -0.800
O109    34.045019155   10.606535564    2.294469292 XXXX 1      oap1    O  -0.650
O110    33.803500440   11.139130366    8.925534337 XXXX 1      oap1    O  -0.800
O111    33.809847566   11.297675611   15.906846059 XXXX 1      oap1    O  -0.800
O112    33.871909167   11.672664182   22.472032263 XXXX 1      oap1    O  -0.800
O113     1.625057866    2.544768165    1.801471793 XXXX 1      oap1    O  -0.650
O114     1.182618475    3.372778992    8.665729941 XXXX 1      oap1    O  -0.800
O115     1.162380938    3.304358248   15.657062742 XXXX 1      oap1    O  -0.800
O116     0.803632919    3.228394613   22.667587486 XXXX 1      oap1    O  -0.800
O117     9.287403142    3.734077222    1.764604433 XXXX 1      oap1    O  -0.650
O118    10.396017728    3.309565632    8.617514951 XXXX 1      oap1    O  -0.800
O119    10.298948086    3.474045995   15.587263451 XXXX 1      oap1    O  -0.800
O120    10.521394764    3.601058352   22.427873318 XXXX 1      oap1    O  -0.800
O121    19.909272404    1.437630106    3.213525974 XXXX 1      oap1    O  -0.650
O122    19.560108200    3.378304060    8.811825059 XXXX 1      oap1    O  -0.800
O123    19.601049764    3.185721200   15.710880130 XXXX 1      oap1    O  -0.800
O124    19.620918649    3.416220934   22.653670945 XXXX 1      oap1    O  -0.800
O125    29.207073277    3.025011368    1.672641482 XXXX 1      oap1    O  -0.650
O126    29.147841380    3.410933938    8.701269365 XXXX 1      oap1    O  -0.800
O127    28.983072744    3.297488744   15.687351822 XXXX 1      oap1    O  -0.800
O128    29.139682230    3.426568561   22.504842700 XXXX 1      oap1    O  -0.800
O129     6.687467068   32.206361389    1.843023638 XXXX 1      oap1    O  -0.650
O130     6.431050874   32.186217634    8.854480255 XXXX 1      oap1    O  -0.800
O131     6.289844705   32.250959061   15.639984733 XXXX 1      oap1    O  -0.800
O132     6.193746984   32.380800703   22.525006621 XXXX 1      oap1    O  -0.800
O133    17.484911830   33.364883356    3.761053139 XXXX 1      oap1    O  -0.650
O134    15.951393679   32.167306780    8.537296281 XXXX 1      oap1    O  -0.800
O135    15.974306168   32.332996409   15.680695312 XXXX 1      oap1    O  -0.800
O136    16.000638413   32.346728873   22.671123555 XXXX 1      oap1    O  -0.800
O137    27.170905326   30.454932344    2.902251442 XXXX 1      oap1    O  -0.650
O138    25.214603201   32.205269955    8.406463253 XXXX 1      oap1    O  -0.800
O139    25.248473622   32.359589739   15.464471650 XXXX 1      oap1    O  -0.800
O140    25.174774172   32.345371323   22.475938418 XXXX 1      oap1    O  -0.800
O141    36.551941932   33.590214526    3.433137148 XXXX 1      oap1    O  -0.650
O142    34.925470948   32.376521818    8.643439859 XXXX 1      oap1    O  -0.800
O143    34.801533958   32.293786778   15.677702121 XXXX 1      oap1    O  -0.800
O144    34.914849051   32.197397539   22.618593553 XXXX 1      oap1    O  -0.800
O145     2.013380280   24.239494464    1.843090355 XXXX 1      oap1    O  -0.650
O146     1.638397901   24.222522076    8.778904084 XXXX 1      oap1    O  -0.800
O147     1.656652555   24.123589379   15.663208599 XXXX 1      oap1    O  -0.800
O148     1.741504580   24.329249386   22.464140671 XXXX 1      oap1    O  -0.800
O149    12.106789921   24.159439294    1.844688289 XXXX 1      oap1    O  -0.650
O150    11.166751610   24.181162674    8.702821168 XXXX 1      oap1    O  -0.800
O151    11.273954303   24.280707126   15.708241187 XXXX 1      oap1    O  -0.800
O152    11.129901823   24.207375637   22.777087874 XXXX 1      oap1    O  -0.800
O153    22.221748412   24.904543646    3.241285367 XXXX 1      oap1    O  -0.650
O154    20.875061245   24.145627816    8.733472838 XXXX 1      oap1    O  -0.800
O155    20.721905575   24.083669197   15.695971897 XXXX 1      oap1    O  -0.800
O156    20.469062444   24.159358206   22.467890289 XXXX 1      oap1    O  -0.800
O157    31.071858608   22.446131371    2.983368659 XXXX 1      oap1    O  -0.650
O158    30.195891235   24.359483975    8.755027265 XXXX 1      oap1    O  -0.800
O159    30.302932851   24.307776962   15.822365961 XXXX 1      oap1    O  -0.800
O160    29.989264508   23.870077948   22.548216476 XXXX 1      oap1    O  -0.800
O161     6.937157106   16.171606413    1.748758834 XXXX 1      oap1    O  -0.650
O162     6.567025346   15.988179231    8.792795452 XXXX 1      oap1    O  -0.800
O163     6.294711289   15.903504645   15.728867073 XXXX 1      oap1    O  -0.800
O164     6.284828707   15.990762459   22.622033916 XXXX 1      oap1    O  -0.800
O165    16.980014695   17.778536934    3.151409279 XXXX 1      oap1    O  -0.650
O166    15.670602772   15.848709821    8.619730044 XXXX 1      oap1    O  -0.800
O167    16.088074218   16.158788649   15.776093330 XXXX 1      oap1    O  -0.800
O168    15.959036131   16.041403786   22.956338461 XXXX 1      oap1    O  -0.800
O169    24.723149300   16.116605389    1.861704252 XXXX 1      oap1    O  -0.650
O170    25.560219846   15.939559645    8.842967986 XXXX 1      oap1    O  -0.800
O171    25.589441661   15.826021644   15.781793284 XXXX 1      oap1    O  -0.800
O172    25.368100975   16.158233015   22.747552192 XXXX 1      oap1    O  -0.800
O173    36.145282179   16.374031042    2.590600946 XXXX 1      oap1    O  -0.650
O174    34.750961437   16.007817166    8.778924212 XXXX 1      oap1    O  -0.800
O175    34.867961365   16.138373699   15.736723677 XXXX 1      oap1    O  -0.800
O176    34.830720345   16.104613761   22.709664980 XXXX 1      oap1    O  -0.800
O177     1.368516754    8.353916575    1.279885335 XXXX 1      oap1    O  -0.650
O178     2.054241677    7.913203058    8.714029570 XXXX 1      oap1    O  -0.800
O179     2.058407249    7.919897785   15.785437354 XXXX 1      oap1    O  -0.800
O180     1.476114546    8.106280822   22.538286870 XXXX 1      oap1    O  -0.800
O181    13.391207241    7.242800678    3.188993158 XXXX 1      oap1    O  -0.650
O182    11.444229047    7.939199156    8.843332039 XXXX 1      oap1    O  -0.800
O183    11.759043020    8.027895062   15.906122856 XXXX 1      oap1    O  -0.800
O184    11.251259565    7.754072756   22.677040803 XXXX 1      oap1    O  -0.800
O185    20.401665987    8.469187828    1.769586878 XXXX 1      oap1    O  -0.650
O186    20.673400399    7.856020572    8.850925633 XXXX 1      oap1    O  -0.800
O187    20.966317262    7.992306866   15.855701567 XXXX 1      oap1    O  -0.800
O188    20.503361193    8.110252311   22.627673857 XXXX 1      oap1    O  -0.800
O189    31.394730140    9.330709687    3.300669419 XXXX 1      oap1    O  -0.650
O190    30.028562676    7.684113794    8.690813485 XXXX 1      oap1    O  -0.800
O191    30.018389418    7.952674542   15.689499152 XXXX 1      oap1    O  -0.800
O192    30.310531823    7.940126061   22.820763584 XXXX 1      oap1    O  -0.800
O193     2.848673613   26.805679912    5.576163004 XXXX 1      oap1    O  -0.800
O194     2.464301474   27.174717577   12.337689969 XXXX 1      oap1    O  -0.800
O195     2.609230055   27.246331964   19.147148121 XXXX 1      oap1    O  -0.800
O196     2.686134510   27.427702268   26.026868969 XXXX 1      oap1    O  -0.625
O197    12.195118941   26.600574536    5.466864497 XXXX 1      oap1    O  -0.800
O198    12.048332832   26.945610998   12.268218595 XXXX 1      oap1    O  -0.800
O199    12.431274243   26.836363487   19.433594421 XXXX 1      oap1    O  -0.800
O200    11.822658855   27.213256545   26.300553121 XXXX 1      oap1    O  -0.625
O201    21.223242693   26.907586297    5.277136737 XXXX 1      oap1    O  -0.800
O202    21.666114369   26.994622126   12.165943509 XXXX 1      oap1    O  -0.800
O203    21.518456258   27.179939716   19.003933003 XXXX 1      oap1    O  -0.800
O204    21.680143758   27.229850586   26.285599323 XXXX 1      oap1    O  -0.625
O205    30.718519998   27.214333938    5.138296678 XXXX 1      oap1    O  -0.800
O206    31.310180432   26.921126126   12.412287084 XXXX 1      oap1    O  -0.800
O207    31.089945357   27.102485958   19.290356476 XXXX 1      oap1    O  -0.800
O208    32.370125516   26.004908035   27.631622294 XXXX 1      oap1    O  -0.625
O209     7.251554028   18.844486528    5.226524257 XXXX 1      oap1    O  -0.800
O210     7.410741512   18.800933867   12.300488826 XXXX 1      oap1    O  -0.800
O211     7.570177247   18.967224508   19.179296101 XXXX 1      oap1    O  -0.800
O212     9.347151850   18.816592884   27.276112759 XXXX 1      oap1    O  -0.650
O213    16.443174030   18.974858679    5.191499160 XXXX 1      oap1    O  -0.800
O214    16.803497014   18.734585014   12.203581794 XXXX 1      oap1    O  -0.800
O215    16.692830618   19.090286175   19.091826027 XXXX 1      oap1    O  -0.800
O216    16.381310365   19.345804054   28.776316459 XXXX 1      oap1    O  -0.650
O217    26.342431418   18.648872802    5.511871501 XXXX 1      oap1    O  -0.800
O218    26.666928865   18.494946953   12.425112256 XXXX 1      oap1    O  -0.800
O219    26.352237284   18.702119453   19.210134869 XXXX 1      oap1    O  -0.800
O220    27.364710961   18.002117376   28.829811641 XXXX 1      oap1    O  -0.625
O221    35.337114209   18.731406029    5.373789001 XXXX 1      oap1    O  -0.800
O222    35.526717131   19.033123996   12.193581007 XXXX 1      oap1    O  -0.800
O223    35.809723616   18.806240318   19.301135741 XXXX 1      oap1    O  -0.800
O224    35.503767222   19.224478251   26.096630331 XXXX 1      oap1    O  -0.625
O225     2.524174384   10.783964830    5.010631993 XXXX 1      oap1    O  -0.800
O226     2.677040696   10.774701441   12.083623377 XXXX 1      oap1    O  -0.800
O227     2.462329206   10.781701367   19.150919903 XXXX 1      oap1    O  -0.800
O228     3.698126336   10.553315367   26.361718899 XXXX 1      oap1    O  -0.650
O229    12.410268758   10.782864732    4.976933773 XXXX 1      oap1    O  -0.800
O230    12.000685024   10.583911094   12.301844958 XXXX 1      oap1    O  -0.800
O231    12.607587532   10.648169541   19.340468826 XXXX 1      oap1    O  -0.800
O232    12.999382457   10.743102761   28.279519281 XXXX 1      oap1    O  -0.650
O233    21.561314240   10.510574533    5.270065557 XXXX 1      oap1    O  -0.800
O234    21.630993641   10.389962066   12.241409078 XXXX 1      oap1    O  -0.800
O235    21.854415333   10.515471300   19.440640205 XXXX 1      oap1    O  -0.800
O236    21.278374673   10.887671896   26.006839230 XXXX 1      oap1    O  -0.625
O237    31.220930713   10.460863732    5.499783395 XXXX 1      oap1    O  -0.800
O238    31.156672018   10.460472839   12.401103199 XXXX 1      oap1    O  -0.800
O239    30.831571972   10.475539031   19.109374039 XXXX 1      oap1    O  -0.800
O240    30.773010556   11.102960788   26.069772631 XXXX 1      oap1    O  -0.625
O241     7.319551272    2.598891673    5.408450721 XXXX 1      oap1    O  -0.800
O242     7.388342136    2.669860186   12.209555927 XXXX 1      oap1    O  -0.800
O243     7.277756592    2.450616674   19.311031009 XXXX 1      oap1    O  -0.800
O244     9.000022064    1.568386750   26.517366558 XXXX 1      oap1    O  -0.650
O245    17.261268976    2.292817249    5.797135610 XXXX 1      oap1    O  -0.800
O246    16.733928564    2.424378560   12.189524240 XXXX 1      oap1    O  -0.800
O247    16.767156628    2.538530497   19.116362526 XXXX 1      oap1    O  -0.800
O248    17.607492782    1.325638947   26.289374233 XXXX 1      oap1    O  -0.650
O249    26.068709468    2.448490068    5.003450263 XXXX 1      oap1    O  -0.800
O250    26.086785335    2.761856005   12.022740350 XXXX 1      oap1    O  -0.800
O251    25.975443575    2.694250332   19.004815470 XXXX 1      oap1    O  -0.800
O252    26.185965449    3.324266458   25.744387028 XXXX 1      oap1    O  -0.625
O253    35.752431269    2.332373379    5.268930244 XXXX 1      oap1    O  -0.800
O254    35.690332166    2.649594184   12.197049230 XXXX 1      oap1    O  -0.800
O255    36.088534037    2.402431084   19.450254132 XXXX 1      oap1    O  -0.800
O256    35.557718928    2.675828263   26.302622822 XXXX 1      oap1    O  -0.625
O257     8.696223907   30.210233685    5.234874742 XXXX 1      oap1    O  -0.800
O258     8.698873816   30.037761670   12.258116039 XXXX 1      oap1    O  -0.800
O259     8.711719772   30.186630983   19.264557844 XXXX 1      oap1    O  -0.800
O260     8.398951277   29.748721830   26.078176447 XXXX 1      oap1    O  -0.625
O261    17.936235519   30.622459599    5.215713950 XXXX 1      oap1    O  -0.800
O262    18.068783933   30.047766384   12.144872295 XXXX 1      oap1    O  -0.800
O263    18.125167901   30.002770644   19.109082798 XXXX 1      oap1    O  -0.800
O264    19.533886471   29.085778385   27.473661358 XXXX 1      oap1    O  -0.625
O265    27.593443913   29.977624693    5.144668193 XXXX 1      oap1    O  -0.800
O266    27.430345620   29.980370312   12.147704423 XXXX 1      oap1    O  -0.800
O267    27.515308116   30.272677698   19.105991199 XXXX 1      oap1    O  -0.800
O268    27.483784723   29.606105209   26.201345848 XXXX 1      oap1    O  -0.625
O269    36.522766283   29.714294001    5.075390913 XXXX 1      oap1    O  -0.800
O270    36.743001518   30.100751309   12.043199512 XXXX 1      oap1    O  -0.800
O271    36.699588153   30.393660970   19.289803399 XXXX 1      oap1    O  -0.800
O272    36.760912749   29.803683373   26.169248716 XXXX 1      oap1    O  -0.625
O273     3.823567014   22.661464219    5.581556322 XXXX 1      oap1    O  -0.800
O274     3.841326932   21.951019256   12.289253778 XXXX 1      oap1    O  -0.800
O275     3.927026068   21.956314477   19.021722821 XXXX 1      oap1    O  -0.800
O276     4.125292919   21.737553301   26.057485491 XXXX 1      oap1    O  -0.625
O277    13.379258490   22.360253378    5.777268274 XXXX 1      oap1    O  -0.800
O278    13.190638176   21.924903474   12.300404765 XXXX 1      oap1    O  -0.800
O279    13.399453713   22.238127477   19.317125523 XXXX 1      oap1    O  -0.800
O280    12.808019307   21.656905693   26.299409093 XXXX 1      oap1    O  -0.625
O281    22.796109429   22.139855012    5.419446925 XXXX 1      oap1    O  -0.800
O282    22.925879719   21.781151614   12.156754954 XXXX 1      oap1    O  -0.800
O283    22.718079466   21.991148442   19.281770261 XXXX 1      oap1    O  -0.800
O284    22.437403534   21.905385034   26.304490849 XXXX 1      oap1    O  -0.625
O285    32.011845902   22.074254649    5.141735723 XXXX 1      oap1    O  -0.800
O286    32.100651520   22.081698776   12.317795076 XXXX 1      oap1    O  -0.800
O287    32.108527325   21.752951421   19.046172931 XXXX 1      oap1    O  -0.800
O288    32.217620446   21.776305129   26.273324213 XXXX 1      oap1    O  -0.625
O289     8.695222670   14.039804945    5.367393543 XXXX 1      oap1    O  -0.800
O290     8.627538300   13.878126076   12.224734107 XXXX 1      oap1    O  -0.800
O291     8.560389659   13.699988144   19.259218821 XXXX 1      oap1    O  -0.800
O292     8.736237676   13.318077777   26.223124311 XXXX 1      oap1    O  -0.625
O293    18.013834786   13.906199480    5.305789289 XXXX 1      oap1    O  -0.800
O294    18.089219940   14.134010224   12.336569074 XXXX 1      oap1    O  -0.800
O295    18.176880924   13.776621706   19.123737879 XXXX 1      oap1    O  -0.800
O296    17.666773960   13.581145463   26.047790169 XXXX 1      oap1    O  -0.625
O297    27.473814747   14.031793223    5.330649408 XXXX 1      oap1    O  -0.800
O298    27.413759193   13.682913188   12.239817790 XXXX 1      oap1    O  -0.800
O299    27.454435473   13.690410129   19.245608862 XXXX 1      oap1    O  -0.800
O300    27.116300211   13.579558777   26.293204170 XXXX 1      oap1    O  -0.625
O301    36.952082273   13.932542282    5.452619223 XXXX 1      oap1    O  -0.800
O302    36.961046160   13.734508635   12.282415889 XXXX 1      oap1    O  -0.800
O303    36.857978573   14.134419350   19.473515812 XXXX 1      oap1    O  -0.800
O304    37.118394507   14.617881888   28.662085548 XXXX 1      oap1    O  -0.625
O305     4.103188443    5.538151201    5.245781992 XXXX 1      oap1    O  -0.800
O306     4.147552659    5.805946120   12.363529599 XXXX 1      oap1    O  -0.800
O307     4.093551786    5.577490310   19.226888146 XXXX 1      oap1    O  -0.800
O308     3.672268764    5.264704962   26.152012202 XXXX 1      oap1    O  -0.625
O309    13.315649234    5.779564254    5.050822030 XXXX 1      oap1    O  -0.800
O310    13.433280090    5.876085031   12.344070784 XXXX 1      oap1    O  -0.800
O311    13.213393267    5.732913605   19.282053297 XXXX 1      oap1    O  -0.800
O312    13.349972872    5.439914868   26.164727645 XXXX 1      oap1    O  -0.625
O313    22.691073450    5.796051551    5.357790918 XXXX 1      oap1    O  -0.800
O314    22.825521608    5.958124715   12.227815336 XXXX 1      oap1    O  -0.800
O315    22.610949065    5.968633708   19.102817070 XXXX 1      oap1    O  -0.800
O316    23.111604809    7.629323125   27.624840368 XXXX 1      oap1    O  -0.625
O317    32.073712619    6.263394019    5.560176621 XXXX 1      oap1    O  -0.800
O318    32.302052619    5.989901243   12.541512580 XXXX 1      oap1    O  -0.800
O319    32.275579722    5.826244777   19.221463026 XXXX 1      oap1    O  -0.800
O320    32.249161073    5.484388976   26.122895398 XXXX 1      oap1    O  -0.625
O321     7.294928545   25.433385048    5.466564701 XXXX 1      oap1    O  -0.800
O322     7.322983785   25.535262749   12.414555626 XXXX 1      oap1    O  -0.800
O323     7.642868553   25.691562333   19.257135153 XXXX 1      oap1    O  -0.800
O324     7.660558389   25.584944230   25.928936102 XXXX 1      oap1    O  -0.625
O325    16.620731022   25.306587583    5.320037940 XXXX 1      oap1    O  -0.800
O326    16.891726877   25.496619067   12.169326313 XXXX 1      oap1    O  -0.800
O327    17.012458627   25.582953152   19.164230457 XXXX 1      oap1    O  -0.800
O328    16.658225890   24.439634191   28.025703074 XXXX 1      oap1    O  -0.625
O329    26.180613386   25.671595196    5.356420341 XXXX 1      oap1    O  -0.800
O330    26.264982431   25.576936830   12.226866211 XXXX 1      oap1    O  -0.800
O331    26.432997369   25.644657853   19.196111982 XXXX 1      oap1    O  -0.800
O332    27.182891573   25.757417380   26.084656399 XXXX 1      oap1    O  -0.625
O333    35.868248865   25.654298123    5.264859014 XXXX 1      oap1    O  -0.800
O334    35.420261700   25.544666870   12.232087050 XXXX 1      oap1    O  -0.800
O335    35.544986114   25.423702366   19.265254896 XXXX 1      oap1    O  -0.800
O336    36.704205852   25.676078161   26.560680054 XXXX 1      oap1    O  -0.625
O337     3.009484096   17.545271489    5.282856997 XXXX 1      oap1    O  -0.800
O338     2.738469057   17.244736117   12.191761811 XXXX 1      oap1    O  -0.800
O339     2.711485243   17.304380269   19.440467527 XXXX 1      oap1    O  -0.800
O340     3.346243053   17.784653334   26.189866837 XXXX 1      oap1    O  -0.625
O341    11.885265701   17.177700299    5.474677901 XXXX 1      oap1    O  -0.800
O342    12.323123052   17.332081168   12.331185637 XXXX 1      oap1    O  -0.800
O343    12.366500472   17.475371571   19.282264777 XXXX 1      oap1    O  -0.800
O344    12.430459901   17.457402880   26.149989322 XXXX 1      oap1    O  -0.625
O345    21.903830825   17.356009759    5.191822815 XXXX 1      oap1    O  -0.800
O346    21.545951223   17.192294034   12.266828416 XXXX 1      oap1    O  -0.800
O347    21.872673596   17.494783084   19.143237428 XXXX 1      oap1    O  -0.800
O348    22.079885082   17.783070641   26.163913505 XXXX 1      oap1    O  -0.625
O349    31.038745775   17.448701348    5.289480225 XXXX 1      oap1    O  -0.800
O350    30.990074859   17.239641391   12.279514050 XXXX 1      oap1    O  -0.800
O351    31.037525123   17.402627711   19.163587568 XXXX 1      oap1    O  -0.800
O352    30.188455269   16.866129394   27.958216297 XXXX 1      oap1    O  -0.625
O353     7.897492782    9.473708455    5.158088192 XXXX 1      oap1    O  -0.800
O354     7.899590452    9.387733748   12.071430031 XXXX 1      oap1    O  -0.800
O355     7.739040477    9.196277685   19.055687880 XXXX 1      oap1    O  -0.800
O356     8.033946137    9.281983785   26.107671871 XXXX 1      oap1    O  -0.625
O357    16.782617184    9.407747464    5.301518603 XXXX 1      oap1    O  -0.800
O358    16.899960002    9.075793148   12.238099176 XXXX 1      oap1    O  -0.800
O359    17.063573893    9.228077584   19.283236757 XXXX 1      oap1    O  -0.800
O360    17.526997388    9.440869297   26.258099304 XXXX 1      oap1    O  -0.625
O361    26.119685888    9.300686479    5.286007194 XXXX 1      oap1    O  -0.800
O362    26.329819848    9.308030695   12.261278754 XXXX 1      oap1    O  -0.800
O363    26.462756296    9.316176560   19.175543479 XXXX 1      oap1    O  -0.800
O364    26.792006828    8.901626144   26.172841798 XXXX 1      oap1    O  -0.625
O365    35.412579390    8.594302534    5.676162956 XXXX 1      oap1    O  -0.800
O366    35.861509363    9.205530916   12.215774271 XXXX 1      oap1    O  -0.800
O367    35.995851581    9.326694150   19.134072692 XXXX 1      oap1    O  -0.800
O368    35.916167041    9.677866827   26.335268468 XXXX 1      oap1    O  -0.625
O369     3.163415735    1.225976751    5.358249866 XXXX 1      oap1    O  -0.800
O370     2.870041302    1.069623994   12.224559073 XXXX 1      oap1    O  -0.800
O371     2.408045947    0.804144262   19.392481821 XXXX 1      oap1    O  -0.800
O372     3.296676416    1.093374368   26.189668546 XXXX 1      oap1    O  -0.625
O373    12.185407548    1.230188700    5.221704637 XXXX 1      oap1    O  -0.800
O374    12.432301282    1.318200221   12.206751754 XXXX 1      oap1    O  -0.800
O375    12.168998599    1.091842196   19.324223723 XXXX 1      oap1    O  -0.800
O376    12.766389616    0.984900599   26.106522277 XXXX 1      oap1    O  -0.625
O377    21.399010350    0.752291645    5.105378476 XXXX 1      oap1    O  -0.800
O378    21.736958601    1.178215813   12.105911556 XXXX 1      oap1    O  -0.800
O379    21.673370014    1.127943196   19.069578846 XXXX 1      oap1    O  -0.800
O380    21.977014020    1.526311700   26.169436818 XXXX 1      oap1    O  -0.625
O381    31.175820467    1.196838288    5.203702510 XXXX 1      oap1    O  -0.800
O382    31.188072244    1.147741898   12.135696240 XXXX 1      oap1    O  -0.800
O383    31.264478316    1.156382085   19.042878029 XXXX 1      oap1    O  -0.800
O384    31.701374163    1.230385375   26.032511990 XXXX 1      oap1    O  -0.625
O385     2.439524891   27.103384139    8.080355718 XXXX 1      oap1    O  -0.800
O386     2.565700656   26.958847054   14.792775236 XXXX 1      oap1    O  -0.800
O387     2.447635124   26.983155754   21.622281419 XXXX 1      oap1    O  -0.800
O388     3.156617642   26.405301692   28.249122625 XXXX 1      oap1    O  -0.650
O389    11.942008737   27.259983492    7.934032033 XXXX 1      oap1    O  -0.800
O390    12.192326204   27.018359440   14.708472345 XXXX 1      oap1    O  -0.800
O391    12.156114428   27.128542588   21.949273953 XXXX 1      oap1    O  -0.800
O392    12.380676763   27.195509973   28.793768155 XXXX 1      oap1    O  -0.650
O393    21.199864614   27.073578284    7.623349491 XXXX 1      oap1    O  -0.800
O394    21.678935298   26.868036575   14.635984357 XXXX 1      oap1    O  -0.800
O395    21.721882368   26.900083246   21.517559039 XXXX 1      oap1    O  -0.800
O396    23.227642636   26.227015365   27.987809477 XXXX 1      oap1    O  -0.650
O397    31.109280474   27.009715904    7.534596284 XXXX 1      oap1    O  -0.800
O398    30.687567428   27.087549821   14.738591730 XXXX 1      oap1    O  -0.800
O399    30.841552441   27.105455773   21.741759549 XXXX 1      oap1    O  -0.800
O400    31.173791574   27.904607664   28.634811915 XXXX 1      oap1    O  -0.650
O401     7.439344530   18.975717807    7.716322669 XXXX 1      oap1    O  -0.800
O402     7.336471567   18.811341100   14.760001488 XXXX 1      oap1    O  -0.800
O403     7.481748871   18.833818837   21.672013086 XXXX 1      oap1    O  -0.800
O404     7.190820301   18.845691964   28.549513378 XXXX 1      oap1    O  -0.650
O405    16.706369237   18.646914452    7.647528477 XXXX 1      oap1    O  -0.800
O406    16.965223475   18.761343862   14.669884716 XXXX 1      oap1    O  -0.800
O407    16.737518154   18.816275860   21.559218946 XXXX 1      oap1    O  -0.800
O408    17.847146414   20.927767252   27.520641555 XXXX 1      oap1    O  -0.650
O409    26.180039736   19.054701135    7.774384813 XXXX 1      oap1    O  -0.800
O410    26.139855675   18.720323153   14.781709642 XXXX 1      oap1    O  -0.800
O411    26.344628967   18.791932052   21.646803585 XXXX 1      oap1    O  -0.800
O412    26.471328139   16.298358715   27.258664074 XXXX 1      oap1    O  -0.650
O413    35.450832927   18.862282636    7.791495246 XXXX 1      oap1    O  -0.800
O414    35.728675603   18.888257385   14.716486517 XXXX 1      oap1    O  -0.800
O415    35.693944771   18.904872108   21.753343844 XXXX 1      oap1    O  -0.800
O416    36.613709044   20.939552303   27.650928674 XXXX 1      oap1    O  -0.650
O417     2.378320324   10.739253936    7.565596279 XXXX 1      oap1    O  -0.800
O418     3.029643705   10.583625591   14.554953672 XXXX 1      oap1    O  -0.800
O419     2.889802710   10.544078515   21.619794779 XXXX 1      oap1    O  -0.800
O420     3.244532510   10.969351455   28.733290231 XXXX 1      oap1    O  -0.650
O421    12.632535212   10.535788629    7.446676895 XXXX 1      oap1    O  -0.800
O422    11.882632028   10.616699009   14.722393314 XXXX 1      oap1    O  -0.800
O423    12.022294009   10.792022256   21.832116506 XXXX 1      oap1    O  -0.800
O424    10.619594707   11.668078342   27.985198594 XXXX 1      oap1    O  -0.650
O425    21.331960101   10.488208484    7.675995241 XXXX 1      oap1    O  -0.800
O426    21.439245805   10.589642018   14.788393493 XXXX 1      oap1    O  -0.800
O427    21.380684769   10.863564150   21.865411419 XXXX 1      oap1    O  -0.800
O428    22.223699257    9.974067570   28.138586597 XXXX 1      oap1    O  -0.650
O429    30.808485361   11.033408381    7.880064347 XXXX 1      oap1    O  -0.800
O430    30.692218993   10.638179729   14.863470720 XXXX 1      oap1    O  -0.800
O431    30.651268390   10.733556892   21.657335454 XXXX 1      oap1    O  -0.800
O432    32.084751416   12.723757288   27.564801239 XXXX 1      oap1    O  -0.650
O433     7.563656327    2.668883652    7.795466913 XXXX 1      oap1    O  -0.800
O434     7.718052360    2.526292600   14.654354385 XXXX 1      oap1    O  -0.800
O435     7.363831534    2.452041677   21.797906065 XXXX 1      oap1    O  -0.800
O436     7.401679044    2.144599435   28.518113940 XXXX 1      oap1    O  -0.650
O437    16.603059498    3.093157422    8.051474387 XXXX 1      oap1    O  -0.800
O438    17.001425460    2.419525568   14.628612994 XXXX 1      oap1    O  -0.800
O439    16.886564437    2.507724907   21.614932569 XXXX 1      oap1    O  -0.800
O440    17.794783803    2.438379996   28.450151845 XXXX 1      oap1    O  -0.650
O441    26.169806991    2.547639823    7.609738517 XXXX 1      oap1    O  -0.800
O442    26.751132257    2.267194661   14.408095839 XXXX 1      oap1    O  -0.800
O443    26.043883241    2.440429420   21.459200022 XXXX 1      oap1    O  -0.800
O444    26.829592503    1.039681765   26.744551383 XXXX 1      oap1    O  -0.650
O445    35.892655377    2.469295451    7.718571479 XXXX 1      oap1    O  -0.800
O446    36.010002194    2.494437428   14.630681486 XXXX 1      oap1    O  -0.800
O447    35.533490574    2.712192060   21.763211463 XXXX 1      oap1    O  -0.800
O448    37.864496224    2.523316576   27.220770287 XXXX 1      oap1    O  -0.650
O449     8.726823557   30.392299158    7.727667864 XXXX 1      oap1    O  -0.800
O450     8.722877884   30.347321033   14.735461204 XXXX 1      oap1    O  -0.800
O451     8.692845230   30.154801589   21.700565415 XXXX 1      oap1    O  -0.800
O452     8.211510052   29.619407702   28.558009704 XXXX 1      oap1    O  -0.650
O453    17.903262110   29.944440856    7.636051182 XXXX 1      oap1    O  -0.800
O454    18.099331308   30.143181044   14.669888310 XXXX 1      oap1    O  -0.800
O455    18.149084749   30.103482920   21.602275592 XXXX 1      oap1    O  -0.800
O456    19.433190528   31.432746426   26.615627983 XXXX 1      oap1    O  -0.650
O457    27.469771374   30.455695714    7.405014476 XXXX 1      oap1    O  -0.800
O458    27.333549292   30.403270551   14.528040358 XXXX 1      oap1    O  -0.800
O459    27.446020215   30.384381162   21.590175892 XXXX 1      oap1    O  -0.800
O460    27.416697294   30.595876105   28.535789546 XXXX 1      oap1    O  -0.650
O461    36.792170356   30.825393337    7.283023632 XXXX 1      oap1    O  -0.800
O462    36.938121907   30.429977408   14.620984097 XXXX 1      oap1    O  -0.800
O463    36.826293703   29.944295983   21.687697710 XXXX 1      oap1    O  -0.800
O464    36.926729004   30.151083873   28.614608538 XXXX 1      oap1    O  -0.650
O465     3.613440038   21.779585277    7.960741110 XXXX 1      oap1    O  -0.800
O466     3.873769064   21.901209698   14.724839178 XXXX 1      oap1    O  -0.800
O467     4.039744838   22.079954705   21.551556785 XXXX 1      oap1    O  -0.800
O468     3.819154862   24.115900031   26.595762655 XXXX 1      oap1    O  -0.650
O469    12.945159328   21.631910657    8.037137146 XXXX 1      oap1    O  -0.800
O470    13.319934540   21.912971652   14.779535886 XXXX 1      oap1    O  -0.800
O471    13.384111740   22.008024215   21.698436535 XXXX 1      oap1    O  -0.800
O472    12.222391171   21.873728294   28.793083329 XXXX 1      oap1    O  -0.650
O473    22.727137111   21.786772110    7.914385054 XXXX 1      oap1    O  -0.800
O474    22.984649160   21.756954817   14.654421387 XXXX 1      oap1    O  -0.800
O475    22.817176776   21.816954700   21.761681669 XXXX 1      oap1    O  -0.800
O476    22.318880272   22.459864624   28.754480407 XXXX 1      oap1    O  -0.650
O477    31.960605622   22.475190294    7.671336840 XXXX 1      oap1    O  -0.800
O478    32.129668865   22.004875694   14.704083416 XXXX 1      oap1    O  -0.800
O479    32.201786390   22.081950287   21.567626561 XXXX 1      oap1    O  -0.800
O480    31.324454929   23.128128191   28.175656481 XXXX 1      oap1    O  -0.650
O481     8.728666458   13.855433325    7.876151714 XXXX 1      oap1    O  -0.800
O482     8.651497988   14.076763989   14.709750955 XXXX 1      oap1    O  -0.800
O483     8.554458445   13.843589756   21.757224686 XXXX 1      oap1    O  -0.800
O484     9.128664614   15.731663521   26.538559199 XXXX 1      oap1    O  -0.650
O485    18.076714827   13.825911647    7.748685459 XXXX 1      oap1    O  -0.800
O486    18.137345271   13.712380677   14.753921583 XXXX 1      oap1    O  -0.800
O487    18.077391441   14.034954346   21.541696592 XXXX 1      oap1    O  -0.800
O488    17.468653948   15.971060971   26.964927509 XXXX 1      oap1    O  -0.650
O489    27.466308703   13.765780137    7.810077941 XXXX 1      oap1    O  -0.800
O490    27.455349637   13.799020758   14.749914448 XXXX 1      oap1    O  -0.800
O491    27.623055688   13.780397698   21.736451210 XXXX 1      oap1    O  -0.800
O492    27.282795245   13.336693664   28.653887185 XXXX 1      oap1    O  -0.650
O493    36.804382191   14.192304946    7.879209540 XXXX 1      oap1    O  -0.800
O494    36.940046058   13.897593703   14.804765940 XXXX 1      oap1    O  -0.800
O495    36.751121934   13.789283663   21.856158750 XXXX 1      oap1    O  -0.800
O496    34.912554884   13.891725246   27.579741103 XXXX 1      oap1    O  -0.650
O497     3.958779798    5.752110238    7.759933318 XXXX 1      oap1    O  -0.800
O498     4.016611247    5.616154683   14.874480244 XXXX 1      oap1    O  -0.800
O499     4.135968475    5.700735438   21.747451449 XXXX 1      oap1    O  -0.800
O500     3.528711416    7.737545529   26.844018261 XXXX 1      oap1    O  -0.650
O501    13.297360236    5.886983200    7.548486474 XXXX 1      oap1    O  -0.800
O502    13.359490261    5.620590002   14.811100226 XXXX 1      oap1    O  -0.800
O503    13.353581032    5.544529300   21.728830377 XXXX 1      oap1    O  -0.800
O504    13.376857733    4.099397223   28.223144908 XXXX 1      oap1    O  -0.650
O505    22.837627010    5.597321048    7.731736396 XXXX 1      oap1    O  -0.800
O506    22.835207712    5.529615253   14.683016423 XXXX 1      oap1    O  -0.800
O507    22.729447209    5.618205890   21.561589369 XXXX 1      oap1    O  -0.800
O508    22.356287760    5.384482492   28.576683402 XXXX 1      oap1    O  -0.650
O509    32.093426704    5.325091667    7.774631756 XXXX 1      oap1    O  -0.800
O510    31.896190529    5.462039267   14.832988046 XXXX 1      oap1    O  -0.800
O511    32.240282390    5.634284653   21.663903014 XXXX 1      oap1    O  -0.800
O512    31.624604645    6.098701395   28.506846589 XXXX 1      oap1    O  -0.650
O513     7.692043352   25.589488884    7.766664047 XXXX 1      oap1    O  -0.800
O514     7.544787115   25.543483013   14.856727336 XXXX 1      oap1    O  -0.800
O515     7.776903642   25.660494037   21.773688730 XXXX 1      oap1    O  -0.800
O516     5.624789583   26.374743571   27.244297437 XXXX 1      oap1    O  -0.650
O517    17.089897687   25.790239362    7.766340120 XXXX 1      oap1    O  -0.800
O518    17.102404627   25.536790955   14.638017683 XXXX 1      oap1    O  -0.800
O519    17.086432173   25.653625108   21.660541260 XXXX 1      oap1    O  -0.800
O520    15.826706607   26.632552245   27.445602022 XXXX 1      oap1    O  -0.650
O521    26.546726332   25.608655233    7.828580793 XXXX 1      oap1    O  -0.800
O522    26.395216679   25.510887803   14.669973800 XXXX 1      oap1    O  -0.800
O523    26.532334408   25.540659544   21.782555690 XXXX 1      oap1    O  -0.800
O524    27.278702883   26.451782951   28.476801417 XXXX 1      oap1    O  -0.650
O525    35.649343195   25.566077396    7.690147620 XXXX 1      oap1    O  -0.800
O526    35.802405455   25.825036758   14.661369456 XXXX 1      oap1    O  -0.800
O527    36.103022118   25.741586241   21.700606231 XXXX 1      oap1    O  -0.800
O528    36.973710803   25.955738736   29.055873513 XXXX 1      oap1    O  -0.650
O529     2.744947426   17.443805800    7.677252251 XXXX 1      oap1    O  -0.800
O530     2.716459847   17.449192042   14.573214411 XXXX 1      oap1    O  -0.800
O531     3.008735616   17.569169374   21.901119022 XXXX 1      oap1    O  -0.800
O532     1.748271505   17.098419292   28.014059953 XXXX 1      oap1    O  -0.650
O533    12.444238806   17.770092100    7.863200476 XXXX 1      oap1    O  -0.800
O534    12.461178825   17.567327259   14.762342354 XXXX 1      oap1    O  -0.800
O535    12.097159710   17.389556210   21.790737160 XXXX 1      oap1    O  -0.800
O536    11.601494579   17.127417703   28.554139563 XXXX 1      oap1    O  -0.650
O537    21.132848211   16.959437294    7.579177413 XXXX 1      oap1    O  -0.800
O538    21.965400253   17.266182225   14.751397963 XXXX 1      oap1    O  -0.800
O539    21.631916603   17.368459078   21.652025259 XXXX 1      oap1    O  -0.800
O540    21.856845193   17.758349303   28.703178668 XXXX 1      oap1    O  -0.650
O541    30.884051597   17.356533074    7.686603003 XXXX 1      oap1    O  -0.800
O542    31.127230177   17.368377655   14.710868202 XXXX 1      oap1    O  -0.800
O543    31.261687135   17.595021020   21.636684225 XXXX 1      oap1    O  -0.800
O544    32.192375202   17.032954894   29.389782131 XXXX 1      oap1    O  -0.650
O545     7.507594090    9.098546848    7.582912547 XXXX 1      oap1    O  -0.800
O546     7.159246698    9.072421814   14.417455093 XXXX 1      oap1    O  -0.800
O547     7.414537397    9.158523400   21.551919863 XXXX 1      oap1    O  -0.800
O548     7.888467874    9.484091179   28.539715518 XXXX 1      oap1    O  -0.650
O549    17.039798222    9.326252080    7.731411033 XXXX 1      oap1    O  -0.800
O550    16.985485753    9.305175742   14.720395957 XXXX 1      oap1    O  -0.800
O551    17.072900704    9.359630074   21.788776462 XXXX 1      oap1    O  -0.800
O552    15.659474795    7.826142976   27.019731339 XXXX 1      oap1    O  -0.650
O553    26.489585023    9.282070868    7.669549809 XXXX 1      oap1    O  -0.800
O554    26.554275638    9.124589664   14.746005154 XXXX 1      oap1    O  -0.800
O555    26.460593798    9.130991057   21.707991412 XXXX 1      oap1    O  -0.800
O556    26.917621594    8.948424592   28.576068091 XXXX 1      oap1    O  -0.650
O557    35.978482486    9.393695202    7.878515991 XXXX 1      oap1    O  -0.800
O558    36.035049143    9.371436026   14.758094186 XXXX 1      oap1    O  -0.800
O559    35.917779920    9.380043663   21.676444987 XXXX 1      oap1    O  -0.800
O560    33.901328686   10.848621616   27.337837249 XXXX 1      oap1    O  -0.650
O561     2.887830490    1.052656065    7.740566075 XXXX 1      oap1    O  -0.800
O562     2.902165485    1.206093510   14.681859792 XXXX 1      oap1    O  -0.800
O563     2.947163592    1.096947551   21.798877211 XXXX 1      oap1    O  -0.800
O564     2.780992662    0.750128486   28.607856594 XXXX 1      oap1    O  -0.650
O565    12.258252531    1.083285153    7.663278124 XXXX 1      oap1    O  -0.800
O566    12.152200040    1.042879170   14.693198969 XXXX 1      oap1    O  -0.800
O567    12.276212002    1.137456290   21.777567454 XXXX 1      oap1    O  -0.800
O568    11.404458363   -0.879739532   27.309130015 XXXX 1      oap1    O  -0.650
O569    21.610008894    0.872556435    7.515947547 XXXX 1      oap1    O  -0.800
O570    21.699235014    1.262253184   14.631783249 XXXX 1      oap1    O  -0.800
O571    21.559744872    1.161494390   21.623865078 XXXX 1      oap1    O  -0.800
O572    20.405498670    0.771253565   27.909275048 XXXX 1      oap1    O  -0.650
O573    31.088316519    1.139138443    7.643966316 XXXX 1      oap1    O  -0.800
O574    31.185041032    1.119216226   14.669214871 XXXX 1      oap1    O  -0.800
O575    31.049670097    0.985875544   21.451106735 XXXX 1      oap1    O  -0.800
O576    31.323176020    1.605847600   28.365861287 XXXX 1      oap1    O  -0.650
O577     1.411490026   30.898459669    2.174151347 XXXX 1      oap1    O  -0.650
O578     1.767599329   31.140154237   11.166482187 XXXX 1      oap1    O  -0.800
O579     1.728552562   30.968687994   18.177794660 XXXX 1      oap1    O  -0.800
O580     2.098864542   30.640826416   25.250549858 XXXX 1      oap1    O  -0.800
O581    12.371765361   32.812195093    2.811403681 XXXX 1      oap1    O  -0.650
O582    11.419485024   30.930978032   11.195452904 XXXX 1      oap1    O  -0.800
O583    11.436769173   30.991844975   18.046866919 XXXX 1      oap1    O  -0.800
O584    11.069376514   31.133731952   25.086704972 XXXX 1      oap1    O  -0.800
O585    21.132703992   30.629915037    3.919436515 XXXX 1      oap1    O  -0.625
O586    20.859140598   30.807094035   11.055080378 XXXX 1      oap1    O  -0.800
O587    21.011870995   30.841773743   18.074580814 XXXX 1      oap1    O  -0.800
O588    21.085600124   30.922258894   25.153502367 XXXX 1      oap1    O  -0.800
O589    30.190993142   30.607009958    4.297450653 XXXX 1      oap1    O  -0.625
O590    30.137165726   31.013877592   11.154665884 XXXX 1      oap1    O  -0.800
O591    30.401133739   30.913696817   18.052529622 XXXX 1      oap1    O  -0.800
O592    30.389546955   30.925839571   25.058960291 XXXX 1      oap1    O  -0.800
O593     5.354627243   23.533529644    2.567572005 XXXX 1      oap1    O  -0.650
O594     6.782016756   22.731750913   11.239394776 XXXX 1      oap1    O  -0.800
O595     6.760018025   22.835425442   18.198671797 XXXX 1      oap1    O  -0.800
O596     6.390299434   22.986062891   24.886159243 XXXX 1      oap1    O  -0.800
O597    14.032558241   23.196583134    3.637758398 XXXX 1      oap1    O  -0.650
O598    16.122624037   22.685520038   11.329141292 XXXX 1      oap1    O  -0.800
O599    16.275551301   22.771014975   18.161769833 XXXX 1      oap1    O  -0.800
O600    16.449740229   22.913053933   25.216530791 XXXX 1      oap1    O  -0.800
O601    25.785593117   22.662925470    4.346260313 XXXX 1      oap1    O  -0.625
O602    25.636010016   22.807856952   11.170325067 XXXX 1      oap1    O  -0.800
O603    25.597839061   22.505751307   18.318726252 XXXX 1      oap1    O  -0.800
O604    25.631586938   22.914550437   25.162047434 XXXX 1      oap1    O  -0.800
O605    34.742522121   22.847366688    4.351630117 XXXX 1      oap1    O  -0.625
O606    34.750318919   22.761194777   11.278094331 XXXX 1      oap1    O  -0.800
O607    34.892024243   22.824786555   18.235432605 XXXX 1      oap1    O  -0.800
O608    35.097824404   22.889252469   25.225833691 XXXX 1      oap1    O  -0.800
O609     1.294147960   16.741144298    3.447856566 XXXX 1      oap1    O  -0.650
O610     2.115537040   14.581350432   11.325464120 XXXX 1      oap1    O  -0.800
O611     2.075681541   14.652874055   18.228478443 XXXX 1      oap1    O  -0.800
O612     2.067800830   14.649948975   25.100845670 XXXX 1      oap1    O  -0.800
O613    11.674423830   14.534993606    4.427541355 XXXX 1      oap1    O  -0.625
O614    11.536806906   14.507787365   11.327926162 XXXX 1      oap1    O  -0.800
O615    11.266288785   14.728912508   18.170487527 XXXX 1      oap1    O  -0.800
O616    11.024586865   14.724322736   24.748899346 XXXX 1      oap1    O  -0.800
O617    20.793766991   13.526945460    3.887071679 XXXX 1      oap1    O  -0.625
O618    20.778391194   14.569575751   11.165484236 XXXX 1      oap1    O  -0.800
O619    20.928273300   14.658018180   18.145426239 XXXX 1      oap1    O  -0.800
O620    21.038138136   14.754324921   25.019076428 XXXX 1      oap1    O  -0.800
O621    28.919313523   14.812926112    2.185099125 XXXX 1      oap1    O  -0.625
O622    30.227913272   14.538500144   11.140858274 XXXX 1      oap1    O  -0.800
O623    30.492396051   14.575424142   18.098823526 XXXX 1      oap1    O  -0.800
O624    30.386248092   14.703916578   25.134270558 XXXX 1      oap1    O  -0.800
O625     7.128647519    6.328792791    4.288728484 XXXX 1      oap1    O  -0.625
O626     6.809661518    6.764592790   11.037445413 XXXX 1      oap1    O  -0.800
O627     6.808034644    6.663040514   18.167569090 XXXX 1      oap1    O  -0.800
O628     6.567094164    6.625163338   25.154726688 XXXX 1      oap1    O  -0.800
O629    16.333050464    6.355960433    4.148566553 XXXX 1      oap1    O  -0.625
O630    15.611100193    6.683678012   10.997538276 XXXX 1      oap1    O  -0.800
O631    16.338800199    6.329479138   18.149159739 XXXX 1      oap1    O  -0.800
O632    16.067090991    6.639728140   25.027884800 XXXX 1      oap1    O  -0.800
O633    26.017547507    5.759054684    1.365832304 XXXX 1      oap1    O  -0.650
O634    25.841809358    6.295995824   11.176770419 XXXX 1      oap1    O  -0.800
O635    25.699480926    6.450948786   18.190344507 XXXX 1      oap1    O  -0.800
O636    25.836119228    6.367523982   25.130622471 XXXX 1      oap1    O  -0.800
O637    33.062189460    7.159437065    3.569944550 XXXX 1      oap1    O  -0.650
O638    35.200514366    6.313767995   11.369828668 XXXX 1      oap1    O  -0.800
O639    35.281211852    6.466929704   18.197187860 XXXX 1      oap1    O  -0.800
O640    34.917027516    6.580194879   24.891585682 XXXX 1      oap1    O  -0.800
O641     5.730961812   28.131065387    4.439128362 XXXX 1      oap1    O  -0.625
O642     5.579119401   27.768037261   11.418076008 XXXX 1      oap1    O  -0.800
O643     5.449813630   27.784088328   18.223181433 XXXX 1      oap1    O  -0.800
O644     5.537623419   27.197779262   25.016979864 XXXX 1      oap1    O  -0.800
O645    14.891130678   27.670058525    4.202646261 XXXX 1      oap1    O  -0.625
O646    14.856595225   27.731108667   11.256901036 XXXX 1      oap1    O  -0.800
O647    14.926323118   27.552217064   18.074774968 XXXX 1      oap1    O  -0.800
O648    15.284259409   27.745264440   25.312612446 XXXX 1      oap1    O  -0.800
O649    24.610760834   27.917506798    4.292024318 XXXX 1      oap1    O  -0.625
O650    24.345772697   27.910178353   11.288251489 XXXX 1      oap1    O  -0.800
O651    24.420411402   27.866279797   18.177282593 XXXX 1      oap1    O  -0.800
O652    24.704493452   27.000873506   24.872216313 XXXX 1      oap1    O  -0.800
O653    34.673725190   26.916175630    2.233806628 XXXX 1      oap1    O  -0.625
O654    33.806368256   28.067134582   11.390003398 XXXX 1      oap1    O  -0.800
O655    33.793556718   27.914580614   18.088937288 XXXX 1      oap1    O  -0.800
O656    33.917069201   27.363967854   25.040481273 XXXX 1      oap1    O  -0.800
O657     1.018258298   20.081265576    4.277135381 XXXX 1      oap1    O  -0.625
O658     0.764191942   19.265165698   11.110284351 XXXX 1      oap1    O  -0.800
O659     0.741786008   19.612529068   18.280474948 XXXX 1      oap1    O  -0.800
O660     0.826258728   20.000753649   25.160559296 XXXX 1      oap1    O  -0.800
O661    10.425571494   19.999366554    4.262100939 XXXX 1      oap1    O  -0.625
O662    10.210036998   19.666846137   11.380068221 XXXX 1      oap1    O  -0.800
O663    10.208243839   19.709946429   18.165416757 XXXX 1      oap1    O  -0.800
O664    10.266658287   19.304970307   25.092852248 XXXX 1      oap1    O  -0.800
O665    19.759354945   20.129451462    4.380838701 XXXX 1      oap1    O  -0.625
O666    19.621440100   19.115453498   11.091026361 XXXX 1      oap1    O  -0.800
O667    19.704022878   19.916734038   18.315900989 XXXX 1      oap1    O  -0.800
O668    19.569370237   19.588499670   25.103576167 XXXX 1      oap1    O  -0.800
O669    29.155746236   19.991275483    4.443139517 XXXX 1      oap1    O  -0.625
O670    29.208943219   19.478661715   11.325572129 XXXX 1      oap1    O  -0.800
O671    29.064819024   19.320753575   18.164617902 XXXX 1      oap1    O  -0.800
O672    29.989072492   18.904744518   25.422650323 XXXX 1      oap1    O  -0.800
O673     5.669262482   11.775729569    4.377757601 XXXX 1      oap1    O  -0.625
O674     5.419490587   11.347099029   11.061902568 XXXX 1      oap1    O  -0.800
O675     5.716181126   11.125985840   18.177121314 XXXX 1      oap1    O  -0.800
O676     5.582497712   10.965536768   24.963724303 XXXX 1      oap1    O  -0.800
O677    14.940431412   10.538517778    2.171903137 XXXX 1      oap1    O  -0.625
O678    15.024301945   10.999463161   11.190614776 XXXX 1      oap1    O  -0.800
O679    15.045362111   11.566123789   18.294247047 XXXX 1      oap1    O  -0.800
O680    14.988533753   11.493899192   25.232193906 XXXX 1      oap1    O  -0.800
O681    24.242808466   11.752024587    4.457783377 XXXX 1      oap1    O  -0.625
O682    24.347001809   11.577428256   11.294872797 XXXX 1      oap1    O  -0.800
O683    24.651492207   11.211281710   18.391224361 XXXX 1      oap1    O  -0.800
O684    24.439329166   11.336599492   25.396780394 XXXX 1      oap1    O  -0.800
O685    34.448456152   11.666159121    4.548821516 XXXX 1      oap1    O  -0.625
O686    33.945684224   11.521942383   11.353497202 XXXX 1      oap1    O  -0.800
O687    33.966089390   11.581477509   18.351575243 XXXX 1      oap1    O  -0.800
O688    33.708121310   11.505652774   25.041233055 XXXX 1      oap1    O  -0.800
O689     1.214717290    2.942501938    4.174996165 XXXX 1      oap1    O  -0.625
O690     0.832144209    3.082889927   11.077748136 XXXX 1      oap1    O  -0.800
O691     0.855276639    3.392756894   18.237533861 XXXX 1      oap1    O  -0.800
O692     0.823700507    3.455719062   25.146546605 XXXX 1      oap1    O  -0.800
O693    10.214605131    3.575572090    4.091961730 XXXX 1      oap1    O  -0.625
O694    10.470330812    3.072683179   11.059447498 XXXX 1      oap1    O  -0.800
O695    10.260420749    3.007570792   18.081901609 XXXX 1      oap1    O  -0.800
O696    10.296843743    2.847081193   24.760617830 XXXX 1      oap1    O  -0.800
O697    19.916439437    3.689569948    4.326096505 XXXX 1      oap1    O  -0.625
O698    19.798533711    3.355461299   11.176292396 XXXX 1      oap1    O  -0.800
O699    19.550455854    3.293758701   18.144067013 XXXX 1      oap1    O  -0.800
O700    19.754983794    3.318010373   25.117544295 XXXX 1      oap1    O  -0.800
O701    29.230513762    3.465606921    4.065036071 XXXX 1      oap1    O  -0.625
O702    29.189244332    3.178104157   11.140071899 XXXX 1      oap1    O  -0.800
O703    29.079830976    3.217826249   18.184732184 XXXX 1      oap1    O  -0.800
O704    29.130657152    3.091536358   24.926564275 XXXX 1      oap1    O  -0.800
O705     6.623965279   32.156368703    4.282197526 XXXX 1      oap1    O  -0.625
O706     6.748204852   32.450661190   11.299382491 XXXX 1      oap1    O  -0.800
O707     6.780469780   32.371521781   18.065631855 XXXX 1      oap1    O  -0.800
O708     6.806741396   32.279736020   24.943006540 XXXX 1      oap1    O  -0.800
O709    15.374166378   32.237081418    4.120516654 XXXX 1      oap1    O  -0.625
O710    16.011105746   32.352504095   11.038366641 XXXX 1      oap1    O  -0.800
O711    15.770818268   32.335062369   18.163970323 XXXX 1      oap1    O  -0.800
O712    16.182247933   32.459015001   25.091608343 XXXX 1      oap1    O  -0.800
O713    26.188994517   32.508031676    3.948792054 XXXX 1      oap1    O  -0.625
O714    25.499413463   32.356809946   10.935365564 XXXX 1      oap1    O  -0.800
O715    25.375539540   32.200096820   17.942617117 XXXX 1      oap1    O  -0.800
O716    25.937059431   32.802125573   24.694487503 XXXX 1      oap1    O  -0.800
O717    34.576112964   32.016468361    3.964506904 XXXX 1      oap1    O  -0.625
O718    34.988061549   32.351912849   11.132417970 XXXX 1      oap1    O  -0.800
O719    35.071094941   32.449541952   18.176590118 XXXX 1      oap1    O  -0.800
O720    34.889062732   32.259437769   25.120154118 XXXX 1      oap1    O  -0.800
O721     1.556475607   24.288539012    4.384050453 XXXX 1      oap1    O  -0.625
O722     1.826023900   24.138237388   11.273185022 XXXX 1      oap1    O  -0.800
O723     1.896185883   24.113263702   18.100080787 XXXX 1      oap1    O  -0.800
O724     2.452339157   24.437862084   24.841294890 XXXX 1      oap1    O  -0.800
O725    11.377023370   23.693472756    4.159891909 XXXX 1      oap1    O  -0.625
O726    11.333380335   24.052530020   11.220616082 XXXX 1      oap1    O  -0.800
O727    11.449457106   24.225282515   18.193776373 XXXX 1      oap1    O  -0.800
O728    11.362034314   24.380597161   25.216106445 XXXX 1      oap1    O  -0.800
O729    20.278139889   23.864712970    4.359026628 XXXX 1      oap1    O  -0.625
O730    20.592238041   24.041414693   11.171889542 XXXX 1      oap1    O  -0.800
O731    20.424735220   24.041262402   18.259077132 XXXX 1      oap1    O  -0.800
O732    20.947846420   24.365407375   24.876141720 XXXX 1      oap1    O  -0.800
O733    32.192246895   24.563043347    2.902781850 XXXX 1      oap1    O  -0.625
O734    29.964163853   24.126871159   11.181069866 XXXX 1      oap1    O  -0.800
O735    30.192251944   24.147482067   18.243719885 XXXX 1      oap1    O  -0.800
O736    30.153496175   23.829829613   24.970388888 XXXX 1      oap1    O  -0.800
O737     6.528248802   15.877611380    4.229742436 XXXX 1      oap1    O  -0.625
O738     6.596740330   16.256016400   11.211642284 XXXX 1      oap1    O  -0.800
O739     6.604909026   16.073762863   18.204634899 XXXX 1      oap1    O  -0.800
O740     6.772728635   16.072963177   25.097274001 XXXX 1      oap1    O  -0.800
O741    14.436998166   17.282784185    2.965008565 XXXX 1      oap1    O  -0.625
O742    16.208191176   16.041857912   11.074989823 XXXX 1      oap1    O  -0.800
O743    16.029534553   16.175996542   18.249304235 XXXX 1      oap1    O  -0.800
O744    15.645201084   16.248718801   25.444820759 XXXX 1      oap1    O  -0.800
O745    25.274846562   16.217083955    4.325808029 XXXX 1      oap1    O  -0.625
O746    25.520220883   15.804385332   11.338441496 XXXX 1      oap1    O  -0.800
O747    25.424110024   15.908262030   18.300500149 XXXX 1      oap1    O  -0.800
O748    25.361429666   15.874627009   25.185354984 XXXX 1      oap1    O  -0.800
O749    34.279949908   16.054810665    4.337826954 XXXX 1      oap1    O  -0.625
O750    34.855346256   16.055294604   11.251711125 XXXX 1      oap1    O  -0.800
O751    34.796854168   15.974535365   18.154378003 XXXX 1      oap1    O  -0.800
O752    34.736262159   15.953525847   25.137070316 XXXX 1      oap1    O  -0.800
O753     1.539942436    7.780865685    3.855676979 XXXX 1      oap1    O  -0.625
O754     1.946276732    7.952278416   11.224521740 XXXX 1      oap1    O  -0.800
O755     1.964364981    7.982156101   18.250417031 XXXX 1      oap1    O  -0.800
O756     2.345960416    8.271058400   24.834627702 XXXX 1      oap1    O  -0.800
O757    11.145277947    7.873042842    4.175470002 XXXX 1      oap1    O  -0.625
O758    11.468089226    8.067634111   11.298297418 XXXX 1      oap1    O  -0.800
O759    11.284276875    7.848566111   18.233088932 XXXX 1      oap1    O  -0.800
O760    11.624450128    7.955966667   25.281072567 XXXX 1      oap1    O  -0.800
O761    20.279636589    7.624820583    4.202382288 XXXX 1      oap1    O  -0.625
O762    20.466357642    7.734584180   11.344009385 XXXX 1      oap1    O  -0.800
O763    20.740987008    7.910834351   18.261011908 XXXX 1      oap1    O  -0.800
O764    21.048654037    8.044427041   24.941262180 XXXX 1      oap1    O  -0.800
O765    29.779622257    7.705852232    4.292021409 XXXX 1      oap1    O  -0.625
O766    30.097896773    7.875070204   11.122273347 XXXX 1      oap1    O  -0.800
O767    30.215714480    7.823562402   18.150344362 XXXX 1      oap1    O  -0.800
O768    30.232683457    8.112899978   25.332165602 XXXX 1      oap1    O  -0.800
Ca1      0.001438444   27.459814186    8.303443355 XXXX 1      ca+h    Ca  1.500
Ca2     -0.144779321   27.538639559   15.233676502 XXXX 1      ca+h    Ca  1.500
Ca3      0.034450303   27.590755961   22.024871984 XXXX 1      ca+h    Ca  1.500
Ca4      9.588152562   27.538379309    8.151854241 XXXX 1      ca+h    Ca  1.500
Ca5      9.430578287   27.573902204   15.294074014 XXXX 1      ca+h    Ca  1.500
Ca6      9.571892140   27.611409140   22.185233118 XXXX 1      ca+h    Ca  1.500
Ca7     18.714075448   27.537689301    7.981300363 XXXX 1      ca+h    Ca  1.500
Ca8     18.787957412   27.563476071   15.131538923 XXXX 1      ca+h    Ca  1.500
Ca9     18.906516428   27.657625473   22.074492055 XXXX 1      ca+h    Ca  1.500
Ca10    28.294361577   27.697851515    8.095708679 XXXX 1      ca+h    Ca  1.500
Ca11    28.291460929   27.601482307   15.172532288 XXXX 1      ca+h    Ca  1.500
Ca12    28.372625278   27.542932802   22.052681543 XXXX 1      ca+h    Ca  1.500
Ca13     4.764126140   19.608568730    8.188500266 XXXX 1      ca+h    Ca  1.500
Ca14     4.596276418   19.506337278   15.227287947 XXXX 1      ca+h    Ca  1.500
Ca15     4.701946315   19.525531910   22.081435312 XXXX 1      ca+h    Ca  1.500
Ca16    13.953682253   19.472065825    8.333057102 XXXX 1      ca+h    Ca  1.500
Ca17    14.130120769   19.364988141   15.274167337 XXXX 1      ca+h    Ca  1.500
Ca18    14.184091211   19.732277953   22.320034311 XXXX 1      ca+h    Ca  1.500
Ca19    23.614076214   19.505491838    8.163639891 XXXX 1      ca+h    Ca  1.500
Ca20    23.556851775   19.273105314   15.181677672 XXXX 1      ca+h    Ca  1.500
Ca21    23.561200817   19.481699842   22.184544436 XXXX 1      ca+h    Ca  1.500
Ca22    32.865015675   19.379681904    8.319748685 XXXX 1      ca+h    Ca  1.500
Ca23    32.959633560   19.418823252   15.243938988 XXXX 1      ca+h    Ca  1.500
Ca24    33.256417956   19.355998253   22.157428512 XXXX 1      ca+h    Ca  1.500
Ca25    -0.047969930   11.377579515    8.196936759 XXXX 1      ca+h    Ca  1.500
Ca26     0.069158097   11.228395420   15.189142700 XXXX 1      ca+h    Ca  1.500
Ca27    -0.002117828   11.505574852   22.083879510 XXXX 1      ca+h    Ca  1.500
Ca28     9.541158975   11.552932806    8.197734471 XXXX 1      ca+h    Ca  1.500
Ca29     9.439007711   11.325242918   15.275321772 XXXX 1      ca+h    Ca  1.500
Ca30     9.597101955   11.253069031   22.153748298 XXXX 1      ca+h    Ca  1.500
Ca31    18.742615156   11.234892221    8.136120719 XXXX 1      ca+h    Ca  1.500
Ca32    18.971854255   11.291305065   15.267894552 XXXX 1      ca+h    Ca  1.500
Ca33    18.947887246   11.295121792   22.263447232 XXXX 1      ca+h    Ca  1.500
Ca34    28.206539278   11.219454738    8.062625532 XXXX 1      ca+h    Ca  1.500
Ca35    28.360656751   11.145854201   15.191367998 XXXX 1      ca+h    Ca  1.500
Ca36    28.165599038   11.276833503   22.219295277 XXXX 1      ca+h    Ca  1.500
Ca37     4.745291838    3.241078899    8.400511903 XXXX 1      ca+h    Ca  1.500
Ca38     4.782899224    3.375457450   15.220148161 XXXX 1      ca+h    Ca  1.500
Ca39     4.748790950    3.117242585   22.199740478 XXXX 1      ca+h    Ca  1.500
Ca40    14.254734674    3.018989025    8.156540886 XXXX 1      ca+h    Ca  1.500
Ca41    14.153320537    3.146490304   15.186066893 XXXX 1      ca+h    Ca  1.500
Ca42    14.228508487    3.128303039   22.139915843 XXXX 1      ca+h    Ca  1.500
Ca43    23.615310263    3.257490710    8.126884731 XXXX 1      ca+h    Ca  1.500
Ca44    23.420826150    3.075698676   15.137040227 XXXX 1      ca+h    Ca  1.500
Ca45    23.652365966    3.405822864   22.110474278 XXXX 1      ca+h    Ca  1.500
Ca46    33.085470439    3.206280239    8.099632891 XXXX 1      ca+h    Ca  1.500
Ca47    32.814843559    3.345723548   15.138732003 XXXX 1      ca+h    Ca  1.500
Ca48    33.120920346    3.216985798   22.066559958 XXXX 1      ca+h    Ca  1.500
Ca49     4.927024265   30.335161818    4.859519577 XXXX 1      ca+h    Ca  1.500
Ca50     4.836526286   30.274659849   11.963916105 XXXX 1      ca+h    Ca  1.500
Ca51     4.716746119   30.102424191   18.780979848 XXXX 1      ca+h    Ca  1.500
Ca52     4.353514987   30.194625455   25.758233068 XXXX 1      ca+h    Ca  1.500
Ca53    13.999401958   30.066943629    4.479598648 XXXX 1      ca+h    Ca  1.500
Ca54    14.289185538   30.258639977   11.696775723 XXXX 1      ca+h    Ca  1.500
Ca55    14.183380718   30.272493008   18.768067020 XXXX 1      ca+h    Ca  1.500
Ca56    14.802658086   30.209232158   25.908375165 XXXX 1      ca+h    Ca  1.500
Ca57    23.367427887   30.250298157    4.551598451 XXXX 1      ca+h    Ca  1.500
Ca58    23.301006924   30.157819255   11.550387298 XXXX 1      ca+h    Ca  1.500
Ca59    23.613664427   30.200088816   18.584865288 XXXX 1      ca+h    Ca  1.500
Ca60    23.405998716   30.569544702   25.965678726 XXXX 1      ca+h    Ca  1.500
Ca61    32.958694125   30.387678831    4.484346064 XXXX 1      ca+h    Ca  1.500
Ca62    32.855194429   30.342155893   11.722622286 XXXX 1      ca+h    Ca  1.500
Ca63    33.042646927   30.208641413   18.603260756 XXXX 1      ca+h    Ca  1.500
Ca64    32.933440842   30.540771862   25.741921147 XXXX 1      ca+h    Ca  1.500
Ca65     0.059830022   22.166556871    4.709042773 XXXX 1      ca+h    Ca  1.500
Ca66    -0.126714859   22.276479160   11.872078199 XXXX 1      ca+h    Ca  1.500
Ca67    -0.010083764   22.056886323   18.740509463 XXXX 1      ca+h    Ca  1.500
Ca68     0.232819138   22.166922418   25.853725007 XXXX 1      ca+h    Ca  1.500
Ca69     9.553608824   22.038076843    4.621963797 XXXX 1      ca+h    Ca  1.500
Ca70     9.336260578   22.068775995   11.694176213 XXXX 1      ca+h    Ca  1.500
Ca71     9.526849179   22.140374800   18.751006606 XXXX 1      ca+h    Ca  1.500
Ca72     8.392606571   22.858594357   26.290652217 XXXX 1      ca+h    Ca  1.500
Ca73    18.674426271   22.196585775    4.845355329 XXXX 1      ca+h    Ca  1.500
Ca74    18.822357899   22.238679825   11.700404080 XXXX 1      ca+h    Ca  1.500
Ca75    18.730251526   22.130178693   18.768787045 XXXX 1      ca+h    Ca  1.500
Ca76    18.770348786   22.106815617   25.640548581 XXXX 1      ca+h    Ca  1.500
Ca77    28.259328003   22.377117423    4.615985259 XXXX 1      ca+h    Ca  1.500
Ca78    28.229170904   22.141452692   11.679805779 XXXX 1      ca+h    Ca  1.500
Ca79    28.346486045   22.170248511   18.695106360 XXXX 1      ca+h    Ca  1.500
Ca80    28.111941722   22.571247504   25.766375842 XXXX 1      ca+h    Ca  1.500
Ca81     4.724182927   14.071725829    4.746468007 XXXX 1      ca+h    Ca  1.500
Ca82     4.632838305   13.972512253   11.564614431 XXXX 1      ca+h    Ca  1.500
Ca83     4.673990516   14.091136988   18.716031559 XXXX 1      ca+h    Ca  1.500
Ca84     5.398777459   14.532244777   26.242050712 XXXX 1      ca+h    Ca  1.500
Ca85    14.069223233   14.488567460    4.763561513 XXXX 1      ca+h    Ca  1.500
Ca86    13.947719543   13.918923630   11.919145471 XXXX 1      ca+h    Ca  1.500
Ca87    14.182387391   14.032730540   18.768784725 XXXX 1      ca+h    Ca  1.500
Ca88    14.204774668   14.102180175   25.813067243 XXXX 1      ca+h    Ca  1.500
Ca89    22.938395340   13.617538768    4.589655587 XXXX 1      ca+h    Ca  1.500
Ca90    23.638773452   13.856911965   11.768938778 XXXX 1      ca+h    Ca  1.500
Ca91    23.653631398   14.047292960   18.765511058 XXXX 1      ca+h    Ca  1.500
Ca92    23.416386729   13.959564409   25.667171155 XXXX 1      ca+h    Ca  1.500
Ca93    32.862410260   14.089660489    4.817288962 XXXX 1      ca+h    Ca  1.500
Ca94    33.095749827   13.909867648   11.740490716 XXXX 1      ca+h    Ca  1.500
Ca95    32.983162101   14.101955058   18.735323149 XXXX 1      ca+h    Ca  1.500
Ca96    33.036705537   14.030271758   25.601584017 XXXX 1      ca+h    Ca  1.500
Ca97     0.042732534    6.039906876    4.438771909 XXXX 1      ca+h    Ca  1.500
Ca98    -0.003016999    6.065576905   11.804187884 XXXX 1      ca+h    Ca  1.500
Ca99     0.121564134    5.885776674   18.754125987 XXXX 1      ca+h    Ca  1.500
Ca100    0.044443352    5.825529734   25.837557215 XXXX 1      ca+h    Ca  1.500
Ca101    9.438281268    5.803915683    4.601861561 XXXX 1      ca+h    Ca  1.500
Ca102    9.575594562    5.925749069   11.704938850 XXXX 1      ca+h    Ca  1.500
Ca103    9.553749776    5.740976991   18.880289425 XXXX 1      ca+h    Ca  1.500
Ca104    9.383080741    5.842537479   25.983917363 XXXX 1      ca+h    Ca  1.500
Ca105   18.996681627    5.842754885    4.955092012 XXXX 1      ca+h    Ca  1.500
Ca106   19.050472997    5.788274068   11.802283128 XXXX 1      ca+h    Ca  1.500
Ca107   18.727135986    5.913522223   18.609019148 XXXX 1      ca+h    Ca  1.500
Ca108   18.820679302    5.349679483   25.884339764 XXXX 1      ca+h    Ca  1.500
Ca109   28.337532901    5.854846993    4.486226824 XXXX 1      ca+h    Ca  1.500
Ca110   28.306030233    5.853200925   11.628784570 XXXX 1      ca+h    Ca  1.500
Ca111   28.314682962    5.765144694   18.647687212 XXXX 1      ca+h    Ca  1.500
Ca112   27.959310780    5.270541268   25.645552815 XXXX 1      ca+h    Ca  1.500
Ca113    4.677533701   30.498375192    8.338871774 XXXX 1      ca+h    Ca  1.500
Ca114    4.791941917   30.384251880   15.308294974 XXXX 1      ca+h    Ca  1.500
Ca115    4.789876678   30.248468708   22.218779724 XXXX 1      ca+h    Ca  1.500
Ca116   13.962425714   30.255193250    8.166521479 XXXX 1      ca+h    Ca  1.500
Ca117   14.201569699   30.312672341   15.147593658 XXXX 1      ca+h    Ca  1.500
Ca118   14.085316011   30.427671682   22.295552534 XXXX 1      ca+h    Ca  1.500
Ca119   23.451459851   30.191240434    8.052123600 XXXX 1      ca+h    Ca  1.500
Ca120   23.522670343   30.269162525   15.074648070 XXXX 1      ca+h    Ca  1.500
Ca121   23.601935401   30.290678723   22.236420992 XXXX 1      ca+h    Ca  1.500
Ca122   32.933281154   30.628738428    8.217868758 XXXX 1      ca+h    Ca  1.500
Ca123   33.122556394   30.543090044   15.106531978 XXXX 1      ca+h    Ca  1.500
Ca124   33.028976435   30.434502333   22.298465003 XXXX 1      ca+h    Ca  1.500
Ca125   -0.082941555   22.210675019    8.248761308 XXXX 1      ca+h    Ca  1.500
Ca126   -0.054942219   22.257184501   15.201265510 XXXX 1      ca+h    Ca  1.500
Ca127    0.284562121   22.251575235   22.221297085 XXXX 1      ca+h    Ca  1.500
Ca128    9.437301650   22.101961078    8.210995165 XXXX 1      ca+h    Ca  1.500
Ca129    9.391143140   22.256839295   15.242586392 XXXX 1      ca+h    Ca  1.500
Ca130    9.394058003   22.156061253   22.366942656 XXXX 1      ca+h    Ca  1.500
Ca131   18.849890556   22.002257782    8.218068907 XXXX 1      ca+h    Ca  1.500
Ca132   18.821295522   22.090708506   15.148560916 XXXX 1      ca+h    Ca  1.500
Ca133   18.825986776   22.277408450   22.079331995 XXXX 1      ca+h    Ca  1.500
Ca134   28.312586508   22.080527168    8.275345421 XXXX 1      ca+h    Ca  1.500
Ca135   28.313281854   22.075493972   15.212233607 XXXX 1      ca+h    Ca  1.500
Ca136   28.249481819   22.294379265   22.170356345 XXXX 1      ca+h    Ca  1.500
Ca137    4.769607577   14.159015744    8.287422115 XXXX 1      ca+h    Ca  1.500
Ca138    4.812009550   14.151866713   15.240268092 XXXX 1      ca+h    Ca  1.500
Ca139    4.757669459   13.944635599   22.350737203 XXXX 1      ca+h    Ca  1.500
Ca140   14.249953676   13.778877795    8.260978693 XXXX 1      ca+h    Ca  1.500
Ca141   14.026340987   13.881985158   15.298828031 XXXX 1      ca+h    Ca  1.500
Ca142   14.195334470   14.142408863   22.287710963 XXXX 1      ca+h    Ca  1.500
Ca143   23.542209623   14.091759808    8.245821812 XXXX 1      ca+h    Ca  1.500
Ca144   23.531389750   13.947546180   15.313877940 XXXX 1      ca+h    Ca  1.500
Ca145   23.327902481   14.083729924   22.296661216 XXXX 1      ca+h    Ca  1.500
Ca146   32.941716833   14.025846010    8.269317143 XXXX 1      ca+h    Ca  1.500
Ca147   33.118672810   14.205011034   15.333451163 XXXX 1      ca+h    Ca  1.500
Ca148   32.805312594   13.762641625   22.161358818 XXXX 1      ca+h    Ca  1.500
Ca149    0.176064874    5.630204081    8.130486238 XXXX 1      ca+h    Ca  1.500
Ca150    0.227241053    5.824208492   15.259514862 XXXX 1      ca+h    Ca  1.500
Ca151    0.082662759    6.112445082   22.261900678 XXXX 1      ca+h    Ca  1.500
Ca152    9.414187546    5.838941524    8.186955912 XXXX 1      ca+h    Ca  1.500
Ca153    9.440357272    5.740501961   15.160101263 XXXX 1      ca+h    Ca  1.500
Ca154    9.540056067    5.834055936   22.246996093 XXXX 1      ca+h    Ca  1.500
Ca155   18.690175271    5.853660375    8.308265950 XXXX 1      ca+h    Ca  1.500
Ca156   18.951530538    5.762285825   15.115706033 XXXX 1      ca+h    Ca  1.500
Ca157   18.935358646    5.983445711   22.307681569 XXXX 1      ca+h    Ca  1.500
Ca158   28.257363042    5.878464059    8.143151435 XXXX 1      ca+h    Ca  1.500
Ca159   28.410648459    5.794458040   15.189308898 XXXX 1      ca+h    Ca  1.500
Ca160   28.494466383    5.870701191   22.111259044 XXXX 1      ca+h    Ca  1.500
Ca161    0.130637285   27.424195277    4.820952139 XXXX 1      ca+h    Ca  1.500
Ca162   -0.070662693   27.785286626   11.791443430 XXXX 1      ca+h    Ca  1.500
Ca163    0.136408132   27.734300857   18.651161505 XXXX 1      ca+h    Ca  1.500
Ca164    0.207690084   27.567271202   25.716071463 XXXX 1      ca+h    Ca  1.500
Ca165    9.774667731   27.351507372    4.436128184 XXXX 1      ca+h    Ca  1.500
Ca166    9.550949393   27.628078397   11.704700394 XXXX 1      ca+h    Ca  1.500
Ca167    9.460562977   27.642205545   18.787097815 XXXX 1      ca+h    Ca  1.500
Ca168    9.251605612   27.530055122   25.606409891 XXXX 1      ca+h    Ca  1.500
Ca169   19.108345875   27.509957143    4.227051748 XXXX 1      ca+h    Ca  1.500
Ca170   18.799980997   27.659580295   11.703333872 XXXX 1      ca+h    Ca  1.500
Ca171   18.941017352   27.694095196   18.641468411 XXXX 1      ca+h    Ca  1.500
Ca172   19.257947926   27.517543450   25.716910191 XXXX 1      ca+h    Ca  1.500
Ca173   28.412299626   27.747574402    4.682071875 XXXX 1      ca+h    Ca  1.500
Ca174   28.136264360   27.690099958   11.645093022 XXXX 1      ca+h    Ca  1.500
Ca175   28.268992001   27.786193799   18.654245159 XXXX 1      ca+h    Ca  1.500
Ca176   28.519584657   27.561119361   25.577347180 XXXX 1      ca+h    Ca  1.500
Ca177    4.846266818   19.146065623    4.661511914 XXXX 1      ca+h    Ca  1.500
Ca178    4.682438148   19.538623105   11.779559775 XXXX 1      ca+h    Ca  1.500
Ca179    4.836153984   19.496340771   18.591943939 XXXX 1      ca+h    Ca  1.500
Ca180    4.878737166   19.558677708   25.604146947 XXXX 1      ca+h    Ca  1.500
Ca181   14.137173496   19.228403008    4.524699862 XXXX 1      ca+h    Ca  1.500
Ca182   14.135379040   19.336364838   11.874166843 XXXX 1      ca+h    Ca  1.500
Ca183   14.079260780   19.444373728   18.753391389 XXXX 1      ca+h    Ca  1.500
Ca184   14.016502668   19.340459068   25.725335994 XXXX 1      ca+h    Ca  1.500
Ca185   23.392234642   19.964521578    4.492136084 XXXX 1      ca+h    Ca  1.500
Ca186   23.496534827   19.410266115   11.612231964 XXXX 1      ca+h    Ca  1.500
Ca187   23.756584972   19.309735816   18.743725533 XXXX 1      ca+h    Ca  1.500
Ca188   23.318244347   19.697511776   25.775390673 XXXX 1      ca+h    Ca  1.500
Ca189   32.882465454   19.181522015    4.664167400 XXXX 1      ca+h    Ca  1.500
Ca190   32.980006982   19.598863637   11.861818028 XXXX 1      ca+h    Ca  1.500
Ca191   32.993573013   19.588522480   18.723701766 XXXX 1      ca+h    Ca  1.500
Ca192   33.057529844   19.570196407   25.660211364 XXXX 1      ca+h    Ca  1.500
Ca193   -0.182683588   11.823398977    4.502169923 XXXX 1      ca+h    Ca  1.500
Ca194    0.206325953   11.394651805   11.625477895 XXXX 1      ca+h    Ca  1.500
Ca195    0.173272385   11.295507950   18.665223441 XXXX 1      ca+h    Ca  1.500
Ca196   -0.097347823   11.557553733   25.677228474 XXXX 1      ca+h    Ca  1.500
Ca197    9.100039731   11.554738725    4.614827887 XXXX 1      ca+h    Ca  1.500
Ca198    9.441050046   11.312617785   11.759473463 XXXX 1      ca+h    Ca  1.500
Ca199    9.278509745   11.296851730   18.620766669 XXXX 1      ca+h    Ca  1.500
Ca200    9.380693222   11.159687960   25.580372702 XXXX 1      ca+h    Ca  1.500
Ca201   18.614012374   11.618299327    4.657631468 XXXX 1      ca+h    Ca  1.500
Ca202   18.880945891   11.188413405   11.663935080 XXXX 1      ca+h    Ca  1.500
Ca203   18.864595028   11.254356143   18.795369080 XXXX 1      ca+h    Ca  1.500
Ca204   18.688580231   11.348040914   25.740043787 XXXX 1      ca+h    Ca  1.500
Ca205   27.921775126   11.177599151    4.400041999 XXXX 1      ca+h    Ca  1.500
Ca206   28.142488596   11.258850225   11.749135929 XXXX 1      ca+h    Ca  1.500
Ca207   28.227884427   11.204349568   18.718918541 XXXX 1      ca+h    Ca  1.500
Ca208   28.252786439   11.084170112   25.767408254 XXXX 1      ca+h    Ca  1.500
Ca209    4.941835329    3.254064313    4.803553309 XXXX 1      ca+h    Ca  1.500
Ca210    4.844180772    3.150057945   11.827406942 XXXX 1      ca+h    Ca  1.500
Ca211    4.837542757    3.177245035   18.660713857 XXXX 1      ca+h    Ca  1.500
Ca212    4.633149811    3.102187476   25.753838137 XXXX 1      ca+h    Ca  1.500
Ca213   13.969761215    3.040911861    4.472753777 XXXX 1      ca+h    Ca  1.500
Ca214   14.229075268    3.006394683   11.662304872 XXXX 1      ca+h    Ca  1.500
Ca215   14.222469647    3.068124450   18.746167061 XXXX 1      ca+h    Ca  1.500
Ca216   14.056961195    3.055960293   25.759709178 XXXX 1      ca+h    Ca  1.500
Ca217   23.332346521    3.340315741    4.648935723 XXXX 1      ca+h    Ca  1.500
Ca218   23.541765929    3.063291089   11.522956618 XXXX 1      ca+h    Ca  1.500
Ca219   23.506233721    3.095219840   18.603679278 XXXX 1      ca+h    Ca  1.500
Ca220   23.611944322    3.268356018   25.611367333 XXXX 1      ca+h    Ca  1.500
Ca221   33.207254626    2.690271935    4.477361274 XXXX 1      ca+h    Ca  1.500
Ca222   33.139034460    3.011237027   11.641302188 XXXX 1      ca+h    Ca  1.500
Ca223   33.016311219    3.252508685   18.721748919 XXXX 1      ca+h    Ca  1.500
Ca224   33.321049005    3.093589934   25.673666359 XXXX 1      ca+h    Ca  1.500
Ca225    1.738877020   33.116054102    3.552745218 XXXX 1      ca+h    Ca  1.500
Ca226    2.266228555   33.129883238   10.018348491 XXXX 1      ca+h    Ca  1.500
Ca227    2.522389509   33.135892075   16.953843974 XXXX 1      ca+h    Ca  1.500
Ca228    2.244957495   33.209306844   24.092553172 XXXX 1      ca+h    Ca  1.500
Ca229   11.900079306   33.089848803    9.980995030 XXXX 1      ca+h    Ca  1.500
Ca230   11.753849542   33.205391072   17.047443836 XXXX 1      ca+h    Ca  1.500
Ca231   11.712666570   33.226156529   23.965533423 XXXX 1      ca+h    Ca  1.500
Ca232   21.155090304   33.056260372    9.810457529 XXXX 1      ca+h    Ca  1.500
Ca233   21.099003854   33.080084033   16.889170498 XXXX 1      ca+h    Ca  1.500
Ca234   21.258903054   33.283496698   23.990002179 XXXX 1      ca+h    Ca  1.500
Ca235   30.559662444   33.164083677    9.943142483 XXXX 1      ca+h    Ca  1.500
Ca236   30.654977415   33.146694993   16.874159561 XXXX 1      ca+h    Ca  1.500
Ca237   30.502521391   33.148574610   23.886253005 XXXX 1      ca+h    Ca  1.500
Ca238    7.109680426   25.013797279   10.078515233 XXXX 1      ca+h    Ca  1.500
Ca239    7.029735787   24.921776425   17.009947543 XXXX 1      ca+h    Ca  1.500
Ca240    6.948329494   25.053926134   23.823148668 XXXX 1      ca+h    Ca  1.500
Ca241   16.642739758   24.985282135    9.823494763 XXXX 1      ca+h    Ca  1.500
Ca242   16.479553858   24.937324972   16.961246404 XXXX 1      ca+h    Ca  1.500
Ca243   16.657194726   25.055389820   23.958480797 XXXX 1      ca+h    Ca  1.500
Ca244   25.861592722   25.009455408    9.921526885 XXXX 1      ca+h    Ca  1.500
Ca245   25.921280148   24.992592397   16.999720422 XXXX 1      ca+h    Ca  1.500
Ca246   25.919583373   25.087161372   24.108862831 XXXX 1      ca+h    Ca  1.500
Ca247   34.460062541   25.064296179    3.437469548 XXXX 1      ca+h    Ca  1.500
Ca248   35.170745438   24.967195490    9.967826524 XXXX 1      ca+h    Ca  1.500
Ca249   35.312695165   25.114262164   16.969144004 XXXX 1      ca+h    Ca  1.500
Ca250   35.567455126   24.958342737   24.008328635 XXXX 1      ca+h    Ca  1.500
Ca251    2.295897337   17.100591712    9.958782556 XXXX 1      ca+h    Ca  1.500
Ca252    2.307826729   16.961954388   16.916671174 XXXX 1      ca+h    Ca  1.500
Ca253    2.421111445   16.973290003   24.117110991 XXXX 1      ca+h    Ca  1.500
Ca254   11.818027459   17.008900217    9.997655936 XXXX 1      ca+h    Ca  1.500
Ca255   11.767612891   17.000400926   17.009788441 XXXX 1      ca+h    Ca  1.500
Ca256   11.496198846   16.986084507   24.022100536 XXXX 1      ca+h    Ca  1.500
Ca257   21.070825358   16.836172922    9.917868110 XXXX 1      ca+h    Ca  1.500
Ca258   21.155147198   16.757011377   16.988785125 XXXX 1      ca+h    Ca  1.500
Ca259   21.084964100   16.984148837   24.026364767 XXXX 1      ca+h    Ca  1.500
Ca260   27.636651421   15.976748740    3.934231064 XXXX 1      ca+h    Ca  1.500
Ca261   30.562473527   16.809462307    9.986914856 XXXX 1      ca+h    Ca  1.500
Ca262   30.379007300   16.739731249   16.904829311 XXXX 1      ca+h    Ca  1.500
Ca263   30.372050876   16.730518765   23.613695683 XXXX 1      ca+h    Ca  1.500
Ca264    7.246161985    8.793772086    9.845399068 XXXX 1      ca+h    Ca  1.500
Ca265    7.211112274    8.721331670   16.819193002 XXXX 1      ca+h    Ca  1.500
Ca266    7.096915228    8.739063487   23.837092696 XXXX 1      ca+h    Ca  1.500
Ca267   15.783188978    8.545648570    3.403431485 XXXX 1      ca+h    Ca  1.500
Ca268   16.361649539    8.655560552    9.840703028 XXXX 1      ca+h    Ca  1.500
Ca269   16.524068221    8.756620017   16.965493421 XXXX 1      ca+h    Ca  1.500
Ca270   16.658501614    8.667988003   23.917398614 XXXX 1      ca+h    Ca  1.500
Ca271   25.927358727    8.784525992    9.879392587 XXXX 1      ca+h    Ca  1.500
Ca272   25.894424583    8.605770295   16.940712932 XXXX 1      ca+h    Ca  1.500
Ca273   25.963649392    8.576310028   23.914365796 XXXX 1      ca+h    Ca  1.500
Ca274   35.358200952    8.644081470   10.031622505 XXXX 1      ca+h    Ca  1.500
Ca275   35.484693172    8.699237731   16.974339134 XXXX 1      ca+h    Ca  1.500
Ca276   35.399498288    8.793845590   23.959465084 XXXX 1      ca+h    Ca  1.500
P1       2.179001874   29.842278782    2.965432252 XXXX 1      pap     P   1.000
P2       2.041204382   30.156031496   10.003665319 XXXX 1      pap     P   1.000
P3       1.899054389   30.060839353   17.004824366 XXXX 1      pap     P   1.000
P4       1.930209705   30.002866078   23.906898332 XXXX 1      pap     P   1.000
P5      11.772446874   31.450057493    2.761008908 XXXX 1      pap     P   1.000
P6      11.418162398   29.987521997   10.010058337 XXXX 1      pap     P   1.000
P7      11.478994373   29.954835051   16.916696825 XXXX 1      pap     P   1.000
P8      11.383533170   30.031739955   24.061001069 XXXX 1      pap     P   1.000
P9      20.152944230   30.535426628    2.732137374 XXXX 1      pap     P   1.000
P10     20.786739831   29.970899457    9.777825010 XXXX 1      pap     P   1.000
P11     20.920814158   29.977858097   16.784447442 XXXX 1      pap     P   1.000
P12     21.020504548   29.924328032   23.969605695 XXXX 1      pap     P   1.000
P13     30.327850164   31.501053211    3.045115836 XXXX 1      pap     P   1.000
P14     30.253136422   30.082656231    9.917216567 XXXX 1      pap     P   1.000
P15     30.340840416   30.063440879   16.792140819 XXXX 1      pap     P   1.000
P16     30.415869327   30.037201859   23.841072844 XXXX 1      pap     P   1.000
P17      6.161005278   22.248485320    2.902206697 XXXX 1      pap     P   1.000
P18      6.688553297   21.899287484    9.916371160 XXXX 1      pap     P   1.000
P19      6.855521357   21.922344151   16.965558454 XXXX 1      pap     P   1.000
P20      6.713846470   21.988786914   23.784426337 XXXX 1      pap     P   1.000
P21     15.267243196   22.418584406    3.231108110 XXXX 1      pap     P   1.000
P22     16.246609314   21.728180746   10.135662544 XXXX 1      pap     P   1.000
P23     16.077905371   21.870473203   16.912758909 XXXX 1      pap     P   1.000
P24     16.175419411   22.052369104   23.945231589 XXXX 1      pap     P   1.000
P25     25.629021407   22.138190292    2.935006374 XXXX 1      pap     P   1.000
P26     25.705811928   21.869593236    9.943147589 XXXX 1      pap     P   1.000
P27     25.580498145   21.748240001   17.011875735 XXXX 1      pap     P   1.000
P28     25.631699286   21.806789159   24.051401871 XXXX 1      pap     P   1.000
P29     34.869460766   21.945166125    3.096632310 XXXX 1      pap     P   1.000
P30     34.776247478   21.885970487   10.058562674 XXXX 1      pap     P   1.000
P31     34.951614278   21.940595610   16.999637164 XXXX 1      pap     P   1.000
P32     35.173270359   22.061404289   23.955951940 XXXX 1      pap     P   1.000
P33      1.626145682   15.210406490    3.207958746 XXXX 1      pap     P   1.000
P34      2.011631724   13.797135545    9.968987494 XXXX 1      pap     P   1.000
P35      2.037077251   13.803235358   16.924613718 XXXX 1      pap     P   1.000
P36      1.897971569   13.729146746   23.870505721 XXXX 1      pap     P   1.000
P37     10.849986072   14.271947956    3.166303148 XXXX 1      pap     P   1.000
P38     11.452410462   13.604409532   10.107049039 XXXX 1      pap     P   1.000
P39     11.349119396   13.740728357   17.011792911 XXXX 1      pap     P   1.000
P40     11.400877965   13.580394035   23.867478382 XXXX 1      pap     P   1.000
P41     19.792078144   14.173256134    2.910961114 XXXX 1      pap     P   1.000
P42     20.849919713   13.670187074    9.982572458 XXXX 1      pap     P   1.000
P43     20.894628829   13.630004932   17.010557203 XXXX 1      pap     P   1.000
P44     20.869192622   13.749903280   23.896322175 XXXX 1      pap     P   1.000
P45     30.088792187   13.902655784    2.614772740 XXXX 1      pap     P   1.000
P46     30.266124422   13.620760575    9.946894514 XXXX 1      pap     P   1.000
P47     30.371028238   13.671011491   16.903895065 XXXX 1      pap     P   1.000
P48     30.253082975   13.713960707   24.001172425 XXXX 1      pap     P   1.000
P49      6.315261710    5.912617784    3.040807755 XXXX 1      pap     P   1.000
P50      6.849578311    5.598104636    9.988326771 XXXX 1      pap     P   1.000
P51      6.804722285    5.603140444   17.089315355 XXXX 1      pap     P   1.000
P52      6.762155963    5.630761419   23.978625023 XXXX 1      pap     P   1.000
P53     16.420554800    5.425940050    2.869520846 XXXX 1      pap     P   1.000
P54     16.097871701    5.620484749   10.012698417 XXXX 1      pap     P   1.000
P55     16.061298592    5.613364990   16.826163492 XXXX 1      pap     P   1.000
P56     16.167732641    5.638263924   23.867556503 XXXX 1      pap     P   1.000
P57     25.767766097    5.080535801    2.733815021 XXXX 1      pap     P   1.000
P58     25.538805678    5.626280297    9.861538447 XXXX 1      pap     P   1.000
P59     25.562615417    5.601137305   16.959940694 XXXX 1      pap     P   1.000
P60     25.671040165    5.639220623   23.780580963 XXXX 1      pap     P   1.000
P61     34.109744133    6.119838624    3.115938252 XXXX 1      pap     P   1.000
P62     35.085826559    5.538404884   10.006459660 XXXX 1      pap     P   1.000
P63     35.070408711    5.646598971   16.909696858 XXXX 1      pap     P   1.000
P64     35.106318029    5.542426213   23.802031219 XXXX 1      pap     P   1.000
O769     2.387071031   30.468169269    4.340510160 XXXX 1      oap1    O  -0.625
O770     3.255700948   29.152721846   10.256152668 XXXX 1      oap1    O  -0.800
O771     3.222758648   29.200085247   17.085310738 XXXX 1      oap1    O  -0.800
O772     3.209505652   29.121577910   23.664524311 XXXX 1      oap1    O  -0.800
O773    11.364089539   31.051908005    4.182030858 XXXX 1      oap1    O  -0.625
O774    12.674445699   29.084541791   10.117304914 XXXX 1      oap1    O  -0.800
O775    12.783163554   29.143253624   17.112620243 XXXX 1      oap1    O  -0.800
O776    12.780003027   29.435261743   24.241228955 XXXX 1      oap1    O  -0.800
O777    20.870210747   30.954053431    1.424812642 XXXX 1      oap1    O  -0.650
O778    22.036734335   29.156385861    9.761377382 XXXX 1      oap1    O  -0.800
O779    22.172867062   29.148444745   16.626693177 XXXX 1      oap1    O  -0.800
O780    22.338207629   29.065382190   23.969163414 XXXX 1      oap1    O  -0.800
O781    31.814980387   31.514804777    2.743694715 XXXX 1      oap1    O  -0.625
O782    31.608930594   29.361643863    9.950605532 XXXX 1      oap1    O  -0.800
O783    31.665358725   29.246987367   16.683848491 XXXX 1      oap1    O  -0.800
O784    31.661658748   29.201380147   23.992377316 XXXX 1      oap1    O  -0.800
O785     7.024728615   22.530276374    4.211372446 XXXX 1      oap1    O  -0.625
O786     7.995685733   21.084511252    9.872770726 XXXX 1      oap1    O  -0.800
O787     8.186357665   21.117327744   17.026063596 XXXX 1      oap1    O  -0.800
O788     8.029277336   21.223259780   24.061186385 XXXX 1      oap1    O  -0.800
O789    16.346091276   22.468992758    4.365054278 XXXX 1      oap1    O  -0.625
O790    17.601580610   21.003942140   10.275583532 XXXX 1      oap1    O  -0.800
O791    17.338316211   21.030193602   16.685180655 XXXX 1      oap1    O  -0.800
O792    17.422326655   21.160032881   23.808900490 XXXX 1      oap1    O  -0.800
O793    27.087443865   22.013650263    2.553607064 XXXX 1      oap1    O  -0.650
O794    27.039761083   21.095588757    9.977736218 XXXX 1      oap1    O  -0.800
O795    26.891601051   21.045541164   16.780811846 XXXX 1      oap1    O  -0.800
O796    26.815089509   20.889489847   24.408784337 XXXX 1      oap1    O  -0.800
O797    36.044367394   20.978167298    3.365834571 XXXX 1      oap1    O  -0.625
O798    36.107843580   21.154327668    9.975249102 XXXX 1      oap1    O  -0.800
O799    36.402124459   21.251978824   16.939720277 XXXX 1      oap1    O  -0.800
O800    36.575761147   21.378934544   23.815749564 XXXX 1      oap1    O  -0.800
O801     2.457774682   14.536701703    4.353966243 XXXX 1      oap1    O  -0.625
O802     3.200831211   12.868321489    9.820399375 XXXX 1      oap1    O  -0.800
O803     3.358287023   13.011288065   16.841615020 XXXX 1      oap1    O  -0.800
O804     3.132057995   12.777657540   23.825618224 XXXX 1      oap1    O  -0.800
O805    11.477964997   14.863994206    1.907392950 XXXX 1      oap1    O  -0.650
O806    12.625431394   12.679558928   10.010647571 XXXX 1      oap1    O  -0.800
O807    12.635235867   12.935237144   17.133736663 XXXX 1      oap1    O  -0.800
O808    12.827319380   13.001450417   24.173303972 XXXX 1      oap1    O  -0.800
O809    18.673447560   13.170266900    2.643014311 XXXX 1      oap1    O  -0.625
O810    22.128989417   12.790689944   10.070713764 XXXX 1      oap1    O  -0.800
O811    22.192913032   12.806820743   17.171026623 XXXX 1      oap1    O  -0.800
O812    22.103650369   12.847580342   23.913594804 XXXX 1      oap1    O  -0.800
O813    30.590585613   14.301436174    4.025469739 XXXX 1      oap1    O  -0.625
O814    31.636522372   12.941675337    9.961805855 XXXX 1      oap1    O  -0.800
O815    31.654970905   12.912486077   16.944948376 XXXX 1      oap1    O  -0.800
O816    31.556067159   12.859560120   24.085721925 XXXX 1      oap1    O  -0.800
O817     6.228511778    4.322698520    3.097619169 XXXX 1      oap1    O  -0.625
O818     8.129606332    4.721355180   10.249437207 XXXX 1      oap1    O  -0.800
O819     8.082911704    4.710077888   17.234171778 XXXX 1      oap1    O  -0.800
O820     8.052991500    4.842087127   24.228521252 XXXX 1      oap1    O  -0.800
O821    17.768673478    4.765518542    2.951188265 XXXX 1      oap1    O  -0.625
O822    17.466204736    5.033028984   10.336694343 XXXX 1      oap1    O  -0.800
O823    17.352749859    4.714936391   16.601285391 XXXX 1      oap1    O  -0.800
O824    17.500916961    4.827480720   23.909027165 XXXX 1      oap1    O  -0.800
O825    26.841124810    4.007722941    2.984506031 XXXX 1      oap1    O  -0.625
O826    26.780694588    4.823982154    9.545909606 XXXX 1      oap1    O  -0.800
O827    26.859039828    4.800611728   16.847969322 XXXX 1      oap1    O  -0.800
O828    26.911417209    4.789580895   23.444808340 XXXX 1      oap1    O  -0.800
O829    35.120011260    5.999676691    4.267124173 XXXX 1      oap1    O  -0.625
O830    36.419906467    4.802520251    9.799887088 XXXX 1      oap1    O  -0.800
O831    36.335083822    4.766829289   16.790658778 XXXX 1      oap1    O  -0.800
O832    36.317084195    4.753473515   24.152134758 XXXX 1      oap1    O  -0.800
O833     1.332518982   28.574454400    3.271619211 XXXX 1      oap1    O  -0.625
O834     0.779009493   29.219740507    9.800556979 XXXX 1      oap1    O  -0.800
O835     0.639817645   29.189007353   16.774286827 XXXX 1      oap1    O  -0.800
O836     0.671188008   29.119817801   23.947712068 XXXX 1      oap1    O  -0.800
O837    10.476171977   31.493084944    1.926349599 XXXX 1      oap1    O  -0.625
O838    10.155114319   29.181725499    9.917651745 XXXX 1      oap1    O  -0.800
O839    10.155645055   29.102256503   17.004463004 XXXX 1      oap1    O  -0.800
O840    10.237745759   29.036557281   23.956257193 XXXX 1      oap1    O  -0.800
O841    19.822446797   29.035977491    2.565517773 XXXX 1      oap1    O  -0.625
O842    19.551161423   29.086581836    9.869617917 XXXX 1      oap1    O  -0.800
O843    19.601220509   29.108339530   16.804334425 XXXX 1      oap1    O  -0.800
O844    19.720431949   29.183552996   24.084839451 XXXX 1      oap1    O  -0.800
O845    29.501692920   30.934568281    1.895307812 XXXX 1      oap1    O  -0.650
O846    29.057084304   29.105905079    9.806732089 XXXX 1      oap1    O  -0.800
O847    29.076901249   29.203256413   16.827657429 XXXX 1      oap1    O  -0.800
O848    29.085385905   29.191803334   23.761920907 XXXX 1      oap1    O  -0.800
O849     5.154026871   21.106768776    3.210248954 XXXX 1      oap1    O  -0.625
O850     5.461971985   20.963133280   10.013819906 XXXX 1      oap1    O  -0.800
O851     5.658076160   20.927657168   16.928505266 XXXX 1      oap1    O  -0.800
O852     5.550733957   21.020440617   23.690920437 XXXX 1      oap1    O  -0.800
O853    14.827343337   20.953875970    2.980212523 XXXX 1      oap1    O  -0.625
O854    15.042705670   20.778829615   10.111043295 XXXX 1      oap1    O  -0.800
O855    14.793342847   20.975802325   17.003207325 XXXX 1      oap1    O  -0.800
O856    14.918577014   21.135853435   24.084487897 XXXX 1      oap1    O  -0.800
O857    24.988372957   20.788339795    2.926048087 XXXX 1      oap1    O  -0.625
O858    24.577853386   20.843045960    9.981025585 XXXX 1      oap1    O  -0.800
O859    24.420129718   20.722815175   16.886365032 XXXX 1      oap1    O  -0.800
O860    24.308029030   21.004766435   24.068099216 XXXX 1      oap1    O  -0.800
O861    33.539414332   21.083585288    2.984696903 XXXX 1      oap1    O  -0.650
O862    33.575243011   20.948970113    9.984289449 XXXX 1      oap1    O  -0.800
O863    33.796094866   20.877087247   16.980935097 XXXX 1      oap1    O  -0.800
O864    34.082667770   20.990736888   23.888151499 XXXX 1      oap1    O  -0.800
O865     0.275258236   14.402544096    3.023310628 XXXX 1      oap1    O  -0.625
O866     0.712363322   12.956568544    9.884610704 XXXX 1      oap1    O  -0.800
O867     0.827786299   12.844304188   16.993905977 XXXX 1      oap1    O  -0.800
O868     0.590544751   12.977559594   24.028568940 XXXX 1      oap1    O  -0.800
O869    10.724799828   12.732462030    3.124789998 XXXX 1      oap1    O  -0.625
O870    10.206928957   12.704635157   10.015157150 XXXX 1      oap1    O  -0.800
O871    10.058642529   12.789623666   17.019163650 XXXX 1      oap1    O  -0.800
O872    10.397983556   12.395497993   23.982414290 XXXX 1      oap1    O  -0.800
O873    19.031844096   15.377697790    3.469100359 XXXX 1      oap1    O  -0.650
O874    19.544425604   12.848808101    9.967497079 XXXX 1      oap1    O  -0.800
O875    19.761957714   12.671072504   16.993020653 XXXX 1      oap1    O  -0.800
O876    19.570587826   12.992972100   24.115880474 XXXX 1      oap1    O  -0.800
O877    29.506210523   12.411021969    2.639445201 XXXX 1      oap1    O  -0.650
O878    29.094226680   12.612279589    9.893795650 XXXX 1      oap1    O  -0.800
O879    29.109292446   12.750757013   16.981317831 XXXX 1      oap1    O  -0.800
O880    28.916086383   12.901476795   24.096094578 XXXX 1      oap1    O  -0.800
O881     4.828420748    6.379572065    3.173828525 XXXX 1      oap1    O  -0.650
O882     5.604409350    4.740625690   10.024528716 XXXX 1      oap1    O  -0.800
O883     5.583709961    4.683586505   17.057665462 XXXX 1      oap1    O  -0.800
O884     5.565988252    4.676957487   23.839123735 XXXX 1      oap1    O  -0.800
O885    15.320329465    4.361510061    2.776658107 XXXX 1      oap1    O  -0.650
O886    14.969345146    4.630093948    9.812426346 XXXX 1      oap1    O  -0.800
O887    14.858685006    4.628451330   17.012494902 XXXX 1      oap1    O  -0.800
O888    15.014128136    4.617340076   23.962223016 XXXX 1      oap1    O  -0.800
O889    25.967420094    6.094231533    3.895870346 XXXX 1      oap1    O  -0.625
O890    24.303955262    4.699667530   10.010430283 XXXX 1      oap1    O  -0.800
O891    24.295220581    4.762536089   16.942011259 XXXX 1      oap1    O  -0.800
O892    24.475189095    4.659601777   23.860155206 XXXX 1      oap1    O  -0.800
O893    33.389588403    4.761288258    2.876864268 XXXX 1      oap1    O  -0.625
O894    33.838244161    4.574860973    9.965849894 XXXX 1      oap1    O  -0.800
O895    33.831606771    4.754256152   16.924164733 XXXX 1      oap1    O  -0.800
O896    33.841651300    4.702571666   23.770537253 XXXX 1      oap1    O  -0.800
Ca277    3.525180245   26.793127187   10.262184485 XXXX 1      ca+h    Ca  1.500
Ca278    3.370941245   26.845218431   16.970945470 XXXX 1      ca+h    Ca  1.500
Ca279    3.455940014   26.842992862   23.795884257 XXXX 1      ca+h    Ca  1.500
Ca280   12.878914417   26.708959103   10.046458148 XXXX 1      ca+h    Ca  1.500
Ca281   12.827203803   26.769038394   17.022953601 XXXX 1      ca+h    Ca  1.500
Ca282   12.887334984   26.791839186   24.241791361 XXXX 1      ca+h    Ca  1.500
Ca283   22.103604757   26.742171976    9.849904177 XXXX 1      ca+h    Ca  1.500
Ca284   22.381142723   26.846482417   16.867382087 XXXX 1      ca+h    Ca  1.500
Ca285   22.489307660   26.731312689   23.819582492 XXXX 1      ca+h    Ca  1.500
Ca286   31.690471292   26.884710785   10.116936071 XXXX 1      ca+h    Ca  1.500
Ca287   31.705764205   26.983088217   16.931803183 XXXX 1      ca+h    Ca  1.500
Ca288   31.903692161   26.759161092   23.736364009 XXXX 1      ca+h    Ca  1.500
Ca289    8.168157525   18.722196085   10.038040399 XXXX 1      ca+h    Ca  1.500
Ca290    8.241256544   18.754824223   16.916240946 XXXX 1      ca+h    Ca  1.500
Ca291    8.165192824   18.819058049   23.887329310 XXXX 1      ca+h    Ca  1.500
Ca292   17.441911597   18.560685568    9.873053085 XXXX 1      ca+h    Ca  1.500
Ca293   17.597387710   18.592078432   16.957388654 XXXX 1      ca+h    Ca  1.500
Ca294   17.482844233   18.805195905   23.971985588 XXXX 1      ca+h    Ca  1.500
Ca295   26.938890050   18.698104592   10.008583713 XXXX 1      ca+h    Ca  1.500
Ca296   27.103457613   18.613270685   16.990163842 XXXX 1      ca+h    Ca  1.500
Ca297   27.161468781   18.537790348   23.915432669 XXXX 1      ca+h    Ca  1.500
Ca298   36.860770235   18.506816532    3.641878584 XXXX 1      ca+h    Ca  1.500
Ca299   36.406626667   18.682926830   10.100480813 XXXX 1      ca+h    Ca  1.500
Ca300   36.432863174   18.753477209   16.972412343 XXXX 1      ca+h    Ca  1.500
Ca301   36.635177627   18.883647677   23.927331937 XXXX 1      ca+h    Ca  1.500
Ca302    3.487770370   10.493205075    9.837535756 XXXX 1      ca+h    Ca  1.500
Ca303    3.544363790   10.670864413   17.050042690 XXXX 1      ca+h    Ca  1.500
Ca304    3.476100525   10.477768372   23.944301345 XXXX 1      ca+h    Ca  1.500
Ca305   12.586006827   11.072177882    2.547516261 XXXX 1      ca+h    Ca  1.500
Ca306   13.056907992   10.465737991    9.863558745 XXXX 1      ca+h    Ca  1.500
Ca307   12.883971047   10.417344317   16.997925993 XXXX 1      ca+h    Ca  1.500
Ca308   12.952271141   10.734547414   24.011666944 XXXX 1      ca+h    Ca  1.500
Ca309   22.271763742   10.423522109    9.921018077 XXXX 1      ca+h    Ca  1.500
Ca310   22.313879149   10.317389383   17.048628159 XXXX 1      ca+h    Ca  1.500
Ca311   22.313916547   10.244549526   24.049724848 XXXX 1      ca+h    Ca  1.500
Ca312   31.757128455   10.486638418   10.093061671 XXXX 1      ca+h    Ca  1.500
Ca313   31.743533730   10.489198563   16.986078450 XXXX 1      ca+h    Ca  1.500
Ca314   31.746573410   10.568514258   23.821962627 XXXX 1      ca+h    Ca  1.500
Ca315    8.208910361    2.374779275    9.981170138 XXXX 1      ca+h    Ca  1.500
Ca316    8.219302113    2.273152362   17.074045755 XXXX 1      ca+h    Ca  1.500
Ca317    8.056262148    2.456519647   23.958434258 XXXX 1      ca+h    Ca  1.500
Ca318   17.671778187    2.560983469   10.113683762 XXXX 1      ca+h    Ca  1.500
Ca319   17.649106672    2.336314204   16.950804498 XXXX 1      ca+h    Ca  1.500
Ca320   17.618059532    2.374063650   23.933649265 XXXX 1      ca+h    Ca  1.500
Ca321   27.649148894    1.722239063    3.471765731 XXXX 1      ca+h    Ca  1.500
Ca322   27.110597706    2.474720006    9.820486340 XXXX 1      ca+h    Ca  1.500
Ca323   26.846678507    2.398542999   16.853031859 XXXX 1      ca+h    Ca  1.500
Ca324   27.042756087    2.295234212   23.712367946 XXXX 1      ca+h    Ca  1.500
Ca325   36.562167517    2.238608194   10.053199494 XXXX 1      ca+h    Ca  1.500
Ca326   36.509714497    2.436443845   16.962878158 XXXX 1      ca+h    Ca  1.500
Ca327   36.543937007    2.427248336   23.889171881 XXXX 1      ca+h    Ca  1.500
P65      6.359444696   27.232222067    3.269893664 XXXX 1      pap     P   1.000
P66      6.373917704   28.086175951   10.101874049 XXXX 1      pap     P   1.000
P67      6.305188510   28.186249907   17.010333825 XXXX 1      pap     P   1.000
P68      6.230407907   28.018636276   23.911563092 XXXX 1      pap     P   1.000
P69     15.792878599   27.211474372    2.964966790 XXXX 1      pap     P   1.000
P70     15.730904275   28.123318551   10.005072327 XXXX 1      pap     P   1.000
P71     15.738437646   28.139528562   16.865628508 XXXX 1      pap     P   1.000
P72     15.883196838   28.111862694   23.953215394 XXXX 1      pap     P   1.000
P73     25.220837650   27.377596030    3.004207047 XXXX 1      pap     P   1.000
P74     25.042313386   28.169190342    9.912939482 XXXX 1      pap     P   1.000
P75     25.161239624   28.154930986   16.905907993 XXXX 1      pap     P   1.000
P76     25.330413946   28.046252240   23.905703646 XXXX 1      pap     P   1.000
P77     34.744594240   28.288814441    2.937735922 XXXX 1      pap     P   1.000
P78     34.566104658   28.228547414   10.061937032 XXXX 1      pap     P   1.000
P79     34.655848562   28.164481076   16.878109980 XXXX 1      pap     P   1.000
P80     34.665733755   28.025699402   23.901660034 XXXX 1      pap     P   1.000
P81      1.953407432   20.172881866    2.979384043 XXXX 1      pap     P   1.000
P82      1.560258886   20.001303016   10.006607301 XXXX 1      pap     P   1.000
P83      1.597082425   19.956657359   17.019532578 XXXX 1      pap     P   1.000
P84      1.735184302   20.182203222   23.893991740 XXXX 1      pap     P   1.000
P85      9.647339661   19.317999875    3.122008589 XXXX 1      pap     P   1.000
P86     10.940994502   20.024137142   10.047879966 XXXX 1      pap     P   1.000
P87     11.062883583   20.068534732   16.925693184 XXXX 1      pap     P   1.000
P88     11.025582189   19.978512511   23.921010044 XXXX 1      pap     P   1.000
P89     20.151926963   20.392180092    2.889598633 XXXX 1      pap     P   1.000
P90     20.426393482   19.878410129    9.955453365 XXXX 1      pap     P   1.000
P91     20.493452854   19.971949527   16.968425917 XXXX 1      pap     P   1.000
P92     20.369390566   19.978505323   23.921884277 XXXX 1      pap     P   1.000
P93     29.632570483   19.158883927    3.265414982 XXXX 1      pap     P   1.000
P94     29.868811163   19.926761950   10.041189236 XXXX 1      pap     P   1.000
P95     29.909225594   19.860846240   17.038914081 XXXX 1      pap     P   1.000
P96     30.116370937   19.693324595   24.092155660 XXXX 1      pap     P   1.000
P97      6.126290564   10.951657158    3.097428822 XXXX 1      pap     P   1.000
P98      6.318092453   11.908174262    9.870353808 XXXX 1      pap     P   1.000
P99      6.288759799   11.740390108   16.907332865 XXXX 1      pap     P   1.000
P100     6.321531121   11.797118338   23.909524230 XXXX 1      pap     P   1.000
P101    15.462403606   12.019904252    2.312827824 XXXX 1      pap     P   1.000
P102    15.810262474   11.785859209   10.095049983 XXXX 1      pap     P   1.000
P103    15.744870239   11.864672154   16.978909237 XXXX 1      pap     P   1.000
P104    15.763205932   11.910913696   23.993514757 XXXX 1      pap     P   1.000
P105    24.656131201   11.456008797    2.948943702 XXXX 1      pap     P   1.000
P106    25.063629546   11.827801300    9.963204798 XXXX 1      pap     P   1.000
P107    25.203598663   11.717063542   17.012297565 XXXX 1      pap     P   1.000
P108    25.094985111   11.731984443   24.042260010 XXXX 1      pap     P   1.000
P109    34.462206770   11.912333465    2.979836448 XXXX 1      pap     P   1.000
P110    34.650711697   11.834628571   10.015745074 XXXX 1      pap     P   1.000
P111    34.681194617   11.812448218   17.025946906 XXXX 1      pap     P   1.000
P112    34.583454316   11.963413872   23.836340468 XXXX 1      pap     P   1.000
P113     1.752870408    3.647408248    2.876586374 XXXX 1      pap     P   1.000
P114     1.730052842    3.727696062   10.001152454 XXXX 1      pap     P   1.000
P115     1.757784531    3.670068761   17.002631966 XXXX 1      pap     P   1.000
P116     1.618807321    3.816150150   23.884617046 XXXX 1      pap     P   1.000
P117    10.035609367    2.884196477    2.742362626 XXXX 1      pap     P   1.000
P118    11.140645551    3.759697809    9.889337971 XXXX 1      pap     P   1.000
P119    11.042991406    3.630684139   16.899317549 XXXX 1      pap     P   1.000
P120    11.113599894    3.745623511   23.869006510 XXXX 1      pap     P   1.000
P121    20.331460482    2.854696364    3.074080427 XXXX 1      pap     P   1.000
P122    20.534617527    3.736578297    9.929539363 XXXX 1      pap     P   1.000
P123    20.402668654    3.675731815   16.919436208 XXXX 1      pap     P   1.000
P124    20.546278925    3.789530177   23.899672885 XXXX 1      pap     P   1.000
P125    29.972940099    3.804702746    2.722267239 XXXX 1      pap     P   1.000
P126    29.998198077    3.755345336    9.973316863 XXXX 1      pap     P   1.000
P127    29.860550266    3.688620412   16.907941217 XXXX 1      pap     P   1.000
P128    29.987436331    3.632866368   23.797478307 XXXX 1      pap     P   1.000
O897     5.704189881   27.636252175    1.917305063 XXXX 1      oap1    O  -0.650
O898     6.325744485   29.587172102    9.968370578 XXXX 1      oap1    O  -0.800
O899     6.342391083   29.743511262   17.008118406 XXXX 1      oap1    O  -0.800
O900     6.039421086   29.545177231   24.160899292 XXXX 1      oap1    O  -0.800
O901    15.059229197   27.476135812    1.641109800 XXXX 1      oap1    O  -0.650
O902    15.819707757   29.626331462    9.975790297 XXXX 1      oap1    O  -0.800
O903    15.664445058   29.702326786   16.965864042 XXXX 1      oap1    O  -0.800
O904    15.871830228   29.584759395   23.689374513 XXXX 1      oap1    O  -0.800
O905    26.702779636   27.793155481    3.065575394 XXXX 1      oap1    O  -0.625
O906    25.016309596   29.651963945    9.792426262 XXXX 1      oap1    O  -0.800
O907    25.260279351   29.671019227   16.850290598 XXXX 1      oap1    O  -0.800
O908    25.242620038   29.582297168   24.295196315 XXXX 1      oap1    O  -0.800
O909    34.160086461   28.193909980    4.332350816 XXXX 1      oap1    O  -0.625
O910    34.582204137   29.769607772    9.821724549 XXXX 1      oap1    O  -0.800
O911    34.640710768   29.707246300   16.783504707 XXXX 1      oap1    O  -0.800
O912    34.543722542   29.533834740   24.044332511 XXXX 1      oap1    O  -0.800
O913     2.570200508   21.544811039    2.932120177 XXXX 1      oap1    O  -0.650
O914     1.379185419   21.506098406   10.251999796 XXXX 1      oap1    O  -0.800
O915     1.817865569   21.461860095   17.039718416 XXXX 1      oap1    O  -0.800
O916     1.950720817   21.675599964   23.791970847 XXXX 1      oap1    O  -0.800
O917     8.625342075   20.333776665    2.516765100 XXXX 1      oap1    O  -0.625
O918    10.984403357   21.557881321    9.946970047 XXXX 1      oap1    O  -0.800
O919    11.118730423   21.613429673   16.957300345 XXXX 1      oap1    O  -0.800
O920    11.137225273   21.511612334   23.956351291 XXXX 1      oap1    O  -0.800
O921    19.586979161   21.745081130    2.657460086 XXXX 1      oap1    O  -0.625
O922    20.487933235   21.398372968   10.236677647 XXXX 1      oap1    O  -0.800
O923    20.666115306   21.381703341   16.510869017 XXXX 1      oap1    O  -0.800
O924    20.443705159   21.499327455   23.909163473 XXXX 1      oap1    O  -0.800
O925    28.834476108   19.447902588    1.969180205 XXXX 1      oap1    O  -0.650
O926    29.906534142   21.433703205    9.913011174 XXXX 1      oap1    O  -0.800
O927    29.999423732   21.396931063   17.134842900 XXXX 1      oap1    O  -0.800
O928    29.462017164   21.071948498   24.332093851 XXXX 1      oap1    O  -0.800
O929     5.211192059   11.234673968    1.913943576 XXXX 1      oap1    O  -0.650
O930     6.362196408   13.440055132   10.012985873 XXXX 1      oap1    O  -0.800
O931     6.265024932   13.306013986   17.084875126 XXXX 1      oap1    O  -0.800
O932     6.407755820   13.315428574   24.309162964 XXXX 1      oap1    O  -0.800
O933    14.332621251   12.850209698    2.953097685 XXXX 1      oap1    O  -0.625
O934    15.693992740   13.248063947   10.290187710 XXXX 1      oap1    O  -0.800
O935    15.734009799   13.341174049   16.735686923 XXXX 1      oap1    O  -0.800
O936    15.720154874   13.506845625   24.022266877 XXXX 1      oap1    O  -0.800
O937    24.239746796   12.674890827    2.055607102 XXXX 1      oap1    O  -0.650
O938    25.111194432   13.363646945    9.867207136 XXXX 1      oap1    O  -0.800
O939    25.110219149   13.275622710   17.016330953 XXXX 1      oap1    O  -0.800
O940    24.953890071   13.282180341   23.806881580 XXXX 1      oap1    O  -0.800
O941    33.398673202   13.054363684    2.757983648 XXXX 1      oap1    O  -0.625
O942    34.582476143   13.389511610    9.869702188 XXXX 1      oap1    O  -0.800
O943    34.691586636   13.333062855   16.894615150 XXXX 1      oap1    O  -0.800
O944    34.668554446   13.471998465   23.991361951 XXXX 1      oap1    O  -0.800
O945     0.814925665    4.877945944    2.622095700 XXXX 1      oap1    O  -0.625
O946     1.774647293    5.285704708   10.150203428 XXXX 1      oap1    O  -0.800
O947     1.772191393    5.202992715   17.084050516 XXXX 1      oap1    O  -0.800
O948     1.693204039    5.347787518   23.897646479 XXXX 1      oap1    O  -0.800
O949    11.446248613    2.743646261    2.214966197 XXXX 1      oap1    O  -0.650
O950    11.062400646    5.333714366    9.995610286 XXXX 1      oap1    O  -0.800
O951    11.108712773    5.125123505   17.098887885 XXXX 1      oap1    O  -0.800
O952    10.953164521    5.250452254   24.233133818 XXXX 1      oap1    O  -0.800
O953    19.695466593    3.487598388    1.831310766 XXXX 1      oap1    O  -0.650
O954    20.659031355    5.249919441   10.073418497 XXXX 1      oap1    O  -0.800
O955    20.477769424    5.198278069   16.822322879 XXXX 1      oap1    O  -0.800
O956    20.604002107    5.372565017   23.966869206 XXXX 1      oap1    O  -0.800
O957    29.867893088    5.299921437    2.516108949 XXXX 1      oap1    O  -0.625
O958    30.035532194    5.270860865   10.124571690 XXXX 1      oap1    O  -0.800
O959    29.984069071    5.222574249   16.872623780 XXXX 1      oap1    O  -0.800
O960    29.928490311    5.172941843   24.036710113 XXXX 1      oap1    O  -0.800
O961     7.880750376   27.536483091    3.240240579 XXXX 1      oap1    O  -0.625
O962     7.837612538   27.575612172   10.030477305 XXXX 1      oap1    O  -0.800
O963     7.690896775   27.562932616   16.968136446 XXXX 1      oap1    O  -0.800
O964     7.708694629   27.547397743   23.773920139 XXXX 1      oap1    O  -0.800
O965    17.100600661   27.958392114    3.036223927 XXXX 1      oap1    O  -0.625
O966    17.180734358   27.568969131   10.055667589 XXXX 1      oap1    O  -0.800
O967    17.182981591   27.590665451   16.802333722 XXXX 1      oap1    O  -0.800
O968    17.285188338   27.549485636   23.884960604 XXXX 1      oap1    O  -0.800
O969    25.194890148   25.841478361    3.034994572 XXXX 1      oap1    O  -0.650
O970    26.512164014   27.609876987    9.815642495 XXXX 1      oap1    O  -0.800
O971    26.580950729   27.546290321   16.934600697 XXXX 1      oap1    O  -0.800
O972    26.817692044   27.535373763   23.748225241 XXXX 1      oap1    O  -0.800
O973    36.189991415   28.684662629    3.010351845 XXXX 1      oap1    O  -0.650
O974    36.005110687   27.577782977   10.025588373 XXXX 1      oap1    O  -0.800
O975    36.036508289   27.444968683   17.060189047 XXXX 1      oap1    O  -0.800
O976    36.089313185   27.562559994   23.872279449 XXXX 1      oap1    O  -0.800
O977     3.007097616   19.084864640    2.989556687 XXXX 1      oap1    O  -0.625
O978     3.012534914   19.444541353    9.958984833 XXXX 1      oap1    O  -0.800
O979     2.959421758   19.199158240   17.075216524 XXXX 1      oap1    O  -0.800
O980     3.063165747   19.363655620   24.083036886 XXXX 1      oap1    O  -0.800
O981    10.635331877   18.970370431    2.019356221 XXXX 1      oap1    O  -0.650
O982    12.376432853   19.437674305   10.116142995 XXXX 1      oap1    O  -0.800
O983    12.476978511   19.424611505   16.967514320 XXXX 1      oap1    O  -0.800
O984    12.458552950   19.459225746   23.818893708 XXXX 1      oap1    O  -0.800
O985    21.714246380   20.544892340    2.812686221 XXXX 1      oap1    O  -0.650
O986    21.842158782   19.277448510    9.851249850 XXXX 1      oap1    O  -0.800
O987    21.878580966   19.333569796   17.071035616 XXXX 1      oap1    O  -0.800
O988    21.742618264   19.309307443   24.035168027 XXXX 1      oap1    O  -0.800
O989    31.114542984   19.503050823    3.105014587 XXXX 1      oap1    O  -0.625
O990    31.311874441   19.263100230   10.110495218 XXXX 1      oap1    O  -0.800
O991    31.317715985   19.305988057   16.984311255 XXXX 1      oap1    O  -0.800
O992    31.589161266   20.017661765   23.738089345 XXXX 1      oap1    O  -0.800
O993     7.603390533   11.248400430    2.785534716 XXXX 1      oap1    O  -0.625
O994     7.722440913   11.191867986    9.815635189 XXXX 1      oap1    O  -0.800
O995     7.775386285   11.227171203   16.791821748 XXXX 1      oap1    O  -0.800
O996     7.724150500   11.133954272   23.748798233 XXXX 1      oap1    O  -0.800
O997    16.686216114   11.976944158    3.192351435 XXXX 1      oap1    O  -0.650
O998    17.253623744   11.302887365    9.988921555 XXXX 1      oap1    O  -0.800
O999    17.158423989   11.307692297   16.996585178 XXXX 1      oap1    O  -0.800
O1000   17.224077612   11.314075470   23.918096146 XXXX 1      oap1    O  -0.800
O1001   26.226140416   11.255618645    2.899989151 XXXX 1      oap1    O  -0.625
O1002   26.503891242   11.242726728    9.997359969 XXXX 1      oap1    O  -0.800
O1003   26.685503435   11.356127364   16.920801659 XXXX 1      oap1    O  -0.800
O1004   26.604414685   11.365870606   24.042484697 XXXX 1      oap1    O  -0.800
O1005   35.874529692   12.323307835    2.582956111 XXXX 1      oap1    O  -0.650
O1006   36.141470750   11.380237597    9.988354260 XXXX 1      oap1    O  -0.800
O1007   36.119013715   11.228019470   16.991284743 XXXX 1      oap1    O  -0.800
O1008   35.939574460   11.287527116   23.926354676 XXXX 1      oap1    O  -0.800
O1009    3.259452384    4.016787430    3.131607314 XXXX 1      oap1    O  -0.650
O1010    3.146452111    2.997895511   10.147610509 XXXX 1      oap1    O  -0.800
O1011    3.146216545    3.038134726   17.115874729 XXXX 1      oap1    O  -0.800
O1012    3.041990422    3.156475370   24.034306295 XXXX 1      oap1    O  -0.800
O1013    9.337855352    1.554927322    2.977236481 XXXX 1      oap1    O  -0.625
O1014   12.604959022    3.327016423    9.865392605 XXXX 1      oap1    O  -0.800
O1015   12.454253805    2.984224666   16.896457957 XXXX 1      oap1    O  -0.800
O1016   12.582249381    3.325673452   23.867236436 XXXX 1      oap1    O  -0.800
O1017   21.846854031    2.867161780    2.910323194 XXXX 1      oap1    O  -0.625
O1018   21.870473130    3.019286850    9.787256046 XXXX 1      oap1    O  -0.800
O1019   21.845154956    3.042614561   16.944670582 XXXX 1      oap1    O  -0.800
O1020   21.968531342    3.225774427   23.755557087 XXXX 1      oap1    O  -0.800
O1021   31.403375528    3.329934139    2.887328850 XXXX 1      oap1    O  -0.650
O1022   31.391829105    3.107821915    9.814763874 XXXX 1      oap1    O  -0.800
O1023   31.273923231    3.109130934   16.880849513 XXXX 1      oap1    O  -0.800
O1024   31.394063892    3.010032494   23.665904813 XXXX 1      oap1    O  -0.800
Ca328    8.936170623   31.923512690    3.566232795 XXXX 1      ca+h    Ca  1.500
Ca329    8.353065892   30.910788942   10.065630975 XXXX 1      ca+h    Ca  1.500
Ca330    8.324476961   30.964825241   17.032762816 XXXX 1      ca+h    Ca  1.500
Ca331    8.510360155   31.012371609   23.917702501 XXXX 1      ca+h    Ca  1.500
Ca332   17.798857974   30.895850684    9.787203375 XXXX 1      ca+h    Ca  1.500
Ca333   17.619517984   30.921897866   16.909608471 XXXX 1      ca+h    Ca  1.500
Ca334   17.889189701   31.025096282   23.743024264 XXXX 1      ca+h    Ca  1.500
Ca335   27.068058913   30.995256775    9.772887053 XXXX 1      ca+h    Ca  1.500
Ca336   27.142625499   30.957318338   16.859510311 XXXX 1      ca+h    Ca  1.500
Ca337   27.175841794   30.811615603   24.007492048 XXXX 1      ca+h    Ca  1.500
Ca338   36.677030738   30.939556564    9.780216564 XXXX 1      ca+h    Ca  1.500
Ca339   36.646136673   31.009556676   16.943553001 XXXX 1      ca+h    Ca  1.500
Ca340   36.670223672   30.979449193   23.987019682 XXXX 1      ca+h    Ca  1.500
Ca341    3.609801707   22.792459890   10.085930011 XXXX 1      ca+h    Ca  1.500
Ca342    3.720860836   22.866709568   16.839284284 XXXX 1      ca+h    Ca  1.500
Ca343    3.907112745   22.878891540   23.779385222 XXXX 1      ca+h    Ca  1.500
Ca344   13.125217599   22.785920476   10.146925462 XXXX 1      ca+h    Ca  1.500
Ca345   13.073685737   22.780107200   16.929804887 XXXX 1      ca+h    Ca  1.500
Ca346   12.984974075   22.803970632   23.813033811 XXXX 1      ca+h    Ca  1.500
Ca347   22.476960331   22.665747065   10.034628621 XXXX 1      ca+h    Ca  1.500
Ca348   22.567901146   22.785291135   16.762920501 XXXX 1      ca+h    Ca  1.500
Ca349   22.477987569   22.787312370   24.058114439 XXXX 1      ca+h    Ca  1.500
Ca350   31.769083230   22.828104959   10.058177980 XXXX 1      ca+h    Ca  1.500
Ca351   31.954370891   22.773464631   16.958811884 XXXX 1      ca+h    Ca  1.500
Ca352   31.734063248   22.492900197   23.802688909 XXXX 1      ca+h    Ca  1.500
Ca353    8.401739411   14.786168205   10.039958473 XXXX 1      ca+h    Ca  1.500
Ca354    8.298287141   14.665132225   17.097610006 XXXX 1      ca+h    Ca  1.500
Ca355    8.385989912   14.687378962   24.072506493 XXXX 1      ca+h    Ca  1.500
Ca356   17.733884826   14.426631471    9.995154796 XXXX 1      ca+h    Ca  1.500
Ca357   17.685919814   14.597048708   16.835528377 XXXX 1      ca+h    Ca  1.500
Ca358   17.847151181   14.582475412   23.918455282 XXXX 1      ca+h    Ca  1.500
Ca359   27.190608797   14.468728478    9.991856736 XXXX 1      ca+h    Ca  1.500
Ca360   27.157985336   14.402812978   17.017584725 XXXX 1      ca+h    Ca  1.500
Ca361   26.975561616   14.524978682   23.861539377 XXXX 1      ca+h    Ca  1.500
Ca362   36.528535987   14.706662050   10.035346615 XXXX 1      ca+h    Ca  1.500
Ca363   36.590530602   14.657823971   17.044627593 XXXX 1      ca+h    Ca  1.500
Ca364   36.550040653   14.900440683   23.815946086 XXXX 1      ca+h    Ca  1.500
Ca365    3.822952573    6.598004286   10.017845953 XXXX 1      ca+h    Ca  1.500
Ca366    3.700091012    6.615425838   17.115026845 XXXX 1      ca+h    Ca  1.500
Ca367    3.846878053    6.628542999   24.013868252 XXXX 1      ca+h    Ca  1.500
Ca368   13.196848493    6.391216483    9.799920805 XXXX 1      ca+h    Ca  1.500
Ca369   13.143007508    6.476339928   16.994857142 XXXX 1      ca+h    Ca  1.500
Ca370   13.088420754    6.402066236   24.003312772 XXXX 1      ca+h    Ca  1.500
Ca371   22.637355637    6.413915918    9.940578630 XXXX 1      ca+h    Ca  1.500
Ca372   22.527502298    6.506723400   16.926512821 XXXX 1      ca+h    Ca  1.500
Ca373   22.652524340    6.551266428   23.826003560 XXXX 1      ca+h    Ca  1.500
Ca374   31.998718340    6.491394340    9.975004628 XXXX 1      ca+h    Ca  1.500
Ca375   32.002733864    6.656336585   16.960338303 XXXX 1      ca+h    Ca  1.500
Ca376   31.970953342    6.496981548   23.979631552 XXXX 1      ca+h    Ca  1.500
P129     5.898699951   32.691069389    3.068227856 XXXX 1      pap     P   1.000
P130     5.827620289   32.808097061   10.115048034 XXXX 1      pap     P   1.000
P131     5.817589293   32.781121283   16.976298457 XXXX 1      pap     P   1.000
P132     5.716009829   32.761495443   23.944913142 XXXX 1      pap     P   1.000
P133    16.159663198   33.116046940    3.045604274 XXXX 1      pap     P   1.000
P134    15.235933506   32.709690177    9.738573045 XXXX 1      pap     P   1.000
P135    15.133740925   32.849312570   16.865104372 XXXX 1      pap     P   1.000
P136    15.275446745   32.893678023   23.884275314 XXXX 1      pap     P   1.000
P137    26.150046133   31.584750757    2.725357960 XXXX 1      pap     P   1.000
P138    24.590662435   32.732622079    9.719424390 XXXX 1      pap     P   1.000
P139    24.562643294   32.773940265   16.780420201 XXXX 1      pap     P   1.000
P140    24.724965705   32.937814002   23.819483615 XXXX 1      pap     P   1.000
P141    35.230638583   32.917492975    2.932815506 XXXX 1      pap     P   1.000
P142    34.164086887   32.819499291    9.894154000 XXXX 1      pap     P   1.000
P143    34.155404642   32.850305961   16.999708537 XXXX 1      pap     P   1.000
P144    34.166233449   32.844657899   23.851154844 XXXX 1      pap     P   1.000
P145     1.018255294   24.572391777    2.964719020 XXXX 1      pap     P   1.000
P146     0.953382322   24.630245267   10.101532977 XXXX 1      pap     P   1.000
P147     1.015765086   24.627859985   16.966780769 XXXX 1      pap     P   1.000
P148     1.262828370   24.714456243   23.901628377 XXXX 1      pap     P   1.000
P149    10.914462114   24.226257765    2.773603898 XXXX 1      pap     P   1.000
P150    10.495447576   24.577326762   10.062563779 XXXX 1      pap     P   1.000
P151    10.544423337   24.650081822   17.003657879 XXXX 1      pap     P   1.000
P152    10.435943444   24.651366452   24.066165430 XXXX 1      pap     P   1.000
P153    20.733881505   24.568507818    3.037985102 XXXX 1      pap     P   1.000
P154    19.931275166   24.563402617    9.912934284 XXXX 1      pap     P   1.000
P155    19.903761385   24.530626236   16.894499817 XXXX 1      pap     P   1.000
P156    19.937046877   24.697895106   23.774882391 XXXX 1      pap     P   1.000
P157    30.779149733   23.938439071    2.869007080 XXXX 1      pap     P   1.000
P158    29.311678555   24.682900321    9.970933148 XXXX 1      pap     P   1.000
P159    29.402251004   24.639584830   16.990092268 XXXX 1      pap     P   1.000
P160    29.437115333   24.514300691   23.829861251 XXXX 1      pap     P   1.000
P161     5.900518092   16.237366051    2.848972995 XXXX 1      pap     P   1.000
P162     5.769797893   16.585646495   10.004398149 XXXX 1      pap     P   1.000
P163     5.674118671   16.506053070   16.995277641 XXXX 1      pap     P   1.000
P164     5.839662238   16.579287002   23.966750395 XXXX 1      pap     P   1.000
P165    15.905349889   16.699747462    3.071549100 XXXX 1      pap     P   1.000
P166    15.181653528   16.394952193    9.997038586 XXXX 1      pap     P   1.000
P167    15.236700578   16.497513714   17.012442746 XXXX 1      pap     P   1.000
P168    15.120752245   16.630535145   24.089989791 XXXX 1      pap     P   1.000
P169    24.216311383   16.588342520    3.213450819 XXXX 1      pap     P   1.000
P170    24.802782818   16.412240143   10.089950211 XXXX 1      pap     P   1.000
P171    24.790302445   16.362950396   16.979640486 XXXX 1      pap     P   1.000
P172    24.615425761   16.558417654   24.042754881 XXXX 1      pap     P   1.000
P173    34.668485347   16.632020492    2.900422493 XXXX 1      pap     P   1.000
P174    34.052504485   16.452802574   10.039491582 XXXX 1      pap     P   1.000
P175    34.022249272   16.554448584   16.982707845 XXXX 1      pap     P   1.000
P176    33.996872659   16.517241612   23.917057755 XXXX 1      pap     P   1.000
P177     1.604252999    8.918027718    2.734560929 XXXX 1      pap     P   1.000
P178     1.190617353    8.310718883    9.927700309 XXXX 1      pap     P   1.000
P179     1.206852447    8.398035756   16.968828125 XXXX 1      pap     P   1.000
P180     1.130111500    8.587869326   24.005446901 XXXX 1      pap     P   1.000
P181    11.902506178    7.611123531    2.889576732 XXXX 1      pap     P   1.000
P182    10.605045140    8.409596580   10.016674941 XXXX 1      pap     P   1.000
P183    10.659098578    8.384340283   16.932637649 XXXX 1      pap     P   1.000
P184    10.713958084    8.301427731   24.026280306 XXXX 1      pap     P   1.000
P185    19.689596930    8.637758234    3.104708654 XXXX 1      pap     P   1.000
P186    19.858642172    8.299663686   10.059767114 XXXX 1      pap     P   1.000
P187    20.054274742    8.353196129   17.026296062 XXXX 1      pap     P   1.000
P188    19.906156056    8.376074536   23.990687656 XXXX 1      pap     P   1.000
P189    30.116450863    8.559451722    3.059106652 XXXX 1      pap     P   1.000
P190    29.300786154    8.298617173    9.900244714 XXXX 1      pap     P   1.000
P191    29.328717919    8.294751759   17.008820376 XXXX 1      pap     P   1.000
P192    29.476377013    8.365573440   23.997077985 XXXX 1      pap     P   1.000
O1025    4.512230194   31.981371164    3.002350567 XXXX 1      oap1    O  -0.625
O1026    4.470032620   32.073191262   10.346388252 XXXX 1      oap1    O  -0.800
O1027    4.510270479   32.030418539   17.230084680 XXXX 1      oap1    O  -0.800
O1028    4.386726826   31.990708174   24.204980710 XXXX 1      oap1    O  -0.800
O1029   16.458350985   32.262087715    1.794320650 XXXX 1      oap1    O  -0.650
O1030   13.859969272   31.938416985    9.836649362 XXXX 1      oap1    O  -0.800
O1031   13.747238666   32.113614457   16.868427922 XXXX 1      oap1    O  -0.800
O1032   13.945428642   32.173170690   23.968362154 XXXX 1      oap1    O  -0.800
O1033   24.704168860   30.970422143    2.591268983 XXXX 1      oap1    O  -0.625
O1034   23.249191972   32.032822124    9.925198460 XXXX 1      oap1    O  -0.800
O1035   23.238248280   32.013071907   16.820657505 XXXX 1      oap1    O  -0.800
O1036   23.466017438   32.214263118   24.262196807 XXXX 1      oap1    O  -0.800
O1037   35.386765235   32.217376220    1.603741745 XXXX 1      oap1    O  -0.650
O1038   32.833497747   32.138771967    9.936992638 XXXX 1      oap1    O  -0.800
O1039   32.790737577   32.121797618   17.076318938 XXXX 1      oap1    O  -0.800
O1040   32.757850173   32.227550274   23.884951751 XXXX 1      oap1    O  -0.800
O1041   -0.211845903   23.690438143    2.749243213 XXXX 1      oap1    O  -0.625
O1042   -0.368480360   23.934736565   10.216562668 XXXX 1      oap1    O  -0.800
O1043   -0.323471931   23.946545294   16.928824209 XXXX 1      oap1    O  -0.800
O1044    0.039263873   23.894861045   24.152623628 XXXX 1      oap1    O  -0.800
O1045    9.772906816   23.324292509    2.237140564 XXXX 1      oap1    O  -0.650
O1046    9.210327213   23.762456504    9.997050822 XXXX 1      oap1    O  -0.800
O1047    9.188027269   23.968213810   17.140749903 XXXX 1      oap1    O  -0.800
O1048    9.080613721   24.037704554   24.248620669 XXXX 1      oap1    O  -0.800
O1049   20.593695227   23.722652089    1.750676155 XXXX 1      oap1    O  -0.650
O1050   18.590079825   23.801549252    9.790003882 XXXX 1      oap1    O  -0.800
O1051   18.522671438   23.824209764   16.766991160 XXXX 1      oap1    O  -0.800
O1052   18.690782949   23.911449272   24.066418096 XXXX 1      oap1    O  -0.800
O1053   30.013901491   24.264475500    4.187079779 XXXX 1      oap1    O  -0.625
O1054   27.946249761   23.919748825    9.880838308 XXXX 1      oap1    O  -0.800
O1055   28.033071316   23.875054598   16.925076883 XXXX 1      oap1    O  -0.800
O1056   27.952491204   24.013573898   23.905282845 XXXX 1      oap1    O  -0.800
O1057    4.751206171   15.215051613    2.641880799 XXXX 1      oap1    O  -0.625
O1058    4.421032020   15.841447118   10.121485344 XXXX 1      oap1    O  -0.800
O1059    4.385843192   15.860553019   17.168922933 XXXX 1      oap1    O  -0.800
O1060    4.450798328   15.961436000   24.309658233 XXXX 1      oap1    O  -0.800
O1061   15.976253751   15.935821108    4.385982795 XXXX 1      oap1    O  -0.625
O1062   13.853676387   15.743956363   10.331438782 XXXX 1      oap1    O  -0.800
O1063   13.952365398   15.683830268   17.034125845 XXXX 1      oap1    O  -0.800
O1064   13.731029347   15.966845985   24.014110888 XXXX 1      oap1    O  -0.800
O1065   22.941759969   15.837374226    3.622639183 XXXX 1      oap1    O  -0.650
O1066   23.380447214   15.854803237   10.041365727 XXXX 1      oap1    O  -0.800
O1067   23.391470281   15.685138514   16.843076704 XXXX 1      oap1    O  -0.800
O1068   23.242420019   15.895392401   23.938127487 XXXX 1      oap1    O  -0.800
O1069   33.769690856   16.027155729    1.818350297 XXXX 1      oap1    O  -0.650
O1070   32.721301287   15.645845383   10.050168675 XXXX 1      oap1    O  -0.800
O1071   32.708880109   15.808953506   16.900951873 XXXX 1      oap1    O  -0.800
O1072   32.662242005   15.759208124   23.789143036 XXXX 1      oap1    O  -0.800
O1073    0.491792505   10.036212418    2.993445554 XXXX 1      oap1    O  -0.625
O1074   -0.128082776    7.486145057    9.994863890 XXXX 1      oap1    O  -0.800
O1075   -0.070300801    7.698405949   16.889942105 XXXX 1      oap1    O  -0.800
O1076   -0.041001792    7.788072795   24.488008739 XXXX 1      oap1    O  -0.800
O1077   11.221121913    6.539408250    2.076276588 XXXX 1      oap1    O  -0.650
O1078    9.323800353    7.640690935    9.888178849 XXXX 1      oap1    O  -0.800
O1079    9.350788052    7.594618196   16.614844038 XXXX 1      oap1    O  -0.800
O1080    9.379408153    7.591109207   24.146729877 XXXX 1      oap1    O  -0.800
O1081   18.155840903    8.429435228    3.046397294 XXXX 1      oap1    O  -0.625
O1082   18.489405972    7.631424411    9.778962320 XXXX 1      oap1    O  -0.800
O1083   18.707203113    7.518602308   16.835044849 XXXX 1      oap1    O  -0.800
O1084   18.730985929    7.401683209   24.204502595 XXXX 1      oap1    O  -0.800
O1085   30.394365223    7.683314229    1.836437856 XXXX 1      oap1    O  -0.650
O1086   27.945996432    7.586842257    9.943830744 XXXX 1      oap1    O  -0.800
O1087   28.005305771    7.562722914   17.116408331 XXXX 1      oap1    O  -0.800
O1088   28.125758904    7.542715699   23.962780524 XXXX 1      oap1    O  -0.800
O1089    5.884879943   34.216583039    3.187990508 XXXX 1      oap1    O  -0.650
O1090    5.742069805   34.353847963    9.986506710 XXXX 1      oap1    O  -0.800
O1091    5.658006182   34.300996786   16.945487190 XXXX 1      oap1    O  -0.800
O1092    5.525343087   34.289270757   24.015943250 XXXX 1      oap1    O  -0.800
O1093   15.371321095   34.382837161    2.806065422 XXXX 1      oap1    O  -0.625
O1094   14.857829614   34.234728614    9.840395107 XXXX 1      oap1    O  -0.800
O1095   15.062390128   34.366159960   16.890725533 XXXX 1      oap1    O  -0.800
O1096   15.154338495   34.446594068   23.851428419 XXXX 1      oap1    O  -0.800
O1097   26.444268627   32.409942049    1.491920654 XXXX 1      oap1    O  -0.650
O1098   24.534661688   34.334361704    9.678920360 XXXX 1      oap1    O  -0.800
O1099   24.448616500   34.344678324   16.793865270 XXXX 1      oap1    O  -0.800
O1100   24.358926185   34.430044711   23.668327114 XXXX 1      oap1    O  -0.800
O1101   34.356778777   34.144715181    2.814488788 XXXX 1      oap1    O  -0.625
O1102   33.958332164   34.392434009    9.903072451 XXXX 1      oap1    O  -0.800
O1103   34.044822154   34.416670676   16.944908950 XXXX 1      oap1    O  -0.800
O1104   34.237223265   34.391718047   23.958744032 XXXX 1      oap1    O  -0.800
O1105    0.638010436   26.010338705    2.861584209 XXXX 1      oap1    O  -0.650
O1106    0.795371368   26.188679080   10.255558000 XXXX 1      oap1    O  -0.800
O1107    0.976299755   26.137656517   16.824932655 XXXX 1      oap1    O  -0.800
O1108    0.830557751   26.220910067   23.885955981 XXXX 1      oap1    O  -0.800
O1109   10.413721750   25.672470146    2.944017518 XXXX 1      oap1    O  -0.625
O1110   10.281838199   26.121793878   10.037829990 XXXX 1      oap1    O  -0.800
O1111   10.454611234   26.261429486   17.044002321 XXXX 1      oap1    O  -0.800
O1112   10.403915126   26.215207468   24.031681034 XXXX 1      oap1    O  -0.800
O1113   19.887616265   25.914788082    2.913314663 XXXX 1      oap1    O  -0.625
O1114   19.633644443   26.055593145    9.988066237 XXXX 1      oap1    O  -0.800
O1115   19.793153737   26.084957265   16.977735256 XXXX 1      oap1    O  -0.800
O1116   19.743520630   26.217275473   23.738728965 XXXX 1      oap1    O  -0.800
O1117   30.016035583   24.288873708    1.598028577 XXXX 1      oap1    O  -0.650
O1118   29.200075871   26.231258864   10.085754544 XXXX 1      oap1    O  -0.800
O1119   29.164292564   26.170675447   17.101884875 XXXX 1      oap1    O  -0.800
O1120   29.493315863   26.084255424   23.791940879 XXXX 1      oap1    O  -0.800
O1121    5.301350868   17.626070698    2.896255368 XXXX 1      oap1    O  -0.650
O1122    5.584190665   18.131863269    9.860569493 XXXX 1      oap1    O  -0.800
O1123    5.500106413   18.034139697   16.872663176 XXXX 1      oap1    O  -0.800
O1124    5.687844245   18.193630180   23.936461358 XXXX 1      oap1    O  -0.800
O1125   16.067690057   15.680826152    1.928549712 XXXX 1      oap1    O  -0.650
O1126   14.956731630   17.903865419    9.956512244 XXXX 1      oap1    O  -0.800
O1127   14.885444871   18.017224709   17.009552225 XXXX 1      oap1    O  -0.800
O1128   15.023115868   18.157902323   23.881363328 XXXX 1      oap1    O  -0.800
O1129   23.897146891   18.092767679    3.119443084 XXXX 1      oap1    O  -0.625
O1130   24.721446154   17.929979910   10.096501292 XXXX 1      oap1    O  -0.800
O1131   24.689305145   17.892029723   17.013307697 XXXX 1      oap1    O  -0.800
O1132   24.602457207   18.065911192   24.175028897 XXXX 1      oap1    O  -0.800
O1133   34.420328522   18.136715006    2.923245742 XXXX 1      oap1    O  -0.625
O1134   33.796536953   17.973011597   10.083981915 XXXX 1      oap1    O  -0.800
O1135   33.955104714   18.131483436   17.126054820 XXXX 1      oap1    O  -0.800
O1136   33.780580916   18.057209172   24.024801517 XXXX 1      oap1    O  -0.800
O1137    2.928685725    9.656485637    2.852225405 XXXX 1      oap1    O  -0.650
O1138    0.941558665    9.821722432    9.836123202 XXXX 1      oap1    O  -0.800
O1139    1.031606074    9.934613430   16.943762209 XXXX 1      oap1    O  -0.800
O1140    0.831205092   10.132369834   24.068392385 XXXX 1      oap1    O  -0.800
O1141   11.857654303    8.864188356    2.050979831 XXXX 1      oap1    O  -0.625
O1142   10.475679543    9.926242781    9.934639615 XXXX 1      oap1    O  -0.800
O1143   10.403905705    9.903041841   16.995093799 XXXX 1      oap1    O  -0.800
O1144   10.477498956    9.766981582   23.930031449 XXXX 1      oap1    O  -0.800
O1145   20.014176482   10.039201680    3.609682952 XXXX 1      oap1    O  -0.650
O1146   19.698169244    9.868415215   10.008579672 XXXX 1      oap1    O  -0.800
O1147   19.767276786    9.864188590   17.048103931 XXXX 1      oap1    O  -0.800
O1148   19.484735364    9.923483662   24.062874901 XXXX 1      oap1    O  -0.800
O1149   28.988959231    9.615728368    2.898749240 XXXX 1      oap1    O  -0.625
O1150   29.120354483    9.834227584    9.782094108 XXXX 1      oap1    O  -0.800
O1151   29.124421145    9.827833163   17.062612977 XXXX 1      oap1    O  -0.800
O1152   29.029365580    9.809061745   23.826464697 XXXX 1      oap1    O  -0.800
Ca377    2.575510757   24.728041917    6.562285791 XXXX 1      ca+h    Ca  1.500
Ca378    2.245150689   24.859970992   13.439225623 XXXX 1      ca+h    Ca  1.500
Ca379    2.386572585   24.873775393   20.359538094 XXXX 1      ca+h    Ca  1.500
Ca380   11.843748110   24.570459881    6.476166519 XXXX 1      ca+h    Ca  1.500
Ca381   11.690024525   24.787162829   13.419441008 XXXX 1      ca+h    Ca  1.500
Ca382   11.825916838   24.682975490   20.435136469 XXXX 1      ca+h    Ca  1.500
Ca383   21.002783997   24.751399232    6.427259439 XXXX 1      ca+h    Ca  1.500
Ca384   21.162222370   24.711000200   13.451511141 XXXX 1      ca+h    Ca  1.500
Ca385   21.269343037   24.737633013   20.295479979 XXXX 1      ca+h    Ca  1.500
Ca386   30.709784339   24.922815327    6.480665507 XXXX 1      ca+h    Ca  1.500
Ca387   30.680878426   24.700459044   13.390756263 XXXX 1      ca+h    Ca  1.500
Ca388   30.719824166   24.853344356   20.398464251 XXXX 1      ca+h    Ca  1.500
Ca389    7.023558152   16.692781855    6.501806764 XXXX 1      ca+h    Ca  1.500
Ca390    7.029462167   16.611419403   13.485874507 XXXX 1      ca+h    Ca  1.500
Ca391    7.080782617   16.638481181   20.443317319 XXXX 1      ca+h    Ca  1.500
Ca392   16.433993035   16.634817558    6.584009452 XXXX 1      ca+h    Ca  1.500
Ca393   16.563541233   16.445907089   13.333309461 XXXX 1      ca+h    Ca  1.500
Ca394   16.273847991   16.667744213   20.630595075 XXXX 1      ca+h    Ca  1.500
Ca395   25.689439056   16.770361181    6.722855083 XXXX 1      ca+h    Ca  1.500
Ca396   25.915458838   16.566460854   13.623666541 XXXX 1      ca+h    Ca  1.500
Ca397   25.960239995   16.620900471   20.555572373 XXXX 1      ca+h    Ca  1.500
Ca398   35.258170386   16.559827676    6.514167499 XXXX 1      ca+h    Ca  1.500
Ca399   35.133340776   16.616539764   13.403528288 XXXX 1      ca+h    Ca  1.500
Ca400   35.417004404   16.626866478   20.422614652 XXXX 1      ca+h    Ca  1.500
Ca401    2.074968749    8.730388396    6.367488384 XXXX 1      ca+h    Ca  1.500
Ca402    2.506195072    8.591371777   13.449502069 XXXX 1      ca+h    Ca  1.500
Ca403    2.396560001    8.450869671   20.596754869 XXXX 1      ca+h    Ca  1.500
Ca404   11.848849581    8.406457070    6.495218729 XXXX 1      ca+h    Ca  1.500
Ca405   11.741475043    8.477968926   13.595455909 XXXX 1      ca+h    Ca  1.500
Ca406   12.026519628    8.401998111   20.496315649 XXXX 1      ca+h    Ca  1.500
Ca407   13.190656862    8.560888643   26.868244794 XXXX 1      ca+h    Ca  1.500
Ca408   21.130874605    8.478091870    6.609802584 XXXX 1      ca+h    Ca  1.500
Ca409   21.354598266    8.299726627   13.392975293 XXXX 1      ca+h    Ca  1.500
Ca410   21.238318821    8.479606990   20.470435613 XXXX 1      ca+h    Ca  1.500
Ca411   30.702850484    8.323951428    6.475479848 XXXX 1      ca+h    Ca  1.500
Ca412   30.622786095    8.351255700   13.432994433 XXXX 1      ca+h    Ca  1.500
Ca413   30.489323430    8.472229063   20.425486300 XXXX 1      ca+h    Ca  1.500
Ca414    7.263773129    0.398627704    6.773490651 XXXX 1      ca+h    Ca  1.500
Ca415    7.207824908    0.331868762   13.516603906 XXXX 1      ca+h    Ca  1.500
Ca416    7.051158788    0.275360865   20.461593748 XXXX 1      ca+h    Ca  1.500
Ca417   16.516663191    0.075699899    6.265763370 XXXX 1      ca+h    Ca  1.500
Ca418   16.458519992    0.266947729   13.388318599 XXXX 1      ca+h    Ca  1.500
Ca419   16.377444563    0.319883020   20.311129033 XXXX 1      ca+h    Ca  1.500
Ca420   25.742465013    0.350021951    6.152616554 XXXX 1      ca+h    Ca  1.500
Ca421   26.042288015    0.341115162   13.259650464 XXXX 1      ca+h    Ca  1.500
Ca422   25.715665909    0.375409012   20.228498146 XXXX 1      ca+h    Ca  1.500
Ca423   35.574793611    0.194762656    6.429276165 XXXX 1      ca+h    Ca  1.500
Ca424   35.353299596    0.246370258   13.444903574 XXXX 1      ca+h    Ca  1.500
Ca425   35.357190335    0.288568158   20.472189994 XXXX 1      ca+h    Ca  1.500
Ca426   35.853652079    0.211657074   27.303967426 XXXX 1      ca+h    Ca  1.500
P193     2.726730671   27.820420324    6.733810420 XXXX 1      pap     P   1.000
P194     2.626465890   27.971961472   13.610106510 XXXX 1      pap     P   1.000
P195     2.722106617   27.979421339   20.459374991 XXXX 1      pap     P   1.000
P196     2.736899151   27.729399997   27.530939959 XXXX 1      pap     P   1.000
P197    12.127217531   27.788982972    6.451376297 XXXX 1      pap     P   1.000
P198    12.055235369   27.919417580   13.444373885 XXXX 1      pap     P   1.000
P199    12.305338349   27.854331209   20.591151112 XXXX 1      pap     P   1.000
P200    12.164594069   28.035831533   27.578094602 XXXX 1      pap     P   1.000
P201    21.411727043   27.928678618    6.398756945 XXXX 1      pap     P   1.000
P202    21.578937826   27.844798888   13.469190691 XXXX 1      pap     P   1.000
P203    21.589236608   27.922062487   20.347708271 XXXX 1      pap     P   1.000
P204    22.521816155   27.514183131   27.562306912 XXXX 1      pap     P   1.000
P205    30.958649656   28.014933809    6.432311662 XXXX 1      pap     P   1.000
P206    30.961072619   27.902957921   13.486294043 XXXX 1      pap     P   1.000
P207    30.969658025   28.022398653   20.501366613 XXXX 1      pap     P   1.000
P208    31.881464337   27.464845355   27.391468594 XXXX 1      pap     P   1.000
P209     7.382834986   19.823267129    6.412707622 XXXX 1      pap     P   1.000
P210     7.348546905   19.706117071   13.508423694 XXXX 1      pap     P   1.000
P211     7.490652815   19.763091578   20.476720782 XXXX 1      pap     P   1.000
P212     7.975454423   19.364679404   27.356702249 XXXX 1      pap     P   1.000
P213    16.632051222   19.762168521    6.506173982 XXXX 1      pap     P   1.000
P214    16.852786322   19.674664539   13.436368257 XXXX 1      pap     P   1.000
P215    16.793186849   19.806653571   20.400176970 XXXX 1      pap     P   1.000
P216    16.586194536   20.113625287   27.470095104 XXXX 1      pap     P   1.000
P217    26.215486735   19.830125669    6.433179539 XXXX 1      pap     P   1.000
P218    26.315503198   19.499146654   13.478940037 XXXX 1      pap     P   1.000
P219    26.302527241   19.686326890   20.412189331 XXXX 1      pap     P   1.000
P220    26.477331505   17.790470111   27.617092936 XXXX 1      pap     P   1.000
P221    35.432751941   19.719874539    6.559565092 XXXX 1      pap     P   1.000
P222    35.608102049   19.806775236   13.535761321 XXXX 1      pap     P   1.000
P223    35.714422697   19.801531449   20.470088032 XXXX 1      pap     P   1.000
P224    35.534804163   19.819773035   27.534613039 XXXX 1      pap     P   1.000
P225     2.585458276   11.653600801    6.301205371 XXXX 1      pap     P   1.000
P226     2.847035209   11.532136485   13.367330630 XXXX 1      pap     P   1.000
P227     2.723839494   11.562276300   20.431548833 XXXX 1      pap     P   1.000
P228     3.185076096   11.592096311   27.351023627 XXXX 1      pap     P   1.000
P229    12.394110342   11.562114407    6.285910194 XXXX 1      pap     P   1.000
P230    12.143603329   11.480026517   13.512577892 XXXX 1      pap     P   1.000
P231    12.132093990   11.603338105   20.531430056 XXXX 1      pap     P   1.000
P232    12.035922564   11.526403973   27.391181895 XXXX 1      pap     P   1.000
P233    21.422765472   11.436683750    6.501781067 XXXX 1      pap     P   1.000
P234    21.486854346   11.348828281   13.434154354 XXXX 1      pap     P   1.000
P235    21.672589749   11.633276117   20.517202592 XXXX 1      pap     P   1.000
P236    21.566975231   11.270734663   27.451046922 XXXX 1      pap     P   1.000
P237    30.878154734   11.623457258    6.474846726 XXXX 1      pap     P   1.000
P238    31.055349700   11.460576930   13.559613141 XXXX 1      pap     P   1.000
P239    30.890866551   11.488583877   20.340599775 XXXX 1      pap     P   1.000
P240    30.828563637   11.891381205   27.388696879 XXXX 1      pap     P   1.000
P241     7.442157497    3.562670506    6.595413354 XXXX 1      pap     P   1.000
P242     7.540432041    3.542957122   13.525271118 XXXX 1      pap     P   1.000
P243     7.425016781    3.371926975   20.516424666 XXXX 1      pap     P   1.000
P244     8.073215910    2.590063220   27.210953964 XXXX 1      pap     P   1.000
P245    16.788354752    3.475968868    6.564532095 XXXX 1      pap     P   1.000
P246    16.847971075    3.335066444   13.428436802 XXXX 1      pap     P   1.000
P247    16.878737739    3.419060120   20.384413244 XXXX 1      pap     P   1.000
P248    16.944715702    2.383302781   27.183372526 XXXX 1      pap     P   1.000
P249    26.177043320    3.343742596    6.257825501 XXXX 1      pap     P   1.000
P250    26.414472257    3.403515504   13.401604133 XXXX 1      pap     P   1.000
P251    26.145873813    3.483961550   20.300649585 XXXX 1      pap     P   1.000
P252    26.304826312    2.395714788   27.066333810 XXXX 1      pap     P   1.000
P253    35.830291356    3.384892978    6.411033936 XXXX 1      pap     P   1.000
P254    35.776014110    3.480905871   13.499258754 XXXX 1      pap     P   1.000
P255    35.822742524    3.455156495   20.479903895 XXXX 1      pap     P   1.000
P256    36.452126050    3.173431626   27.441123445 XXXX 1      pap     P   1.000
O1153    1.465714831   28.643623936    6.561021620 XXXX 1      oap1    O  -0.800
O1154    1.400703332   28.855604948   13.611082391 XXXX 1      oap1    O  -0.800
O1155    1.544957580   28.884502272   20.420963629 XXXX 1      oap1    O  -0.800
O1156    1.271455660   28.260793548   27.818103391 XXXX 1      oap1    O  -0.625
O1157   10.858875929   28.608588149    6.188891009 XXXX 1      oap1    O  -0.800
O1158   10.671869181   28.606255067   13.559796610 XXXX 1      oap1    O  -0.800
O1159   11.014259590   28.698109920   20.400090520 XXXX 1      oap1    O  -0.800
O1160   10.968577045   28.962897041   27.846873895 XXXX 1      oap1    O  -0.650
O1161   20.311275987   28.923773762    6.363554909 XXXX 1      oap1    O  -0.800
O1162   20.185573330   28.444651809   13.455362427 XXXX 1      oap1    O  -0.800
O1163   20.216127287   28.606433264   20.463402563 XXXX 1      oap1    O  -0.800
O1164   21.616921958   27.845307531   28.753507362 XXXX 1      oap1    O  -0.650
O1165   29.680328545   28.868350120    6.628790024 XXXX 1      oap1    O  -0.800
O1166   29.649920180   28.679315953   13.204754653 XXXX 1      oap1    O  -0.800
O1167   29.681211555   28.901804904   20.440256244 XXXX 1      oap1    O  -0.800
O1168   30.867171756   27.518830446   26.238117915 XXXX 1      oap1    O  -0.625
O1169    6.067226576   20.625811771    6.496702629 XXXX 1      oap1    O  -0.800
O1170    5.976631179   20.469242598   13.487220756 XXXX 1      oap1    O  -0.800
O1171    6.134814722   20.502074233   20.379150777 XXXX 1      oap1    O  -0.800
O1172    7.136183997   19.213771214   26.032733373 XXXX 1      oap1    O  -0.625
O1173   15.378863782   20.569817857    6.798491326 XXXX 1      oap1    O  -0.800
O1174   15.540310488   20.443245816   13.544132731 XXXX 1      oap1    O  -0.800
O1175   15.576033364   20.700024719   20.590845673 XXXX 1      oap1    O  -0.800
O1176   15.367078489   21.094665158   27.335203734 XXXX 1      oap1    O  -0.625
O1177   24.870300166   20.565251960    6.286596989 XXXX 1      oap1    O  -0.800
O1178   25.006769518   20.242578313   13.140345437 XXXX 1      oap1    O  -0.800
O1179   24.984575651   20.518329733   20.451648397 XXXX 1      oap1    O  -0.800
O1180   27.151842623   18.549380825   26.487175719 XXXX 1      oap1    O  -0.625
O1181   34.156737900   20.600838528    6.526079234 XXXX 1      oap1    O  -0.800
O1182   34.238164316   20.522816294   13.631174226 XXXX 1      oap1    O  -0.800
O1183   34.437738207   20.680276915   20.377122241 XXXX 1      oap1    O  -0.800
O1184   35.810452372   18.746310991   28.538280931 XXXX 1      oap1    O  -0.650
O1185    1.304140440   12.591367373    6.318044041 XXXX 1      oap1    O  -0.800
O1186    1.507927417   12.257138414   13.567328067 XXXX 1      oap1    O  -0.800
O1187    1.477908347   12.468796130   20.556868492 XXXX 1      oap1    O  -0.800
O1188    1.728567675   11.998739090   27.023695043 XXXX 1      oap1    O  -0.625
O1189   11.027303855   12.273271327    6.487067065 XXXX 1      oap1    O  -0.800
O1190   10.827211132   12.422778280   13.487496165 XXXX 1      oap1    O  -0.800
O1191   10.765139488   12.290914091   20.252111118 XXXX 1      oap1    O  -0.800
O1192   11.922965866   10.623446810   26.205309038 XXXX 1      oap1    O  -0.625
O1193   20.136753287   12.245248483    6.433287911 XXXX 1      oap1    O  -0.800
O1194   20.249706035   12.211197963   13.258841159 XXXX 1      oap1    O  -0.800
O1195   20.416199297   12.444132346   20.173839951 XXXX 1      oap1    O  -0.800
O1196   20.223682043   11.699059959   28.018646809 XXXX 1      oap1    O  -0.650
O1197   29.564154106   12.208888949    6.060223414 XXXX 1      oap1    O  -0.800
O1198   29.793056888   12.358247644   13.260037679 XXXX 1      oap1    O  -0.800
O1199   29.751222264   12.429977479   20.162245820 XXXX 1      oap1    O  -0.800
O1200   30.733361949   10.808699670   28.479755656 XXXX 1      oap1    O  -0.650
O1201    6.163157518    4.390541007    6.664930061 XXXX 1      oap1    O  -0.800
O1202    6.202624364    4.333859912   13.609313180 XXXX 1      oap1    O  -0.800
O1203    6.198323888    4.323956560   20.375073255 XXXX 1      oap1    O  -0.800
O1204    6.907528449    2.948897968   26.193785349 XXXX 1      oap1    O  -0.625
O1205   15.413177248    3.962266806    6.076845164 XXXX 1      oap1    O  -0.800
O1206   15.580373260    4.169772040   13.562373867 XXXX 1      oap1    O  -0.800
O1207   15.605137084    4.293008527   20.400564340 XXXX 1      oap1    O  -0.800
O1208   15.447347494    2.092060974   27.441773767 XXXX 1      oap1    O  -0.625
O1209   24.931516155    4.245219437    6.374390801 XXXX 1      oap1    O  -0.800
O1210   25.089568995    4.105359360   13.828065524 XXXX 1      oap1    O  -0.800
O1211   24.962123960    4.442155006   20.293776578 XXXX 1      oap1    O  -0.800
O1212   24.840880055    2.333246927   27.587002376 XXXX 1      oap1    O  -0.625
O1213   34.516537595    4.254226637    6.538861095 XXXX 1      oap1    O  -0.800
O1214   34.454382344    4.243722121   13.671380123 XXXX 1      oap1    O  -0.800
O1215   34.523797540    4.220337817   20.108452283 XXXX 1      oap1    O  -0.800
O1216   35.861760473    2.796384950   28.822725114 XXXX 1      oap1    O  -0.650
O1217    3.965271918   28.726505136    6.857404818 XXXX 1      oap1    O  -0.800
O1218    3.911675394   28.813264591   13.702410954 XXXX 1      oap1    O  -0.800
O1219    4.079282674   28.710805475   20.590232455 XXXX 1      oap1    O  -0.800
O1220    3.709415018   28.829170194   27.784496344 XXXX 1      oap1    O  -0.650
O1221   13.377108191   28.671674025    6.328690815 XXXX 1      oap1    O  -0.800
O1222   13.229765801   28.955441487   13.383009166 XXXX 1      oap1    O  -0.800
O1223   13.587572278   28.738379473   20.654208732 XXXX 1      oap1    O  -0.800
O1224   13.402677493   28.901690234   27.246815733 XXXX 1      oap1    O  -0.625
O1225   22.781963767   28.699339063    6.418857892 XXXX 1      oap1    O  -0.800
O1226   22.727070072   28.813094517   13.424948662 XXXX 1      oap1    O  -0.800
O1227   22.770882154   28.908249485   20.357445530 XXXX 1      oap1    O  -0.800
O1228   23.588645883   28.620134316   27.350291664 XXXX 1      oap1    O  -0.625
O1229   32.244325299   28.833343099    6.322998303 XXXX 1      oap1    O  -0.800
O1230   32.149163474   28.840010576   13.597411337 XXXX 1      oap1    O  -0.800
O1231   32.244844207   28.879960450   20.623183464 XXXX 1      oap1    O  -0.800
O1232   33.033628991   28.383202746   26.968034654 XXXX 1      oap1    O  -0.650
O1233    8.650855082   20.684949882    6.345645653 XXXX 1      oap1    O  -0.800
O1234    8.506374306   20.659335134   13.509148331 XXXX 1      oap1    O  -0.800
O1235    8.666508553   20.739819454   20.538716039 XXXX 1      oap1    O  -0.800
O1236    8.071245553   20.885203039   27.565874966 XXXX 1      oap1    O  -0.625
O1237   17.923415435   20.661895878    6.495195162 XXXX 1      oap1    O  -0.800
O1238   18.088470612   20.602881900   13.345750583 XXXX 1      oap1    O  -0.800
O1239   18.069094710   20.700514974   20.518296852 XXXX 1      oap1    O  -0.800
O1240   16.641421898   19.189888003   26.227497232 XXXX 1      oap1    O  -0.625
O1241   27.454905586   20.773588891    6.444840743 XXXX 1      oap1    O  -0.800
O1242   27.397243223   20.580531323   13.571803900 XXXX 1      oap1    O  -0.800
O1243   27.557322022   20.603610792   20.399511047 XXXX 1      oap1    O  -0.800
O1244   25.038690096   18.350598577   27.875838217 XXXX 1      oap1    O  -0.650
O1245   36.744278979   20.582009214    6.510896082 XXXX 1      oap1    O  -0.800
O1246   36.815548607   20.842492337   13.439482156 XXXX 1      oap1    O  -0.800
O1247   37.047459167   20.622349403   20.489835857 XXXX 1      oap1    O  -0.800
O1248   34.149958771   20.426549762   27.807214993 XXXX 1      oap1    O  -0.625
O1249    3.948540903   12.470245466    6.406378213 XXXX 1      oap1    O  -0.800
O1250    4.007782869   12.606504948   13.315587639 XXXX 1      oap1    O  -0.800
O1251    4.015103342   12.461754398   20.318428631 XXXX 1      oap1    O  -0.800
O1252    4.035109763   12.915590574   27.334166939 XXXX 1      oap1    O  -0.625
O1253   13.561703235   12.530917988    6.360182780 XXXX 1      oap1    O  -0.800
O1254   13.465040758   12.342067224   13.625407812 XXXX 1      oap1    O  -0.800
O1255   13.223984463   12.687977853   20.630840951 XXXX 1      oap1    O  -0.800
O1256   12.707505833   12.872192770   27.186811298 XXXX 1      oap1    O  -0.625
O1257   22.586165058   12.430972032    6.589086666 XXXX 1      oap1    O  -0.800
O1258   22.713579024   12.311621813   13.504482780 XXXX 1      oap1    O  -0.800
O1259   22.994221215   12.500049048   20.618221843 XXXX 1      oap1    O  -0.800
O1260   22.509824365   12.536303221   27.350356243 XXXX 1      oap1    O  -0.625
O1261   31.961883435   12.756406765    6.456627042 XXXX 1      oap1    O  -0.800
O1262   32.285711304   12.377186094   13.687350851 XXXX 1      oap1    O  -0.800
O1263   32.158227071   12.311736422   20.380651563 XXXX 1      oap1    O  -0.800
O1264   29.586886426   12.807439509   27.436935582 XXXX 1      oap1    O  -0.625
O1265    8.667051457    4.478864791    6.449273726 XXXX 1      oap1    O  -0.800
O1266    8.826887717    4.420685100   13.340629646 XXXX 1      oap1    O  -0.800
O1267    8.779742913    4.170680630   20.455477451 XXXX 1      oap1    O  -0.800
O1268    8.825765926    3.899627497   27.401839724 XXXX 1      oap1    O  -0.625
O1269   17.725718446    4.656409181    6.512271992 XXXX 1      oap1    O  -0.800
O1270   18.063452087    4.251493539   13.320872043 XXXX 1      oap1    O  -0.800
O1271   18.132088505    4.323138054   20.312618531 XXXX 1      oap1    O  -0.800
O1272   16.952236772    3.756805553   26.441467437 XXXX 1      oap1    O  -0.625
O1273   27.475704620    4.234966364    6.260189470 XXXX 1      oap1    O  -0.800
O1274   27.507779394    4.450343186   13.309321903 XXXX 1      oap1    O  -0.800
O1275   27.465943349    4.306019468   20.347337035 XXXX 1      oap1    O  -0.800
O1276   27.175044823    3.064196666   28.081257844 XXXX 1      oap1    O  -0.650
O1277   37.163799551    4.194326817    6.264949021 XXXX 1      oap1    O  -0.800
O1278   36.986223715    4.454436209   13.465721064 XXXX 1      oap1    O  -0.800
O1279   37.051994942    4.358783782   20.528403068 XXXX 1      oap1    O  -0.800
O1280   36.552712497    4.684379216   27.384641035 XXXX 1      oap1    O  -0.625
Ca427    1.352804052   30.988629394    6.672327020 XXXX 1      ca+h    Ca  1.500
Ca428    1.315552006   31.230598099   13.622612122 XXXX 1      ca+h    Ca  1.500
Ca429    1.280879614   31.210026824   20.587892129 XXXX 1      ca+h    Ca  1.500
Ca430   10.686360803   31.027566229    6.480151069 XXXX 1      ca+h    Ca  1.500
Ca431   10.842048212   31.015143232   13.471570159 XXXX 1      ca+h    Ca  1.500
Ca432   10.766873953   31.011776311   20.324931058 XXXX 1      ca+h    Ca  1.500
Ca433   19.999867085   31.123033604    6.199405812 XXXX 1      ca+h    Ca  1.500
Ca434   20.144307297   30.961518280   13.327535984 XXXX 1      ca+h    Ca  1.500
Ca435   20.130676067   31.054999926   20.383794575 XXXX 1      ca+h    Ca  1.500
Ca436   29.372581751   31.296358828    6.549573745 XXXX 1      ca+h    Ca  1.500
Ca437   29.411865301   31.041447977   13.319007359 XXXX 1      ca+h    Ca  1.500
Ca438   29.581882250   31.204346482   20.475605462 XXXX 1      ca+h    Ca  1.500
Ca439    6.111808164   23.117771049    6.431552284 XXXX 1      ca+h    Ca  1.500
Ca440    5.969656853   22.920567642   13.455765773 XXXX 1      ca+h    Ca  1.500
Ca441    5.945863822   22.787805571   20.350544912 XXXX 1      ca+h    Ca  1.500
Ca442   15.376751123   22.916815213    6.703966666 XXXX 1      ca+h    Ca  1.500
Ca443   15.296376071   22.788861018   13.444357851 XXXX 1      ca+h    Ca  1.500
Ca444   15.457553650   23.004684082   20.490641560 XXXX 1      ca+h    Ca  1.500
Ca445   14.748576910   23.405669132   26.868735637 XXXX 1      ca+h    Ca  1.500
Ca446   24.728905976   22.969917521    6.500108156 XXXX 1      ca+h    Ca  1.500
Ca447   24.864483828   22.748953392   13.477411672 XXXX 1      ca+h    Ca  1.500
Ca448   24.807626700   22.793892591   20.575055329 XXXX 1      ca+h    Ca  1.500
Ca449   34.021824134   22.930702690    6.623335452 XXXX 1      ca+h    Ca  1.500
Ca450   34.215279727   22.925120422   13.535225056 XXXX 1      ca+h    Ca  1.500
Ca451   34.304621216   23.175492175   20.433455098 XXXX 1      ca+h    Ca  1.500
Ca452   33.458814570   24.050455432   26.663602461 XXXX 1      ca+h    Ca  1.500
Ca453    1.284039743   14.904231905    6.600220051 XXXX 1      ca+h    Ca  1.500
Ca454    1.272128080   14.612432176   13.516993336 XXXX 1      ca+h    Ca  1.500
Ca455    1.312685006   14.828799015   20.439019349 XXXX 1      ca+h    Ca  1.500
Ca456    1.587474831   14.507801130   27.360524311 XXXX 1      ca+h    Ca  1.500
Ca457   10.696630072   14.759693641    6.648363613 XXXX 1      ca+h    Ca  1.500
Ca458   10.708876113   14.684058956   13.529056234 XXXX 1      ca+h    Ca  1.500
Ca459   10.352440021   14.643363166   20.364451144 XXXX 1      ca+h    Ca  1.500
Ca460   19.985070022   14.687242563    6.526691042 XXXX 1      ca+h    Ca  1.500
Ca461   20.167263242   14.659906150   13.419361411 XXXX 1      ca+h    Ca  1.500
Ca462   20.048769142   14.904910160   20.413739147 XXXX 1      ca+h    Ca  1.500
Ca463   29.544584584   14.551570966    6.468359959 XXXX 1      ca+h    Ca  1.500
Ca464   29.492661079   14.681245797   13.509009423 XXXX 1      ca+h    Ca  1.500
Ca465   29.554367696   14.796202798   20.269271053 XXXX 1      ca+h    Ca  1.500
Ca466   28.851358808   15.120906303   26.999184910 XXXX 1      ca+h    Ca  1.500
Ca467    5.946028771    6.683406800    6.643026560 XXXX 1      ca+h    Ca  1.500
Ca468    5.991231073    6.808619764   13.564744469 XXXX 1      ca+h    Ca  1.500
Ca469    6.141507792    6.640178477   20.578849354 XXXX 1      ca+h    Ca  1.500
Ca470   15.428085538    6.422462787    6.442197214 XXXX 1      ca+h    Ca  1.500
Ca471   15.414800441    6.661423556   13.445610778 XXXX 1      ca+h    Ca  1.500
Ca472   15.465928254    6.701511369   20.368801177 XXXX 1      ca+h    Ca  1.500
Ca473   24.670822687    6.603704051    6.424687425 XXXX 1      ca+h    Ca  1.500
Ca474   24.986498884    6.381063516   13.294262122 XXXX 1      ca+h    Ca  1.500
Ca475   24.659956368    6.821672787   20.401472526 XXXX 1      ca+h    Ca  1.500
Ca476   34.189778013    6.698953550    6.524047693 XXXX 1      ca+h    Ca  1.500
Ca477   34.391072037    6.700682704   13.514757836 XXXX 1      ca+h    Ca  1.500
Ca478   34.363132986    6.641504282   20.426714585 XXXX 1      ca+h    Ca  1.500
P257     7.917637283   29.881772345    6.542952637 XXXX 1      pap     P   1.000
P258     7.903782547   29.839889348   13.585684464 XXXX 1      pap     P   1.000
P259     7.872094434   29.737573825   20.447272086 XXXX 1      pap     P   1.000
P260     7.468998357   30.076876103   27.306529681 XXXX 1      pap     P   1.000
P261    17.230405250   29.708053057    6.261836167 XXXX 1      pap     P   1.000
P262    17.254060004   29.768815534   13.458786766 XXXX 1      pap     P   1.000
P263    17.284068558   29.739264350   20.405446575 XXXX 1      pap     P   1.000
P264    18.627685080   30.247205531   27.192171510 XXXX 1      pap     P   1.000
P265    26.629309527   29.808044818    6.341036133 XXXX 1      pap     P   1.000
P266    26.584659280   29.769647994   13.362503273 XXXX 1      pap     P   1.000
P267    26.678613489   29.921308505   20.349948005 XXXX 1      pap     P   1.000
P268    26.609665867   29.828112572   27.435995551 XXXX 1      pap     P   1.000
P269    35.944427496   29.890606921    6.491308618 XXXX 1      pap     P   1.000
P270    36.048153370   29.867820162   13.445974490 XXXX 1      pap     P   1.000
P271    35.973434795   29.679185825   20.422286262 XXXX 1      pap     P   1.000
P272    36.004912907   29.634195410   27.471153832 XXXX 1      pap     P   1.000
P273     3.055252233   21.702828499    6.517344847 XXXX 1      pap     P   1.000
P274     3.002057053   21.671140365   13.490819882 XXXX 1      pap     P   1.000
P275     3.185852469   21.588515513   20.306978452 XXXX 1      pap     P   1.000
P276     3.548171445   22.742415928   27.100336923 XXXX 1      pap     P   1.000
P277    12.457396366   21.474926568    6.609327941 XXXX 1      pap     P   1.000
P278    12.440416333   21.504674592   13.559116313 XXXX 1      pap     P   1.000
P279    12.616452835   21.655637988   20.484912749 XXXX 1      pap     P   1.000
P280    11.947650903   22.359214782   27.366711566 XXXX 1      pap     P   1.000
P281    21.957618114   21.521986681    6.554890050 XXXX 1      pap     P   1.000
P282    22.049064139   21.459580698   13.413401795 XXXX 1      pap     P   1.000
P283    21.986854580   21.437899486   20.543072132 XXXX 1      pap     P   1.000
P284    21.759781938   22.838652411   27.374200454 XXXX 1      pap     P   1.000
P285    31.261952761   21.763255446    6.449978701 XXXX 1      pap     P   1.000
P286    31.328806536   21.666191434   13.539510026 XXXX 1      pap     P   1.000
P287    31.430543436   21.495898111   20.402608242 XXXX 1      pap     P   1.000
P288    31.286326776   21.743154224   27.510015664 XXXX 1      pap     P   1.000
P289     7.887960779   13.624778381    6.596408248 XXXX 1      pap     P   1.000
P290     7.868498159   13.543717142   13.531005572 XXXX 1      pap     P   1.000
P291     7.758863372   13.364809870   20.494811374 XXXX 1      pap     P   1.000
P292     8.805517759   14.460407949   27.282336795 XXXX 1      pap     P   1.000
P293    17.212604563   13.473778158    6.528461866 XXXX 1      pap     P   1.000
P294    17.312073465   13.463737165   13.483215229 XXXX 1      pap     P   1.000
P295    17.352458355   13.453651445   20.361520816 XXXX 1      pap     P   1.000
P296    17.254162292   14.469824661   27.274720997 XXXX 1      pap     P   1.000
P297    26.636903280   13.447281400    6.508423591 XXXX 1      pap     P   1.000
P298    26.668313627   13.330654791   13.562000765 XXXX 1      pap     P   1.000
P299    26.684849184   13.415831740   20.564711886 XXXX 1      pap     P   1.000
P300    26.436050729   12.947461299   27.475733673 XXXX 1      pap     P   1.000
P301    36.049124169   13.653556351    6.652257231 XXXX 1      pap     P   1.000
P302    36.165077068   13.442800050   13.568695396 XXXX 1      pap     P   1.000
P303    36.047207000   13.539138748   20.545387756 XXXX 1      pap     P   1.000
P304    36.187774888   14.739772710   27.434750268 XXXX 1      pap     P   1.000
P305     3.210460537    5.221948970    6.474454014 XXXX 1      pap     P   1.000
P306     3.310085893    5.353391093   13.531615286 XXXX 1      pap     P   1.000
P307     3.278849585    5.237613161   20.544644869 XXXX 1      pap     P   1.000
P308     3.197467470    6.284684681   27.312831850 XXXX 1      pap     P   1.000
P309    12.552746026    5.335180451    6.358237970 XXXX 1      pap     P   1.000
P310    12.618164353    5.307548518   13.507244267 XXXX 1      pap     P   1.000
P311    12.557044190    5.163985310   20.516425903 XXXX 1      pap     P   1.000
P312    12.766176023    5.350586544   27.606645648 XXXX 1      pap     P   1.000
P313    21.882825156    5.319487944    6.556445721 XXXX 1      pap     P   1.000
P314    22.043511506    5.298718041   13.396834454 XXXX 1      pap     P   1.000
P315    21.918146057    5.301484674   20.282448733 XXXX 1      pap     P   1.000
P316    22.412116278    6.305663442   27.322201217 XXXX 1      pap     P   1.000
P317    31.407018326    5.236525882    6.435837047 XXXX 1      pap     P   1.000
P318    31.328829838    5.358442309   13.471264215 XXXX 1      pap     P   1.000
P319    31.426844312    5.328297230   20.412964430 XXXX 1      pap     P   1.000
P320    31.520899854    5.045299292   27.455154721 XXXX 1      pap     P   1.000
O1281    7.858545279   28.349636527    6.672773688 XXXX 1      oap1    O  -0.800
O1282    7.726963993   28.291355883   13.725509821 XXXX 1      oap1    O  -0.800
O1283    7.818288166   28.165794946   20.390771024 XXXX 1      oap1    O  -0.800
O1284    6.126985573   29.354683588   27.048347407 XXXX 1      oap1    O  -0.625
O1285   17.425147748   28.178176778    5.979253562 XXXX 1      oap1    O  -0.800
O1286   17.031216686   28.222514901   13.535610633 XXXX 1      oap1    O  -0.800
O1287   17.137009702   28.223047480   20.487439339 XXXX 1      oap1    O  -0.800
O1288   17.952510027   30.621054363   28.544506390 XXXX 1      oap1    O  -0.650
O1289   26.503118081   28.303983440    6.596890998 XXXX 1      oap1    O  -0.800
O1290   26.544989946   28.263931255   13.575409110 XXXX 1      oap1    O  -0.800
O1291   26.617665321   28.341769926   20.442752961 XXXX 1      oap1    O  -0.800
O1292   25.974141127   28.503568140   27.893225986 XXXX 1      oap1    O  -0.650
O1293   35.960199429   28.418498476    7.101986647 XXXX 1      oap1    O  -0.800
O1294   35.828057944   28.348207755   13.569655250 XXXX 1      oap1    O  -0.800
O1295   36.059135019   28.143165372   20.246098603 XXXX 1      oap1    O  -0.800
O1296   35.581867781   28.199484611   27.645258851 XXXX 1      oap1    O  -0.650
O1297    3.161492332   20.196103056    6.082577381 XXXX 1      oap1    O  -0.800
O1298    2.768230620   20.163775529   13.588408678 XXXX 1      oap1    O  -0.800
O1299    3.154927449   20.037999006   20.350679719 XXXX 1      oap1    O  -0.800
O1300    4.250488252   22.617268470   28.455021199 XXXX 1      oap1    O  -0.650
O1301   12.645808797   19.994886891    6.207394480 XXXX 1      oap1    O  -0.800
O1302   12.477731328   19.999557593   13.573749752 XXXX 1      oap1    O  -0.800
O1303   12.723937564   20.144705133   20.370286996 XXXX 1      oap1    O  -0.800
O1304   10.461821466   22.146833552   27.173609698 XXXX 1      oap1    O  -0.625
O1305   21.968785035   20.009911449    6.460685903 XXXX 1      oap1    O  -0.800
O1306   21.849245458   19.915590191   13.317114322 XXXX 1      oap1    O  -0.800
O1307   21.929628396   19.934253826   20.444910377 XXXX 1      oap1    O  -0.800
O1308   20.201772458   22.555568925   27.435729601 XXXX 1      oap1    O  -0.625
O1309   31.265428900   20.239521545    6.750958622 XXXX 1      oap1    O  -0.800
O1310   31.261886049   20.107760016   13.552358380 XXXX 1      oap1    O  -0.800
O1311   31.408439963   19.984894098   20.617108656 XXXX 1      oap1    O  -0.800
O1312   31.804964014   20.720910004   28.496542524 XXXX 1      oap1    O  -0.650
O1313    7.870369072   12.073718098    6.516729913 XXXX 1      oap1    O  -0.800
O1314    7.908233156   12.015958029   13.628774749 XXXX 1      oap1    O  -0.800
O1315    7.732177282   11.854383909   20.561483916 XXXX 1      oap1    O  -0.800
O1316    9.769219285   14.282371087   28.485989807 XXXX 1      oap1    O  -0.650
O1317   17.044863419   11.958666571    6.388512675 XXXX 1      oap1    O  -0.800
O1318   17.360896245   11.919289144   13.255457352 XXXX 1      oap1    O  -0.800
O1319   17.277046986   11.940155407   20.484777823 XXXX 1      oap1    O  -0.800
O1320   17.951822075   14.000061719   28.518191726 XXXX 1      oap1    O  -0.650
O1321   26.575211887   11.917160436    6.414530940 XXXX 1      oap1    O  -0.800
O1322   26.667459872   11.843859364   13.732766807 XXXX 1      oap1    O  -0.800
O1323   26.540778417   11.900345549   20.709459680 XXXX 1      oap1    O  -0.800
O1324   26.436893393   11.373204939   27.355197263 XXXX 1      oap1    O  -0.625
O1325   35.888248446   12.145409882    6.859355600 XXXX 1      oap1    O  -0.800
O1326   36.175783417   11.909392637   13.512294151 XXXX 1      oap1    O  -0.800
O1327   36.043290765   12.051315153   20.268189879 XXXX 1      oap1    O  -0.800
O1328   37.060471358   14.343178721   26.174244723 XXXX 1      oap1    O  -0.625
O1329    3.261587402    3.683892656    6.581134511 XXXX 1      oap1    O  -0.800
O1330    3.181075625    3.787353766   13.411354288 XXXX 1      oap1    O  -0.800
O1331    3.061581940    3.715499260   20.661646477 XXXX 1      oap1    O  -0.800
O1332    4.048727334    5.947007510   28.532940001 XXXX 1      oap1    O  -0.650
O1333   12.527735890    3.769883566    6.476063913 XXXX 1      oap1    O  -0.800
O1334   12.555559546    3.766350442   13.347999742 XXXX 1      oap1    O  -0.800
O1335   12.555570618    3.665725344   20.355133402 XXXX 1      oap1    O  -0.800
O1336   11.254774883    5.247532442   27.516194083 XXXX 1      oap1    O  -0.650
O1337   21.654353651    3.846417911    6.389599472 XXXX 1      oap1    O  -0.800
O1338   21.982300992    3.763028909   13.289004201 XXXX 1      oap1    O  -0.800
O1339   21.780104399    3.790742877   20.119158238 XXXX 1      oap1    O  -0.800
O1340   23.035263044    5.562627582   26.091047407 XXXX 1      oap1    O  -0.625
O1341   31.613732000    3.794490064    5.935591329 XXXX 1      oap1    O  -0.800
O1342   31.177617116    3.896832752   13.083211917 XXXX 1      oap1    O  -0.800
O1343   31.313534362    3.811241240   20.403729886 XXXX 1      oap1    O  -0.800
O1344   32.330729673    3.757658940   27.878011592 XXXX 1      oap1    O  -0.625
O1345    6.534010892   30.511648408    6.544451774 XXXX 1      oap1    O  -0.800
O1346    6.543813825   30.525701883   13.510116419 XXXX 1      oap1    O  -0.800
O1347    6.516173499   30.407477156   20.433412110 XXXX 1      oap1    O  -0.800
O1348    7.169003527   31.514770232   27.360946486 XXXX 1      oap1    O  -0.650
O1349   15.778262929   30.150873182    6.319607514 XXXX 1      oap1    O  -0.800
O1350   15.850985718   30.511898080   13.486791929 XXXX 1      oap1    O  -0.800
O1351   15.861275285   30.372822130   20.337328693 XXXX 1      oap1    O  -0.800
O1352   17.687158485   29.749171620   26.118106135 XXXX 1      oap1    O  -0.625
O1353   25.320258449   30.504534798    6.093191601 XXXX 1      oap1    O  -0.800
O1354   25.173381124   30.340555772   13.256024536 XXXX 1      oap1    O  -0.800
O1355   25.207625445   30.476508453   20.265664888 XXXX 1      oap1    O  -0.800
O1356   25.403943866   30.740105116   27.040459151 XXXX 1      oap1    O  -0.625
O1357   34.487815645   30.408034602    6.339313977 XXXX 1      oap1    O  -0.800
O1358   34.683994259   30.553671129   13.405765523 XXXX 1      oap1    O  -0.800
O1359   34.538631791   30.281406844   20.530887369 XXXX 1      oap1    O  -0.800
O1360   34.727104235   30.511631232   27.389261613 XXXX 1      oap1    O  -0.625
O1361    1.557616989   22.048381900    6.481006820 XXXX 1      oap1    O  -0.800
O1362    1.590268307   22.349687114   13.544266408 XXXX 1      oap1    O  -0.800
O1363    1.727117131   22.130292770   20.317668760 XXXX 1      oap1    O  -0.800
O1364    2.023971691   22.471430066   27.245980462 XXXX 1      oap1    O  -0.625
O1365   10.985973445   21.927638292    6.550173380 XXXX 1      oap1    O  -0.800
O1366   11.017055407   22.112332554   13.646946800 XXXX 1      oap1    O  -0.800
O1367   11.165774263   22.189431459   20.435420396 XXXX 1      oap1    O  -0.800
O1368   12.354469577   23.853957211   27.361002820 XXXX 1      oap1    O  -0.650
O1369   20.482749177   22.166486439    6.609207130 XXXX 1      oap1    O  -0.800
O1370   20.703051241   22.293354664   13.375521248 XXXX 1      oap1    O  -0.800
O1371   20.615366331   22.125417313   20.521207868 XXXX 1      oap1    O  -0.800
O1372   22.093029500   24.276743259   27.032919004 XXXX 1      oap1    O  -0.650
O1373   29.785103321   22.306477485    6.426234784 XXXX 1      oap1    O  -0.800
O1374   29.912270403   22.282736729   13.578482238 XXXX 1      oap1    O  -0.800
O1375   29.918317810   21.981488477   20.400960350 XXXX 1      oap1    O  -0.800
O1376   29.882696965   21.269963633   27.139744307 XXXX 1      oap1    O  -0.625
O1377    6.443601951   14.204024866    6.611939246 XXXX 1      oap1    O  -0.800
O1378    6.462354836   14.046699438   13.460652700 XXXX 1      oap1    O  -0.800
O1379    6.384830675   14.008320972   20.502663069 XXXX 1      oap1    O  -0.800
O1380    7.423957626   14.849736704   27.747610964 XXXX 1      oap1    O  -0.625
O1381   15.851524952   14.134954603    6.528659617 XXXX 1      oap1    O  -0.800
O1382   15.874046790   14.031075140   13.531368486 XXXX 1      oap1    O  -0.800
O1383   15.889268366   14.066820026   20.420524867 XXXX 1      oap1    O  -0.800
O1384   15.733085453   14.272009520   27.618900297 XXXX 1      oap1    O  -0.625
O1385   25.179381927   14.045166406    6.567851254 XXXX 1      oap1    O  -0.800
O1386   25.216666641   13.949901367   13.602481981 XXXX 1      oap1    O  -0.800
O1387   25.377220535   14.186777033   20.616271933 XXXX 1      oap1    O  -0.800
O1388   25.041836019   13.556545336   27.624556977 XXXX 1      oap1    O  -0.650
O1389   34.638112650   14.228704305    6.430969478 XXXX 1      oap1    O  -0.800
O1390   34.767990524   14.124610943   13.560942197 XXXX 1      oap1    O  -0.800
O1391   34.618790876   14.116346552   20.453609415 XXXX 1      oap1    O  -0.800
O1392   35.791914358   16.242415119   27.344518976 XXXX 1      oap1    O  -0.650
O1393    1.758186720    5.571727948    6.279865373 XXXX 1      oap1    O  -0.800
O1394    1.919100783    6.056105239   13.489783279 XXXX 1      oap1    O  -0.800
O1395    1.886314415    6.017401568   20.572345990 XXXX 1      oap1    O  -0.800
O1396    1.673657678    6.250929563   27.588189863 XXXX 1      oap1    O  -0.625
O1397   11.153249365    5.960556389    6.401024610 XXXX 1      oap1    O  -0.800
O1398   11.204897830    5.988677998   13.516896827 XXXX 1      oap1    O  -0.800
O1399   11.157825089    5.776560648   20.465009999 XXXX 1      oap1    O  -0.800
O1400   13.066151260    6.663067556   28.423339988 XXXX 1      oap1    O  -0.625
O1401   20.524148035    6.032229427    6.715413961 XXXX 1      oap1    O  -0.800
O1402   20.634008535    5.922660669   13.501953098 XXXX 1      oap1    O  -0.800
O1403   20.563136460    5.990756700   20.514703968 XXXX 1      oap1    O  -0.800
O1404   20.999182668    6.616171456   26.871686189 XXXX 1      oap1    O  -0.650
O1405   29.862867511    5.507437841    6.570152160 XXXX 1      oap1    O  -0.800
O1406   30.008023163    6.170945289   13.395145171 XXXX 1      oap1    O  -0.800
O1407   30.044977900    6.059497049   20.449190721 XXXX 1      oap1    O  -0.800
O1408   30.127458929    4.707472688   27.046662144 XXXX 1      oap1    O  -0.650
Ca479    5.870212319   27.028592354    6.658578974 XXXX 1      ca+h    Ca  1.500
Ca480    5.697237867   26.948863588   13.577885697 XXXX 1      ca+h    Ca  1.500
Ca481    5.935303527   26.768049244   20.536419671 XXXX 1      ca+h    Ca  1.500
Ca482   15.256144688   27.039573875    6.488500349 XXXX 1      ca+h    Ca  1.500
Ca483   15.222103573   26.752626330   13.387715637 XXXX 1      ca+h    Ca  1.500
Ca484   15.238214184   27.028771407   20.709882708 XXXX 1      ca+h    Ca  1.500
Ca485   24.516617686   26.837041337    6.527901185 XXXX 1      ca+h    Ca  1.500
Ca486   24.549807342   26.946187962   13.449504863 XXXX 1      ca+h    Ca  1.500
Ca487   24.761349686   26.980742652   20.445717301 XXXX 1      ca+h    Ca  1.500
Ca488   34.051203516   27.142914561    6.664807204 XXXX 1      ca+h    Ca  1.500
Ca489   33.872272493   26.962793510   13.425346936 XXXX 1      ca+h    Ca  1.500
Ca490   34.044294436   27.058088810   20.444569999 XXXX 1      ca+h    Ca  1.500
Ca491    1.213530786   18.996608460    6.503165773 XXXX 1      ca+h    Ca  1.500
Ca492    0.955686273   18.701003388   13.541623961 XXXX 1      ca+h    Ca  1.500
Ca493    1.097606190   18.693692362   20.519473371 XXXX 1      ca+h    Ca  1.500
Ca494   10.504865856   18.928926059    6.540762577 XXXX 1      ca+h    Ca  1.500
Ca495   10.504481612   18.754655893   13.528682103 XXXX 1      ca+h    Ca  1.500
Ca496   10.523108680   18.757177574   20.474817819 XXXX 1      ca+h    Ca  1.500
Ca497   19.891747290   18.773879363    6.474744360 XXXX 1      ca+h    Ca  1.500
Ca498   19.834727611   18.761979345   13.340688130 XXXX 1      ca+h    Ca  1.500
Ca499   19.852442068   18.871055780   20.455700274 XXXX 1      ca+h    Ca  1.500
Ca500   29.223974199   18.822228187    6.531118712 XXXX 1      ca+h    Ca  1.500
Ca501   29.315387059   18.676951421   13.469220909 XXXX 1      ca+h    Ca  1.500
Ca502   29.477262376   18.747286047   20.494692055 XXXX 1      ca+h    Ca  1.500
Ca503   29.265513516   19.019698092   27.666849783 XXXX 1      ca+h    Ca  1.500
Ca504    5.701582819   10.567876367    6.395390391 XXXX 1      ca+h    Ca  1.500
Ca505    5.787870876   10.817745642   13.332449536 XXXX 1      ca+h    Ca  1.500
Ca506    5.761049307   10.616387085   20.526463261 XXXX 1      ca+h    Ca  1.500
Ca507   15.083728215   10.485979228    6.773115280 XXXX 1      ca+h    Ca  1.500
Ca508   15.392843390   10.698726050   13.551031762 XXXX 1      ca+h    Ca  1.500
Ca509   15.223342183   10.627153367   20.511924968 XXXX 1      ca+h    Ca  1.500
Ca510   24.626037812   10.616595894    6.500259745 XXXX 1      ca+h    Ca  1.500
Ca511   24.558733353   10.695892588   13.581775667 XXXX 1      ca+h    Ca  1.500
Ca512   24.506246950   10.503666772   20.528161796 XXXX 1      ca+h    Ca  1.500
Ca513   24.559192694    9.642270721   27.073859383 XXXX 1      ca+h    Ca  1.500
Ca514   34.096124540   10.489935817    6.701539973 XXXX 1      ca+h    Ca  1.500
Ca515   34.062405321   10.615288245   13.631789068 XXXX 1      ca+h    Ca  1.500
Ca516   34.126197130   10.606936071   20.363357303 XXXX 1      ca+h    Ca  1.500
Ca517    1.178732674    2.492738828    6.532436347 XXXX 1      ca+h    Ca  1.500
Ca518    1.087987919    2.409182536   13.412656174 XXXX 1      ca+h    Ca  1.500
Ca519    0.983806671    2.531083533   20.417444449 XXXX 1      ca+h    Ca  1.500
Ca520   10.498804210    2.496050328    6.381083610 XXXX 1      ca+h    Ca  1.500
Ca521   10.473004656    2.528627615   13.499366322 XXXX 1      ca+h    Ca  1.500
Ca522   10.556887322    2.448276903   20.465288917 XXXX 1      ca+h    Ca  1.500
Ca523   19.642971939    2.411685639    6.310798817 XXXX 1      ca+h    Ca  1.500
Ca524   19.958937807    2.513787631   13.545635191 XXXX 1      ca+h    Ca  1.500
Ca525   19.818127456    2.454963661   20.454362638 XXXX 1      ca+h    Ca  1.500
Ca526   29.380130569    2.708431075    6.542229770 XXXX 1      ca+h    Ca  1.500
Ca527   29.342430080    2.435125681   13.400871233 XXXX 1      ca+h    Ca  1.500
Ca528   29.336249311    2.542084112   20.434237624 XXXX 1      ca+h    Ca  1.500
P321     8.341533466   25.063070815    6.505671197 XXXX 1      pap     P   1.000
P322     8.289323665   25.115804094   13.578616823 XXXX 1      pap     P   1.000
P323     8.467165206   25.143548212   20.484704004 XXXX 1      pap     P   1.000
P324     7.066286307   25.728945288   27.329032612 XXXX 1      pap     P   1.000
P325    17.664761243   25.136412839    6.423191626 XXXX 1      pap     P   1.000
P326    17.754938608   25.040171147   13.368963065 XXXX 1      pap     P   1.000
P327    17.837945596   25.218084850   20.376655621 XXXX 1      pap     P   1.000
P328    17.025500397   25.816555383   27.543094473 XXXX 1      pap     P   1.000
P329    27.089687470   25.143781584    6.483015757 XXXX 1      pap     P   1.000
P330    27.148887256   25.111418273   13.395076932 XXXX 1      pap     P   1.000
P331    27.311071162   25.176406831   20.464738244 XXXX 1      pap     P   1.000
P332    27.023730616   25.255389887   27.570645834 XXXX 1      pap     P   1.000
P333    36.499603349   25.114434120    6.518529046 XXXX 1      pap     P   1.000
P334    36.400389445   25.205746268   13.401867012 XXXX 1      pap     P   1.000
P335    36.617831135   25.161162088   20.408797199 XXXX 1      pap     P   1.000
P336    36.609602588   24.941836169   27.982314700 XXXX 1      pap     P   1.000
P337     3.687133219   17.029622955    6.520506757 XXXX 1      pap     P   1.000
P338     3.482290288   16.884936313   13.437590732 XXXX 1      pap     P   1.000
P339     3.655225837   16.960338109   20.612749392 XXXX 1      pap     P   1.000
P340     3.230731837   17.137457987   27.622573443 XXXX 1      pap     P   1.000
P341    12.911057146   16.980634967    6.641579360 XXXX 1      pap     P   1.000
P342    13.091629463   16.851559740   13.552145370 XXXX 1      pap     P   1.000
P343    13.034015533   17.068480420   20.591691724 XXXX 1      pap     P   1.000
P344    12.836958360   17.151489646   27.607799959 XXXX 1      pap     P   1.000
P345    22.256093202   16.756241728    6.611007526 XXXX 1      pap     P   1.000
P346    22.493603097   16.832528797   13.386964206 XXXX 1      pap     P   1.000
P347    22.461508526   16.936555337   20.472696326 XXXX 1      pap     P   1.000
P348    22.016407074   16.864436826   27.438623421 XXXX 1      pap     P   1.000
P349    31.759526189   16.890343183    6.509943625 XXXX 1      pap     P   1.000
P350    31.868095367   16.895440004   13.452018847 XXXX 1      pap     P   1.000
P351    31.957068342   16.968815089   20.329590823 XXXX 1      pap     P   1.000
P352    31.726169813   16.796566136   27.965144489 XXXX 1      pap     P   1.000
P353     8.509103333    8.781503320    6.385665095 XXXX 1      pap     P   1.000
P354     8.280039681    8.745014608   13.395110082 XXXX 1      pap     P   1.000
P355     8.429004088    8.766417316   20.428227688 XXXX 1      pap     P   1.000
P356     7.793592335    8.466808126   27.385264164 XXXX 1      pap     P   1.000
P357    17.674263115    8.851468510    6.422997942 XXXX 1      pap     P   1.000
P358    17.706124185    8.711368922   13.514482264 XXXX 1      pap     P   1.000
P359    17.778547422    8.836464232   20.571361964 XXXX 1      pap     P   1.000
P360    17.083463591    8.325564015   27.269547796 XXXX 1      pap     P   1.000
P361    27.025596318    8.734797099    6.327197605 XXXX 1      pap     P   1.000
P362    27.229704147    8.782179035   13.408056007 XXXX 1      pap     P   1.000
P363    27.245513361    8.834894032   20.423615079 XXXX 1      pap     P   1.000
P364    27.657172416    8.352907001   27.372174841 XXXX 1      pap     P   1.000
P365    36.602605519    8.880142852    6.586053051 XXXX 1      pap     P   1.000
P366    36.717876307    8.863375764   13.410088745 XXXX 1      pap     P   1.000
P367    36.671151615    8.921668178   20.445018859 XXXX 1      pap     P   1.000
P368    35.348995709   10.372896782   27.578077575 XXXX 1      pap     P   1.000
P369     3.746183692    0.601751348    6.582870559 XXXX 1      pap     P   1.000
P370     3.682805426    0.658156304   13.473849824 XXXX 1      pap     P   1.000
P371     3.493447083    0.520225656   20.486359939 XXXX 1      pap     P   1.000
P372     3.896801753    0.753268121   27.584114629 XXXX 1      pap     P   1.000
P373    12.992520034    0.609929973    6.386262121 XXXX 1      pap     P   1.000
P374    13.058302284    0.723250306   13.448836154 XXXX 1      pap     P   1.000
P375    13.012287693    0.659386835   20.485185292 XXXX 1      pap     P   1.000
P376    12.683608105    0.015463604   27.341222152 XXXX 1      pap     P   1.000
P377    22.348899270    0.540461855    6.269016516 XXXX 1      pap     P   1.000
P378    22.407398605    0.668960174   13.399394651 XXXX 1      pap     P   1.000
P379    22.342798439    0.728651283   20.362619353 XXXX 1      pap     P   1.000
P380    21.872665823    1.008844305   27.542484425 XXXX 1      pap     P   1.000
P381    31.922894907    0.653311188    6.457897737 XXXX 1      pap     P   1.000
P382    31.934687265    0.756443267   13.387463828 XXXX 1      pap     P   1.000
P383    31.984126744    0.597399291   20.321003317 XXXX 1      pap     P   1.000
P384    32.041503085    0.622343984   27.415345934 XXXX 1      pap     P   1.000
O1409    9.640821920   25.843011414    6.347048433 XXXX 1      oap1    O  -0.800
O1410    9.571611319   25.937316140   13.386690667 XXXX 1      oap1    O  -0.800
O1411    9.801592767   25.870581868   20.490378175 XXXX 1      oap1    O  -0.800
O1412    7.993086188   26.728496199   28.006100945 XXXX 1      oap1    O  -0.650
O1413   18.996021495   25.916272238    6.227946487 XXXX 1      oap1    O  -0.800
O1414   19.121010593   25.778245303   13.244998247 XXXX 1      oap1    O  -0.800
O1415   19.146371340   26.019462188   20.287176337 XXXX 1      oap1    O  -0.800
O1416   17.649769872   25.681654527   26.154367738 XXXX 1      oap1    O  -0.625
O1417   28.505884701   25.762741676    6.422430651 XXXX 1      oap1    O  -0.800
O1418   28.468521541   25.937652638   13.344718395 XXXX 1      oap1    O  -0.800
O1419   28.639660656   25.937612933   20.360048301 XXXX 1      oap1    O  -0.800
O1420   28.113814526   24.187990831   27.786604006 XXXX 1      oap1    O  -0.625
O1421   37.925840881   25.713877374    6.611741728 XXXX 1      oap1    O  -0.800
O1422   37.714061471   25.985175507   13.257909242 XXXX 1      oap1    O  -0.800
O1423   37.886835949   25.964850455   20.056409877 XXXX 1      oap1    O  -0.800
O1424   37.647926531   23.850530049   28.009063295 XXXX 1      oap1    O  -0.650
O1425    5.000195443   17.762322036    6.618490747 XXXX 1      oap1    O  -0.800
O1426    4.799393162   17.707012184   13.375511296 XXXX 1      oap1    O  -0.800
O1427    4.989367237   17.742187944   20.455704007 XXXX 1      oap1    O  -0.800
O1428    4.051000716   17.919115880   28.638842351 XXXX 1      oap1    O  -0.650
O1429   14.242648434   17.556850721    6.203645656 XXXX 1      oap1    O  -0.800
O1430   14.465920277   17.504257109   13.368677092 XXXX 1      oap1    O  -0.800
O1431   14.296409745   17.916618879   20.701305254 XXXX 1      oap1    O  -0.800
O1432   13.729439880   18.407224205   27.972184556 XXXX 1      oap1    O  -0.625
O1433   23.535189404   17.459188587    7.057267505 XXXX 1      oap1    O  -0.800
O1434   23.804787204   17.614348183   13.186098775 XXXX 1      oap1    O  -0.800
O1435   23.865315716   17.549748404   20.584785695 XXXX 1      oap1    O  -0.800
O1436   23.328975331   16.056520857   27.626816641 XXXX 1      oap1    O  -0.625
O1437   33.139241191   17.544236948    6.696270598 XXXX 1      oap1    O  -0.800
O1438   33.180973542   17.770951529   13.321408885 XXXX 1      oap1    O  -0.800
O1439   33.357570382   17.664985995   20.308902352 XXXX 1      oap1    O  -0.800
O1440   32.374828462   17.860388459   27.029689979 XXXX 1      oap1    O  -0.625
O1441    9.830607298    9.530524963    6.786618392 XXXX 1      oap1    O  -0.800
O1442    9.516406076    9.479051977   13.881482718 XXXX 1      oap1    O  -0.800
O1443    9.823999506    9.432970369   20.552832314 XXXX 1      oap1    O  -0.800
O1444    8.985083522    7.455589282   27.559879389 XXXX 1      oap1    O  -0.625
O1445   19.020247615    9.497923476    6.329880303 XXXX 1      oap1    O  -0.800
O1446   19.012253530    9.476138491   13.498300386 XXXX 1      oap1    O  -0.800
O1447   19.170692950    9.431438668   20.463152519 XXXX 1      oap1    O  -0.800
O1448   17.224263821    8.844169735   28.711503314 XXXX 1      oap1    O  -0.650
O1449   28.432239012    9.414904103    6.316403894 XXXX 1      oap1    O  -0.800
O1450   28.586055661    9.536228856   13.355001986 XXXX 1      oap1    O  -0.800
O1451   28.506526789    9.667895804   20.507356562 XXXX 1      oap1    O  -0.800
O1452   29.021015638    8.947201190   27.194774077 XXXX 1      oap1    O  -0.650
O1453   37.491577249   10.096052718    6.095240702 XXXX 1      oap1    O  -0.800
O1454   38.085222089    9.622727968   13.359631604 XXXX 1      oap1    O  -0.800
O1455   38.006266276    9.682351170   20.436296024 XXXX 1      oap1    O  -0.800
O1456   36.200302393   11.607274561   27.653639191 XXXX 1      oap1    O  -0.625
O1457    5.128170488    1.313797162    6.750804515 XXXX 1      oap1    O  -0.800
O1458    5.040797258    1.328804562   13.392160855 XXXX 1      oap1    O  -0.800
O1459    4.729992766    1.358095477   20.208890008 XXXX 1      oap1    O  -0.800
O1460    5.023924743    1.785854239   27.933071963 XXXX 1      oap1    O  -0.625
O1461   14.385941227    1.266086885    6.443109395 XXXX 1      oap1    O  -0.800
O1462   14.448711050    1.471806084   13.629050767 XXXX 1      oap1    O  -0.800
O1463   14.332800934    1.408296938   20.376472006 XXXX 1      oap1    O  -0.800
O1464   12.661817573    0.940892641   28.622148544 XXXX 1      oap1    O  -0.650
O1465   23.612241511    1.423278253    6.092560715 XXXX 1      oap1    O  -0.800
O1466   23.826270164    1.363213763   13.336630519 XXXX 1      oap1    O  -0.800
O1467   23.679995175    1.492305128   20.407403602 XXXX 1      oap1    O  -0.800
O1468   22.541172188    2.034552155   28.496372400 XXXX 1      oap1    O  -0.650
O1469   33.405051996    1.099232386    6.460339569 XXXX 1      oap1    O  -0.800
O1470   33.296949058    1.440414036   13.481709984 XXXX 1      oap1    O  -0.800
O1471   33.319897736    1.318867916   20.545578102 XXXX 1      oap1    O  -0.800
O1472   33.592749667    0.772566949   27.487745675 XXXX 1      oap1    O  -0.625
O1473    8.563697104   23.517326230    6.449569593 XXXX 1      oap1    O  -0.800
O1474    8.569378604   23.567018779   13.485590574 XXXX 1      oap1    O  -0.800
O1475    8.644579396   23.626199156   20.462132530 XXXX 1      oap1    O  -0.800
O1476    7.134643493   24.341487188   28.066872939 XXXX 1      oap1    O  -0.625
O1477   17.905497409   23.654955906    6.586648504 XXXX 1      oap1    O  -0.800
O1478   17.905753127   23.517604578   13.391925295 XXXX 1      oap1    O  -0.800
O1479   17.971598742   23.656816147   20.435537963 XXXX 1      oap1    O  -0.800
O1480   18.010594921   26.350517947   28.565694846 XXXX 1      oap1    O  -0.650
O1481   27.236147499   23.582598520    6.507249516 XXXX 1      oap1    O  -0.800
O1482   27.404916136   23.579384940   13.390299273 XXXX 1      oap1    O  -0.800
O1483   27.608799294   23.636512839   20.390031589 XXXX 1      oap1    O  -0.800
O1484   25.599720890   24.656104327   27.804376024 XXXX 1      oap1    O  -0.650
O1485   36.564159683   23.585031119    6.353910236 XXXX 1      oap1    O  -0.800
O1486   36.563439167   23.629875005   13.464087197 XXXX 1      oap1    O  -0.800
O1487   36.867136758   23.662416372   20.528886890 XXXX 1      oap1    O  -0.800
O1488   35.187873479   24.273763154   28.185782685 XXXX 1      oap1    O  -0.625
O1489    3.964599530   15.473391156    6.447627293 XXXX 1      oap1    O  -0.800
O1490    3.714618124   15.358777990   13.519846904 XXXX 1      oap1    O  -0.800
O1491    3.867199670   15.473683768   20.711212540 XXXX 1      oap1    O  -0.800
O1492    3.747566173   15.673416953   27.591399371 XXXX 1      oap1    O  -0.625
O1493   13.146913696   15.485336529    6.944327875 XXXX 1      oap1    O  -0.800
O1494   13.237032114   15.290615684   13.592377514 XXXX 1      oap1    O  -0.800
O1495   13.569277295   15.627264474   20.562502890 XXXX 1      oap1    O  -0.800
O1496   13.592256242   15.923016122   27.569541041 XXXX 1      oap1    O  -0.650
O1497   22.518071684   15.271515729    6.378488261 XXXX 1      oap1    O  -0.800
O1498   22.677871418   15.321496353   13.369372626 XXXX 1      oap1    O  -0.800
O1499   22.590707036   15.408140628   20.368476838 XXXX 1      oap1    O  -0.800
O1500   20.880991120   15.901948134   27.429020023 XXXX 1      oap1    O  -0.650
O1501   31.902025198   15.420006997    6.448811144 XXXX 1      oap1    O  -0.800
O1502   32.267806267   15.436802678   13.478773049 XXXX 1      oap1    O  -0.800
O1503   32.194804298   15.457057255   20.511315506 XXXX 1      oap1    O  -0.800
O1504   32.085586139   15.392467793   27.466984628 XXXX 1      oap1    O  -0.650
O1505    8.692011067    7.284273966    6.238280435 XXXX 1      oap1    O  -0.800
O1506    8.505435528    7.219793550   13.291212768 XXXX 1      oap1    O  -0.800
O1507    8.660907348    7.279671885   20.405069035 XXXX 1      oap1    O  -0.800
O1508    6.463113949    7.802967240   27.324870965 XXXX 1      oap1    O  -0.650
O1509   17.753289827    7.275030775    6.417636385 XXXX 1      oap1    O  -0.800
O1510   17.934192459    7.185882250   13.509588604 XXXX 1      oap1    O  -0.800
O1511   17.826146480    7.333634079   20.600924903 XXXX 1      oap1    O  -0.800
O1512   18.057231550    7.074743532   27.180161673 XXXX 1      oap1    O  -0.625
O1513   27.184923872    7.153053262    6.288628140 XXXX 1      oap1    O  -0.800
O1514   27.392281582    7.254904500   13.325802446 XXXX 1      oap1    O  -0.800
O1515   27.561907585    7.316135389   20.368146303 XXXX 1      oap1    O  -0.800
O1516   27.678711070    6.811127577   27.369246949 XXXX 1      oap1    O  -0.625
O1517   37.451908035    7.599148875    6.828186659 XXXX 1      oap1    O  -0.800
O1518   36.892729630    7.348667087   13.586740322 XXXX 1      oap1    O  -0.800
O1519   36.913040149    7.374938067   20.363086176 XXXX 1      oap1    O  -0.800
O1520   35.506801617    9.401790546   28.806904756 XXXX 1      oap1    O  -0.650
O1521    3.748186944   -0.948248803    6.435201876 XXXX 1      oap1    O  -0.800
O1522    3.814307852   -0.855485918   13.610554137 XXXX 1      oap1    O  -0.800
O1523    3.836319732   -0.989974248   20.548574046 XXXX 1      oap1    O  -0.800
O1524    4.497413884   -0.647254142   27.443438987 XXXX 1      oap1    O  -0.650
O1525   13.149560267   -0.905763667    6.316044628 XXXX 1      oap1    O  -0.800
O1526   13.268078586   -0.820693179   13.318701241 XXXX 1      oap1    O  -0.800
O1527   13.189705310   -0.857277516   20.430537309 XXXX 1      oap1    O  -0.800
O1528   13.906278838   -0.914612948   27.354054463 XXXX 1      oap1    O  -0.625
O1529   22.709860993   -0.968151258    6.325010590 XXXX 1      oap1    O  -0.800
O1530   22.434314334   -0.883184023   13.356965354 XXXX 1      oap1    O  -0.800
O1531   22.660538974   -0.783542063   20.367416595 XXXX 1      oap1    O  -0.800
O1532   22.599118689   -0.368287868   27.507607211 XXXX 1      oap1    O  -0.625
O1533   31.886416138   -0.891923322    6.438378369 XXXX 1      oap1    O  -0.800
O1534   32.087337076   -0.757982561   13.370752892 XXXX 1      oap1    O  -0.800
O1535   32.189860378   -0.943358402   20.283873135 XXXX 1      oap1    O  -0.800
O1536   31.508820682   -0.864104363   27.423598576 XXXX 1      oap1    O  -0.650
O1537    0.031918062   32.915177518    8.941014611 XXXX 1      oap2    O  -1.100
O1538    0.246074822   33.176143855   16.217353650 XXXX 1      oap2    O  -1.100
O1539   -0.140788037   33.025334910   25.038074067 XXXX 1      oap2    O  -1.100
O1540    9.430974938   32.968845281    9.413772409 XXXX 1      oap2    O  -1.100
O1541    9.359182909   32.983636802   16.436135279 XXXX 1      oap2    O  -1.100
O1542    9.436806745   33.121255926   23.147249216 XXXX 1      oap2    O  -1.100
O1543   18.764125508   33.024834078   10.357318395 XXXX 1      oap2    O  -1.100
O1544   18.699599631   33.002575442   17.595913307 XXXX 1      oap2    O  -1.100
O1545   18.959918082   33.102110320   23.455191922 XXXX 1      oap2    O  -1.100
O1546   28.229084560   32.987313184    9.193470978 XXXX 1      oap2    O  -1.100
O1547   28.287752626   33.087321814   16.807339874 XXXX 1      oap2    O  -1.100
O1548   28.292256753   32.985085229   23.126587135 XXXX 1      oap2    O  -1.100
O1549    4.760354538   24.793298393   10.759700266 XXXX 1      oap2    O  -1.100
O1550    4.710240907   25.034200906   16.349132469 XXXX 1      oap2    O  -1.100
O1551    4.645746997   24.972753283   22.813004502 XXXX 1      oap2    O  -1.100
O1552   14.220625845   24.824025060    9.735293383 XXXX 1      oap2    O  -1.100
O1553   14.110996819   24.866294487   16.538084045 XXXX 1      oap2    O  -1.100
O1554   14.139359209   24.626474768   24.890661165 XXXX 1      oap2    O  -1.100
O1555   23.523844696   24.800689906   10.155574532 XXXX 1      oap2    O  -1.100
O1556   23.522244033   24.861971380   17.300810306 XXXX 1      oap2    O  -1.100
O1557   23.721539298   24.634579591   23.238430050 XXXX 1      oap2    O  -1.100
O1558   32.878910988   24.872584604   10.635157625 XXXX 1      oap2    O  -1.100
O1559   32.887561430   24.947659023   17.570771881 XXXX 1      oap2    O  -1.100
O1560   32.985909667   24.485875447   24.263078057 XXXX 1      oap2    O  -1.100
O1561   -0.029567357   16.708337483    9.409327157 XXXX 1      oap2    O  -1.100
O1562    0.041402010   16.793745332   17.285464170 XXXX 1      oap2    O  -1.100
O1563    0.070684365   16.890958780   24.469463800 XXXX 1      oap2    O  -1.100
O1564    9.473170538   16.836980839   10.539205320 XXXX 1      oap2    O  -1.100
O1565    9.457701681   16.670447984   16.661800983 XXXX 1      oap2    O  -1.100
O1566    9.273395283   16.776838506   23.159406672 XXXX 1      oap2    O  -1.100
O1567   18.710872067   16.639201680    9.376055637 XXXX 1      oap2    O  -1.100
O1568   18.834081304   16.625801519   17.349200258 XXXX 1      oap2    O  -1.100
O1569   18.710997909   16.750634169   24.140616867 XXXX 1      oap2    O  -1.100
O1570   28.245434763   16.681981897   10.434861668 XXXX 1      oap2    O  -1.100
O1571   28.183304169   16.521367873   17.761405944 XXXX 1      oap2    O  -1.100
O1572   28.096519364   16.343899225   24.864457117 XXXX 1      oap2    O  -1.100
O1573    4.842125913    8.548376885    9.183763513 XXXX 1      oap2    O  -1.100
O1574    4.850037513    8.575402711   16.673282546 XXXX 1      oap2    O  -1.100
O1575    4.836622220    8.632179407   23.135441408 XXXX 1      oap2    O  -1.100
O1576   14.254436428    8.692004566    8.772237664 XXXX 1      oap2    O  -1.100
O1577   14.313282575    8.489026900   17.899072021 XXXX 1      oap2    O  -1.100
O1578   14.138452942    8.618686135   24.580505111 XXXX 1      oap2    O  -1.100
O1579   23.601292566    8.630880860   10.680567489 XXXX 1      oap2    O  -1.100
O1580   23.512759625    8.491046662   18.044661865 XXXX 1      oap2    O  -1.100
O1581   23.832674538    8.546083130   24.800048153 XXXX 1      oap2    O  -1.100
O1582   32.939231896    8.520331257   10.666328703 XXXX 1      oap2    O  -1.100
O1583   33.135081360    8.656968729   17.612978713 XXXX 1      oap2    O  -1.100
O1584   33.110746376    8.634317861   23.418490305 XXXX 1      oap2    O  -1.100
O1585    0.429556260   32.969573715    5.568419994 XXXX 1      oap2    O  -1.100
O1586   -0.072417869   32.994919529   12.656861163 XXXX 1      oap2    O  -1.100
O1587   -0.082364572   33.160088071   21.609376588 XXXX 1      oap2    O  -1.100
O1588    9.397274066   33.053550921    5.688155227 XXXX 1      oap2    O  -1.100
O1589    9.609603319   32.998209758   12.863120130 XXXX 1      oap2    O  -1.100
O1590    9.390083461   32.979504952   19.883178009 XXXX 1      oap2    O  -1.100
O1591   18.762288104   32.972689527    7.187691457 XXXX 1      oap2    O  -1.100
O1592   18.893121253   33.033903973   13.366313903 XXXX 1      oap2    O  -1.100
O1593   18.708093565   32.929150494   20.627140216 XXXX 1      oap2    O  -1.100
O1594   28.331697633   33.333448577    5.735538234 XXXX 1      oap2    O  -1.100
O1595   28.269225760   32.986833642   12.540255931 XXXX 1      oap2    O  -1.100
O1596   28.181772775   33.130577373   20.040808302 XXXX 1      oap2    O  -1.100
O1597    4.825026471   24.970910553    7.396197232 XXXX 1      oap2    O  -1.100
O1598    4.566388574   24.860758380   13.697081980 XXXX 1      oap2    O  -1.100
O1599    4.774509216   24.896481122   19.640953749 XXXX 1      oap2    O  -1.100
O1600   14.093569874   25.032220193    7.095096883 XXXX 1      oap2    O  -1.100
O1601   14.057676957   24.747667907   12.778515814 XXXX 1      oap2    O  -1.100
O1602   14.137709866   24.810747773   21.340377375 XXXX 1      oap2    O  -1.100
O1603   23.381597627   24.818698268    7.164446152 XXXX 1      oap2    O  -1.100
O1604   23.536682771   24.747559931   13.168731779 XXXX 1      oap2    O  -1.100
O1605   23.737569744   24.844943489   20.080544251 XXXX 1      oap2    O  -1.100
O1606   33.075823211   25.086395957    5.769403920 XXXX 1      oap2    O  -1.100
O1607   32.915879296   24.863851252   14.232412056 XXXX 1      oap2    O  -1.100
O1608   32.956245120   25.044016702   21.295549815 XXXX 1      oap2    O  -1.100
O1609   -0.013521912   16.932773919    5.713308417 XXXX 1      oap2    O  -1.100
O1610   -0.178476985   16.622760731   13.075254684 XXXX 1      oap2    O  -1.100
O1611   -0.042691676   16.700720291   21.227544904 XXXX 1      oap2    O  -1.100
O1612    9.337417139   16.717485112    7.216265331 XXXX 1      oap2    O  -1.100
O1613    9.477598594   16.693569271   13.681977672 XXXX 1      oap2    O  -1.100
O1614    9.391779856   16.728308877   19.603824699 XXXX 1      oap2    O  -1.100
O1615   18.758091048   16.631148126    5.986365564 XXXX 1      oap2    O  -1.100
O1616   18.896704010   16.596619243   14.013544660 XXXX 1      oap2    O  -1.100
O1617   18.622401977   16.782300257   20.222722277 XXXX 1      oap2    O  -1.100
O1618   28.273672247   16.562285503    6.313970463 XXXX 1      oap2    O  -1.100
O1619   28.212427493   16.761593163   14.397326022 XXXX 1      oap2    O  -1.100
O1620   28.366048587   16.685410517   21.319028424 XXXX 1      oap2    O  -1.100
O1621    4.446217753    8.535942969    6.044171302 XXXX 1      oap2    O  -1.100
O1622    4.832391424    8.793188479   12.742265848 XXXX 1      oap2    O  -1.100
O1623    4.693370631    8.479774549   19.900140521 XXXX 1      oap2    O  -1.100
O1624   14.200565916    8.477220942    5.501940085 XXXX 1      oap2    O  -1.100
O1625   14.147746634    8.693982019   14.073518180 XXXX 1      oap2    O  -1.100
O1626   14.244943572    8.535388558   21.341503803 XXXX 1      oap2    O  -1.100
O1627   23.538335698    8.600388766    7.209054187 XXXX 1      oap2    O  -1.100
O1628   23.675177638    8.426849449   13.955965719 XXXX 1      oap2    O  -1.100
O1629   23.383262762    8.577349201   21.625385519 XXXX 1      oap2    O  -1.100
O1630   32.935613915    8.518840482    7.577236350 XXXX 1      oap2    O  -1.100
O1631   33.000763039    8.589450410   14.243354175 XXXX 1      oap2    O  -1.100
O1632   32.889238834    8.517589439   20.721932137 XXXX 1      oap2    O  -1.100
H1      -0.564968065   33.011733001    8.158122096 XXXX 1      hop     H   0.200
H2       0.100911508   33.580265634   15.386413114 XXXX 1      hop     H   0.200
H3       0.371177600   32.696959123   25.774343533 XXXX 1      hop     H   0.200
H4       9.936001987   32.603097724    8.677719794 XXXX 1      hop     H   0.200
H5       9.551613914   32.937881509   15.515468835 XXXX 1      hop     H   0.200
H6       9.510956893   33.108302448   22.179521919 XXXX 1      hop     H   0.200
H7      18.904768205   32.742406482   11.261650354 XXXX 1      hop     H   0.200
H8      18.821845335   32.792487704   18.532523295 XXXX 1      hop     H   0.200
H9      19.157658330   32.952454606   22.520153467 XXXX 1      hop     H   0.200
H10     28.030020787   32.862649769    8.249406932 XXXX 1      hop     H   0.200
H11     28.303148157   33.354323429   17.703886265 XXXX 1      hop     H   0.200
H12     28.081521268   32.684370316   22.236560555 XXXX 1      hop     H   0.200
H13      4.608820281   24.695129824   11.748839895 XXXX 1      hop     H   0.200
H14      4.606687608   25.111993642   15.380678500 XXXX 1      hop     H   0.200
H15      4.782449325   24.821656728   21.908599847 XXXX 1      hop     H   0.200
H16     14.456016779   24.630891252    8.854314933 XXXX 1      hop     H   0.200
H17     14.130240891   24.813583995   15.593254915 XXXX 1      hop     H   0.200
H18     13.490815449   24.771669856   25.550534354 XXXX 1      hop     H   0.200
H19     23.567546618   25.193318539   10.977312371 XXXX 1      hop     H   0.200
H20     23.450672079   24.616220438   18.193036026 XXXX 1      hop     H   0.200
H21     23.835332517   24.804870372   22.298169251 XXXX 1      hop     H   0.200
H22     33.051528969   24.415739063   11.475965683 XXXX 1      hop     H   0.200
H23     32.696453577   25.284169163   18.455814542 XXXX 1      hop     H   0.200
H24     33.510677315   24.049727442   23.610276483 XXXX 1      hop     H   0.200
H25     -0.039962136   16.807942646    8.475435443 XXXX 1      hop     H   0.200
H26      0.032709742   16.620867159   18.159484204 XXXX 1      hop     H   0.200
H27     -0.054686987   17.256476911   25.301495652 XXXX 1      hop     H   0.200
H28      9.413598780   17.063530565   11.472118056 XXXX 1      hop     H   0.200
H29      9.853013558   16.216865142   15.898062666 XXXX 1      hop     H   0.200
H30      9.002927878   17.181962704   22.359412839 XXXX 1      hop     H   0.200
H31     19.272140640   16.507654501    8.530972395 XXXX 1      hop     H   0.200
H32     19.022135747   16.185522363   18.245760898 XXXX 1      hop     H   0.200
H33     18.625703128   16.926992237   25.056985022 XXXX 1      hop     H   0.200
H34     27.607002769   16.519253912   11.173904691 XXXX 1      hop     H   0.200
H35     27.947227387   16.876540300   18.549322703 XXXX 1      hop     H   0.200
H36     27.394645922   16.689360176   25.427574769 XXXX 1      hop     H   0.200
H37      4.176805441    8.264887791    8.548975378 XXXX 1      hop     H   0.200
H38      5.048594591    9.198220263   15.959701522 XXXX 1      hop     H   0.200
H39      4.898534867    8.695473660   22.228667576 XXXX 1      hop     H   0.200
H40     13.482294752    8.437679597    8.260224589 XXXX 1      hop     H   0.200
H41     13.955157444    8.932422664   18.653329989 XXXX 1      hop     H   0.200
H42     14.628680663    7.848286633   24.887792652 XXXX 1      hop     H   0.200
H43     23.957396889    8.403020034   11.484302525 XXXX 1      hop     H   0.200
H44     22.798595949    8.560823474   18.657193411 XXXX 1      hop     H   0.200
H45     23.817828086    7.874881627   25.479746148 XXXX 1      hop     H   0.200
H46     33.228514791    8.528321034   11.582214257 XXXX 1      hop     H   0.200
H47     32.664684240    8.483833827   18.422855024 XXXX 1      hop     H   0.200
H48     33.084518688    8.623942666   22.445376374 XXXX 1      hop     H   0.200
H49     -0.205707713   33.082748419    4.870628962 XXXX 1      hop     H   0.200
H50     -0.093110532   32.567706757   11.785484874 XXXX 1      hop     H   0.200
H51      0.197340157   32.784534482   22.399786953 XXXX 1      hop     H   0.200
H52      9.029281040   33.901923567    5.386709653 XXXX 1      hop     H   0.200
H53      9.910278429   32.956982591   11.959848244 XXXX 1      hop     H   0.200
H54      9.467080720   32.854160011   18.960860126 XXXX 1      hop     H   0.200
H55     18.521498363   33.191847334    8.075607679 XXXX 1      hop     H   0.200
H56     18.591908239   32.731041829   12.576965221 XXXX 1      hop     H   0.200
H57     18.560055755   33.222270325   21.545557697 XXXX 1      hop     H   0.200
H58     29.044877724   33.369981063    5.096454670 XXXX 1      hop     H   0.200
H59     27.998905654   33.360799874   11.750458344 XXXX 1      hop     H   0.200
H60     27.834393120   32.864704152   20.848215172 XXXX 1      hop     H   0.200
H61      4.738233950   25.155200081    8.358107293 XXXX 1      hop     H   0.200
H62      4.346038851   24.664310621   14.617174500 XXXX 1      hop     H   0.200
H63      4.610801613   25.501057981   18.945124087 XXXX 1      hop     H   0.200
H64     13.972081535   25.044780612    8.013638340 XXXX 1      hop     H   0.200
H65     13.987858649   24.815741339   11.849747870 XXXX 1      hop     H   0.200
H66     13.824066399   25.388687113   22.028228323 XXXX 1      hop     H   0.200
H67     23.290491765   24.511100348    8.033437205 XXXX 1      hop     H   0.200
H68     23.466452888   24.742320206   12.206229426 XXXX 1      hop     H   0.200
H69     24.121194931   24.938864063   19.236654045 XXXX 1      hop     H   0.200
H70     32.565613631   24.872483423    5.038627184 XXXX 1      hop     H   0.200
H71     32.991875848   24.922874529   15.175689585 XXXX 1      hop     H   0.200
H72     32.890471934   24.931663393   22.206436688 XXXX 1      hop     H   0.200
H73      0.031718138   16.405568131    4.910200345 XXXX 1      hop     H   0.200
H74      0.319743434   16.756454294   12.211146942 XXXX 1      hop     H   0.200
H75     -0.054137193   16.978813954   22.176084555 XXXX 1      hop     H   0.200
H76      9.347920388   16.942769210    8.155855547 XXXX 1      hop     H   0.200
H77      9.271313457   16.900547896   14.551437707 XXXX 1      hop     H   0.200
H78      9.594994810   16.889124754   18.669535986 XXXX 1      hop     H   0.200
H79     18.742071064   16.713960349    5.068924842 XXXX 1      hop     H   0.200
H80     18.884005113   17.061298374   14.840720359 XXXX 1      hop     H   0.200
H81     18.289209626   16.671640267   19.348454577 XXXX 1      hop     H   0.200
H82     28.504545965   16.596672023    7.258841795 XXXX 1      hop     H   0.200
H83     27.751466599   16.811423482   15.222861704 XXXX 1      hop     H   0.200
H84     28.170173878   16.685578102   22.195815458 XXXX 1      hop     H   0.200
H85      4.490782541    8.549853588    5.125554820 XXXX 1      hop     H   0.200
H86      5.200318836    8.628211877   11.897135551 XXXX 1      hop     H   0.200
H87      5.264963230    8.256844276   19.148229799 XXXX 1      hop     H   0.200
H88     13.746060801    8.083299703    4.780298723 XXXX 1      hop     H   0.200
H89     14.106405844    8.161811271   14.910180098 XXXX 1      hop     H   0.200
H90     14.460899768    8.832545907   22.206440780 XXXX 1      hop     H   0.200
H91     23.563562276    9.012959099    8.059190853 XXXX 1      hop     H   0.200
H92     24.115137967    8.007393104   14.730647570 XXXX 1      hop     H   0.200
H93     24.045762324    8.290680017   22.271880018 XXXX 1      hop     H   0.200
H94     32.970323032    8.732789764    8.513418489 XXXX 1      hop     H   0.200
H95     32.889603054    8.153347829   15.099255350 XXXX 1      hop     H   0.200
H96     32.656307916    8.271987056   21.632198292 XXXX 1      hop     H   0.200
H97      9.160636798   29.689364034   28.404140122 XXXX 1      hop     H   0.400
H98      7.254573624   31.834465412   26.458999921 XXXX 1      hop     H   0.400
H99     20.097870590   31.141350599   26.000684382 XXXX 1      hop     H   0.400
H100    18.713024522   30.873463265   29.019435528 XXXX 1      hop     H   0.400
H101    26.974228020   31.351509387   28.579163213 XXXX 1      hop     H   0.400
H102    25.052251750   28.607809755   27.760626000 XXXX 1      hop     H   0.400
H103    37.835329076   29.783618312   28.517803519 XXXX 1      hop     H   0.400
H104    34.676308432   28.224441713   27.617399765 XXXX 1      hop     H   0.400
H105    31.321715342   27.188639652   29.248969393 XXXX 1      hop     H   0.400
H106    33.497695162   27.994772205   26.212593742 XXXX 1      hop     H   0.400
H107    22.846304676   25.434225038   27.697221466 XXXX 1      hop     H   0.400
H108    13.314817109   27.111222732   28.905574373 XXXX 1      hop     H   0.400
H109     3.745227868   25.899296122   27.745021165 XXXX 1      hop     H   0.400
H110    20.819002014   28.075134288   28.411343531 XXXX 1      hop     H   0.400
H111    11.278404657   29.808443227   27.539173087 XXXX 1      hop     H   0.400
H112     4.537751115   28.477803488   28.021215008 XXXX 1      hop     H   0.400
H113    36.509485404   26.731402873   28.814678216 XXXX 1      hop     H   0.400
H114    26.634452608   27.129524190   28.420449961 XXXX 1      hop     H   0.400
H115    15.732125650   27.024599611   26.599472402 XXXX 1      hop     H   0.400
H116     5.564222301   26.835158343   26.377800295 XXXX 1      hop     H   0.400
H117    38.061282882   23.928188534   28.869833103 XXXX 1      hop     H   0.400
H118    24.961728309   25.298901727   27.868865623 XXXX 1      hop     H   0.400
H119    17.656525640   26.459054620   29.446610832 XXXX 1      hop     H   0.400
H120     7.461114947   26.939451404   28.756829457 XXXX 1      hop     H   0.400
H121    30.484896289   23.332847961   28.556311496 XXXX 1      hop     H   0.400
H122    21.701030350   22.522310198   29.450551757 XXXX 1      hop     H   0.400
H123    11.434698356   21.416444022   28.920883847 XXXX 1      hop     H   0.400
H124     3.030542730   24.276783334   26.034849391 XXXX 1      hop     H   0.400
H125    32.742427879   20.784653750   28.270588920 XXXX 1      hop     H   0.400
H126    21.538790075   24.414006876   26.199179376 XXXX 1      hop     H   0.400
H127    11.743178842   24.245329097   26.707233540 XXXX 1      hop     H   0.400
H128     5.015276828   23.226830180   28.417861122 XXXX 1      hop     H   0.400
H129    36.543412802   21.124479607   28.567891079 XXXX 1      hop     H   0.400
H130    25.964653598   16.254908514   26.471640947 XXXX 1      hop     H   0.400
H131    18.009948572   20.858069274   28.412131636 XXXX 1      hop     H   0.400
H132     7.321893136   19.477986854   29.227487069 XXXX 1      hop     H   0.400
H133    35.662129365   17.884886816   28.205151545 XXXX 1      hop     H   0.400
H134    24.524695813   17.608646200   28.222129606 XXXX 1      hop     H   0.400
H135    15.546588848   18.953835785   28.777639841 XXXX 1      hop     H   0.400
H136     9.881056492   19.214126579   26.544552895 XXXX 1      hop     H   0.400
H137    32.976316624   17.618064112   29.367628347 XXXX 1      hop     H   0.400
H138    20.941524485   17.758551928   28.904534574 XXXX 1      hop     H   0.400
H139    11.305867972   18.005900516   28.549721601 XXXX 1      hop     H   0.400
H140     1.313841248   17.901926925   27.773793170 XXXX 1      hop     H   0.400
H141    32.085766246   14.857642284   28.317545266 XXXX 1      hop     H   0.400
H142    20.793953242   15.621869021   26.518309239 XXXX 1      hop     H   0.400
H143    14.388355971   16.155107668   28.021626186 XXXX 1      hop     H   0.400
H144     4.390844411   17.359719739   29.249565729 XXXX 1      hop     H   0.400
H145    35.258676516   13.058294466   27.845483578 XXXX 1      hop     H   0.400
H146    27.857840793   12.622207165   28.664711366 XXXX 1      hop     H   0.400
H147    16.696139469   16.186283329   26.375469462 XXXX 1      hop     H   0.400
H148     8.370139964   16.310415441   26.579923085 XXXX 1      hop     H   0.400
H149    35.479758099   16.342247235   26.425460122 XXXX 1      hop     H   0.400
H150    25.166331012   14.149799996   28.302958811 XXXX 1      hop     H   0.400
H151    17.738358683   14.604109620   29.206669972 XXXX 1      hop     H   0.400
H152    10.104542291   15.158303329   28.548646340 XXXX 1      hop     H   0.400
H153    32.690724640   12.141629750   27.995542098 XXXX 1      hop     H   0.400
H154    21.575328183    9.322509033   27.962635600 XXXX 1      hop     H   0.400
H155    10.570665617   12.570549010   28.307559437 XXXX 1      hop     H   0.400
H156     3.069429924   10.005164746   28.762422510 XXXX 1      hop     H   0.400
H157     4.666811493   10.537626308   26.344668261 XXXX 1      hop     H   0.400
H158    13.620235216   11.341771259   28.635307898 XXXX 1      hop     H   0.400
H159    20.404390661   12.505972822   28.438104067 XXXX 1      hop     H   0.400
H160    30.909787759    9.951916475   28.120254805 XXXX 1      hop     H   0.400
H161    33.823043536   11.053755575   26.397242946 XXXX 1      hop     H   0.400
H162    27.246717516    8.535497972   29.360987642 XXXX 1      hop     H   0.400
H163    15.899260224    7.149577781   26.431857825 XXXX 1      hop     H   0.400
H164     8.492418369    9.048228180   29.106524844 XXXX 1      hop     H   0.400
H165    35.823997390    8.566860243   28.433492503 XXXX 1      hop     H   0.400
H166    29.480688821    8.511895006   26.436921097 XXXX 1      hop     H   0.400
H167    17.748045981    8.190635004   29.105376096 XXXX 1      hop     H   0.400
H168     6.381099754    7.364016762   26.485895037 XXXX 1      hop     H   0.400
H169    31.647545146    6.940853813   28.136527236 XXXX 1      hop     H   0.400
H170    22.722050238    5.829488768   29.284916544 XXXX 1      hop     H   0.400
H171    14.178896780    4.427747420   28.695805773 XXXX 1      hop     H   0.400
H172     3.001808224    8.054878830   26.221639664 XXXX 1      hop     H   0.400
H173    30.002784060    3.816988452   27.195736564 XXXX 1      hop     H   0.400
H174    21.043697451    7.313809921   26.277199397 XXXX 1      hop     H   0.400
H175    11.046364917    4.731192086   28.304702040 XXXX 1      hop     H   0.400
H176     4.646925760    6.653915408   28.430791694 XXXX 1      hop     H   0.400
H177    38.215352484    2.958659537   26.420678826 XXXX 1      hop     H   0.400
H178    26.253128795    0.640744243   26.174269852 XXXX 1      hop     H   0.400
H179    18.479878569    1.767017554   28.297317074 XXXX 1      hop     H   0.400
H180     6.463437050    2.109774948   28.343795537 XXXX 1      hop     H   0.400
H181    35.537221773    3.646457877   29.173743608 XXXX 1      hop     H   0.400
H182    27.078067481    2.638751576   28.879945475 XXXX 1      hop     H   0.400
H183    16.887953583    0.745514869   26.114065894 XXXX 1      hop     H   0.400
H184     9.698403863    2.058608220   26.118978048 XXXX 1      hop     H   0.400
H185     2.995566983    1.384238946   29.261986469 XXXX 1      hop     H   0.400
H186    11.122969175   -0.980995974   26.474057137 XXXX 1      hop     H   0.400
H187    20.312942070   -0.044538141   27.460440434 XXXX 1      hop     H   0.400
H188    31.786151720    2.456846770   28.335920384 XXXX 1      hop     H   0.400
H189    30.590158043   -0.960401210   27.326647792 XXXX 1      hop     H   0.400
H190    23.422861693    2.105562824   28.209591420 XXXX 1      hop     H   0.400
H191    13.601759658    1.027910050   28.824450471 XXXX 1      hop     H   0.400
H192     5.369352290   -0.642433397   27.797758785 XXXX 1      hop     H   0.400
H193     5.950607287   32.034268652    1.279094581 XXXX 1      hop     H   0.400
H194    18.204409196   33.081771284    3.227719427 XXXX 1      hop     H   0.400
H195    27.334671037   30.222065830    3.798504342 XXXX 1      hop     H   0.400
H196    36.239869839   34.293110102    4.042897058 XXXX 1      hop     H   0.400
H197     6.769360527   34.574141086    3.156951080 XXXX 1      hop     H   0.400
H198    17.261984528   31.894949016    2.002198873 XXXX 1      hop     H   0.400
H199    25.727937381   32.136227975    0.941039106 XXXX 1      hop     H   0.400
H200    34.511441727   31.993792342    1.292678834 XXXX 1      hop     H   0.400
H201     3.724683621   28.604306543    2.380688492 XXXX 1      hop     H   0.400
H202    12.396436101   30.135193527    1.446985948 XXXX 1      hop     H   0.400
H203    18.481483543   30.939644952    3.782815563 XXXX 1      hop     H   0.400
H204    30.420126532   33.377732374    4.113247026 XXXX 1      hop     H   0.400
H205    28.599197933   30.687133850    2.166969927 XXXX 1      hop     H   0.400
H206    20.910337067   30.207841404    0.856463541 XXXX 1      hop     H   0.400
H207    12.345731589   33.156906608    3.680335585 XXXX 1      hop     H   0.400
H208     0.695623040   30.443075246    1.951135105 XXXX 1      hop     H   0.400
H209    34.109052548   29.319073273    1.227730871 XXXX 1      hop     H   0.400
H210    25.289857856   28.651660836    1.559415764 XXXX 1      hop     H   0.400
H211    16.295695032   25.624558948    4.025656576 XXXX 1      hop     H   0.400
H212     6.618212456   25.639859797    4.368296571 XXXX 1      hop     H   0.400
H213     6.308982264   27.255487425    1.305965311 XXXX 1      hop     H   0.400
H214    15.694196182   27.503299561    0.980674089 XXXX 1      hop     H   0.400
H215    25.660343852   25.650408762    3.804386876 XXXX 1      hop     H   0.400
H216    36.300548329   29.109490112    3.820737971 XXXX 1      hop     H   0.400
H217     2.576854208   23.465490698    2.096084235 XXXX 1      hop     H   0.400
H218    12.866743976   24.143314259    2.366638771 XXXX 1      hop     H   0.400
H219    22.427307909   25.575981279    2.591457437 XXXX 1      hop     H   0.400
H220    31.431309681   22.337084619    3.892717438 XXXX 1      hop     H   0.400
H221     1.360849458   26.364548989    2.309821623 XXXX 1      hop     H   0.400
H222     9.557258680   23.525292775    1.330061835 XXXX 1      hop     H   0.400
H223    20.111579615   22.992683155    2.099407405 XXXX 1      hop     H   0.400
H224    30.515566673   24.966694608    1.125042379 XXXX 1      hop     H   0.400
H225     7.589450623   21.116178552    1.896699268 XXXX 1      hop     H   0.400
H226    16.104557073   23.978453363    2.239146730 XXXX 1      hop     H   0.400
H227    24.694911407   23.906971600    2.574500778 XXXX 1      hop     H   0.400
H228    36.108029599   22.619040153    1.610143123 XXXX 1      hop     H   0.400
H229    32.963391117   21.500739622    2.400922452 XXXX 1      hop     H   0.400
H230    26.977122229   22.159278904    1.636336195 XXXX 1      hop     H   0.400
H231    13.720747701   22.878598042    4.451343781 XXXX 1      hop     H   0.400
H232     5.725763251   24.239938033    3.116069389 XXXX 1      hop     H   0.400
H233     1.316382789   20.322625942    0.961203309 XXXX 1      hop     H   0.400
H234     8.168958355   18.459792520    4.249786733 XXXX 1      hop     H   0.400
H235    18.825480906   19.746297126    1.645499797 XXXX 1      hop     H   0.400
H236    30.166842798   17.505507430    4.235167410 XXXX 1      hop     H   0.400
H237     3.542325343   21.478773163    3.000893094 XXXX 1      hop     H   0.400
H238    10.185619786   18.992189777    1.170700333 XXXX 1      hop     H   0.400
H239    21.922797403   21.190641985    2.138740703 XXXX 1      hop     H   0.400
H240    29.055398802   20.220341055    1.651378148 XXXX 1      hop     H   0.400
H241     7.830466270   16.048973617    2.097448673 XXXX 1      hop     H   0.400
H242    16.906536049   18.402858821    3.866961584 XXXX 1      hop     H   0.400
H243    24.513144955   16.830559092    1.293860044 XXXX 1      hop     H   0.400
H244    36.269698232   15.465155610    2.631732105 XXXX 1      hop     H   0.400
H245    33.089349002   16.630139997    1.581394228 XXXX 1      hop     H   0.400
H246    22.387407441   16.477791729    4.054306521 XXXX 1      hop     H   0.400
H247    15.956064255   16.121206167    1.100875115 XXXX 1      hop     H   0.400
H248     4.738003221   17.808773647    2.163862187 XXXX 1      hop     H   0.400
H249     3.381285204   15.109892019    2.031355111 XXXX 1      hop     H   0.400
H250     8.991468844   14.600872901    4.190489369 XXXX 1      hop     H   0.400
H251    20.077696139   15.412828519    1.417492289 XXXX 1      hop     H   0.400
H252    31.951748371   13.732590041    2.183864500 XXXX 1      hop     H   0.400
H253    29.765619619   12.092174235    1.758646929 XXXX 1      hop     H   0.400
H254    18.500815975   14.848448431    4.099141427 XXXX 1      hop     H   0.400
H255    11.195343082   15.742364778    1.910891115 XXXX 1      hop     H   0.400
H256     1.804026320   16.940598632    4.169515923 XXXX 1      hop     H   0.400
H257     6.893254475    9.348606442    4.069073676 XXXX 1      hop     H   0.400
H258    16.087403082   13.507491818    1.064435021 XXXX 1      hop     H   0.400
H259    24.790863366    9.704524174    2.185217654 XXXX 1      hop     H   0.400
H260    33.386064787   10.081799117    2.831067149 XXXX 1      hop     H   0.400
H261    35.931274955   12.624840692    1.702308647 XXXX 1      hop     H   0.400
H262    24.632086105   12.495384011    1.232020033 XXXX 1      hop     H   0.400
H263    17.330159238   12.568330737    2.817140886 XXXX 1      hop     H   0.400
H264     4.480867525   10.601918381    1.956464922 XXXX 1      hop     H   0.400
H265     1.204097733    9.083994725    0.702900779 XXXX 1      hop     H   0.400
H266    13.251578951    6.638747080    3.961929231 XXXX 1      hop     H   0.400
H267    21.207556050    8.930172027    1.675315947 XXXX 1      hop     H   0.400
H268    31.223765431    9.758212233    4.147694136 XXXX 1      hop     H   0.400
H269    30.443914515    6.786123855    2.089083584 XXXX 1      hop     H   0.400
H270    20.719651936   10.123659036    4.270164518 XXXX 1      hop     H   0.400
H271    11.314288479    6.885854904    1.179176405 XXXX 1      hop     H   0.400
H272     2.727842272   10.259874925    3.618127272 XXXX 1      hop     H   0.400
H273     6.209285180    6.601124205    1.143900346 XXXX 1      hop     H   0.400
H274    17.239386851    6.157781172    1.216808667 XXXX 1      hop     H   0.400
H275    23.891476623    4.534130460    1.997658972 XXXX 1      hop     H   0.400
H276    34.381872288    7.521445985    1.683124529 XXXX 1      hop     H   0.400
H277    25.873918269    6.667178310    1.403607755 XXXX 1      hop     H   0.400
H278    32.534027931    6.720941212    4.253578620 XXXX 1      hop     H   0.400
H279     4.441813694    6.049926538    4.012861167 XXXX 1      hop     H   0.400
H280    15.840461959    3.569356288    2.486089323 XXXX 1      hop     H   0.400
H281     1.367879965    2.981030377    1.026231904 XXXX 1      hop     H   0.400
H282     9.916513502    4.119333592    1.149901114 XXXX 1      hop     H   0.400
H283    20.485979865    0.901374196    3.728053899 XXXX 1      hop     H   0.400
H284    29.279277062    3.542295927    0.874292514 XXXX 1      hop     H   0.400
H285    31.975848833    4.066823297    2.637557045 XXXX 1      hop     H   0.400
H286    18.876345961    3.734206328    2.146748028 XXXX 1      hop     H   0.400
H287    11.748130282    1.868104915    2.280503102 XXXX 1      hop     H   0.400
H288     3.486700095    4.863557831    2.761548420 XXXX 1      hop     H   0.400
end
end
