!BIOSYM archive 3
PBC=ON

!DATE Fri Oct  3 05:59:58 2003
PBC   12.1846    7.0348    9.3528   90.0000  115.7375   90.0000 (P1)
CA1     -1.052668095    1.835847735    2.717637300 XXX  1      ca++    Ca  1.500
CA2      9.226429939    5.136186123    5.712174416 XXX  1      ca++    Ca  1.500
CA3      3.028146505    1.802490234   -0.054302994 XXX  1      ca++    Ca  1.500
CA4     -0.154301494    3.517402649    5.712074280 XXX  1      ca++    Ca  1.500
CA5      8.219378471    3.517407179    2.717522383 XXX  1      ca++    Ca  1.500
CA6      0.057844408    3.517402887   -0.054186113 XXX  1      ca++    Ca  1.500
SI1      0.007230922    0.000000891    0.028616548 XXX  1      sc1     Si  1.000
SI2      0.007297071    0.000001672    5.525158882 XXX  1      sc1     Si  1.000
SI3      8.130296707    0.000000056    2.954212904 XXX  1      sc1     Si  1.000
O1       2.038053274    3.517407656    4.595787525 XXX  1      oc1     O  -1.000
O2      -2.023525238    3.517406464    4.156828403 XXX  1      oc2     O  -1.500
O3      -0.743542314    1.300402403    6.048423767 XXX  1      oc1     O  -1.000
O4       1.508809447    0.000004876    6.048668861 XXX  1      oc1     O  -1.000
O5       0.007074024   -0.000001378    1.600960851 XXX  1      oc1     O  -1.000
O6       0.007470640    0.000004626    3.943363667 XXX  1      oc1     O  -1.000
O7      -2.023451090    3.517404556    7.182777882 XXX  1      oc2     O  -1.500
O8       4.068757057   -0.000003375    1.031637669 XXX  1      oc2     O  -1.500
O9      -3.304078102    5.735622883    7.946104527 XXX  1      oc1     O  -1.000
O10      0.527017832    3.517409563    2.398023129 XXX  1      oc1     O  -1.000
O11      0.537949443    3.517399073    7.945885658 XXX  1      oc1     O  -1.000
O12      2.793513298    4.825956345    2.397971869 XXX  1      oc1     O  -1.000
CA1     -1.052666783    5.198971272    2.717641354 XXX  2      ca++    Ca  1.500
CA2      9.226428032    1.898623943    5.712171555 XXX  2      ca++    Ca  1.500
CA3      3.028147459    5.232314587   -0.054302976 XXX  2      ca++    Ca  1.500
O1      -0.743535101    5.734405518    6.048421860 XXX  2      oc1     O  -1.000
O2      -3.304072142    1.299185634    7.946108818 XXX  2      oc1     O  -1.000
O3       2.793507099    2.208848000    2.397974491 XXX  2      oc1     O  -1.000
CA4      5.039609909    5.353242874    2.717640877 XXX  2      ca++    Ca  1.500
CA5      3.134153605    1.618782163    5.712173939 XXX  2      ca++    Ca  1.500
CA6      9.120424271    5.319900990   -0.054302961 XXX  2      ca++    Ca  1.500
CA7      5.937973022    0.000000840    5.712074280 XXX  2      ca++    Ca  1.500
CA8      2.127101898   -0.000001915    2.717522860 XXX  2      ca++    Ca  1.500
CA9      6.150118828   -0.000002081   -0.054185882 XXX  2      ca++    Ca  1.500
SI1      6.099507332    3.517403364    0.028616356 XXX  2      sc1     Si  1.000
SI2      6.099573612    3.517404079    5.525158882 XXX  2      sc1     Si  1.000
SI3      2.038022041    3.517405033    2.954212666 XXX  2      sc1     Si  1.000
O4       8.130327225   -0.000001574    4.595788002 XXX  2      oc1     O  -1.000
O5       4.068749428   -0.000001990    4.156828403 XXX  2      oc2     O  -1.500
O6       5.348737717    4.817808628    6.048421860 XXX  2      oc1     O  -1.000
O7       7.601085663    3.517402172    6.048669338 XXX  2      oc1     O  -1.000
O8       6.099350452    3.517402172    1.600960732 XXX  2      oc1     O  -1.000
O9       6.099747181    3.517402649    3.943363667 XXX  2      oc1     O  -1.000
O10      4.068823338    0.000001124    7.182777882 XXX  2      oc2     O  -1.500
O11     10.161033630    3.517408133    1.031637788 XXX  2      oc2     O  -1.500
O12      2.788203001    2.218219757    7.946106911 XXX  2      oc1     O  -1.000
O13      6.619292259   -0.000002229    2.398023367 XXX  2      oc1     O  -1.000
O14      6.630223751    0.000008116    7.945886135 XXX  2      oc1     O  -1.000
O15      8.885784149    1.308555365    2.397974253 XXX  2      oc1     O  -1.000
CA10     5.039606094    1.681557536    2.717638016 XXX  2      ca++    Ca  1.500
CA11     3.134153128    5.416029453    5.712172031 XXX  2      ca++    Ca  1.500
CA12     9.120421410    1.714915872   -0.054302916 XXX  2      ca++    Ca  1.500
O16      5.348735332    2.217002392    6.048423290 XXX  2      oc1     O  -1.000
O17      2.788197756    4.816592216    7.946106434 XXX  2      oc1     O  -1.000
O18      8.885787010    5.726256371    2.397972584 XXX  2      oc1     O  -1.000
end
end
