!BIOSYM archive 3
PBC=ON

!DATE Mon Oct  4 16:44:28 2004
PBC   12.1846    7.0348   25.2748   90.0000   90.0000   90.0000 (P1)
CA1     11.131932259    1.835847735    2.717637300 XXX  1      ca++    Ca  1.500
CA2      9.226429939    5.136186123    5.712174416 XXX  1      ca++    Ca  1.500
CA3      3.028146505    1.802490234   -0.054302994 XXX  1      ca++    Ca  1.500
CA4     -0.154301494    3.517402649    5.712074280 XXX  1      ca++    Ca  1.500
CA5      8.219378471    3.517407179    2.717522383 XXX  1      ca++    Ca  1.500
CA6      0.057844408    3.517402887   -0.054186113 XXX  1      ca++    Ca  1.500
SI1      0.007230922    0.000000891    0.028616548 XXX  1      sc1     Si  1.000
SI2      0.007297071    0.000001672    5.525158882 XXX  1      sc1     Si  1.000
SI3      8.130296707    0.000000056    2.954212904 XXX  1      sc1     Si  1.000
O1       2.038053274    3.517407656    4.595787525 XXX  1      oc1     O  -1.000
O2      10.161074638    3.517406464    4.156828403 XXX  1      oc2     O  -1.500
O3      -0.743542314    1.300402403    6.048423767 XXX  1      oc1     O  -1.000
O4       1.508809447    0.000004876    6.048668861 XXX  1      oc1     O  -1.000
O5       0.007074024   -0.000001378    1.600960851 XXX  1      oc1     O  -1.000
O6       0.007470640    0.000004626    3.943363667 XXX  1      oc1     O  -1.000
O7      10.161149025    3.517404556    7.182777882 XXX  1      oc2     O  -1.500
O8       4.068757057   -0.000003375    1.031637669 XXX  1      oc2     O  -1.500
O9       8.880521774   -1.299177170    7.946104527 XXX  1      oc1     O  -1.000
O10      0.527017832    3.517409563    2.398023129 XXX  1      oc1     O  -1.000
O11      0.537949443    3.517399073    7.945885658 XXX  1      oc1     O  -1.000
O12      2.793513298    4.825956345    2.397971869 XXX  1      oc1     O  -1.000
CA7      7.070489883    1.835847735   11.142574310 XXX  1      ca++    Ca  1.500
CA8      5.164988041    5.136186123   14.137110710 XXX  1      ca++    Ca  1.500
CA9     11.151305199    1.802490234    8.370634079 XXX  1      ca++    Ca  1.500
CA10     7.968856812    3.517402649   14.137010574 XXX  1      ca++    Ca  1.500
CA11     4.157936573    3.517407179   11.142458916 XXX  1      ca++    Ca  1.500
CA12     8.181002617    3.517402887    8.370750427 XXX  1      ca++    Ca  1.500
SI4      8.130389214    0.000000891    8.453553200 XXX  1      sc1     Si  1.000
SI5      8.130455971    0.000001672   13.950095177 XXX  1      sc1     Si  1.000
SI6      4.068854809    0.000000056   11.379149437 XXX  1      sc1     Si  1.000
O13     10.161211967    3.517407656   13.020724297 XXX  1      oc1     O  -1.000
O14      6.099632740    3.517406464   12.581765175 XXX  1      oc2     O  -1.500
O15      7.379615784    1.300402403   14.473360062 XXX  1      oc1     O  -1.000
O16      9.631967545    0.000004876   14.473605156 XXX  1      oc1     O  -1.000
O17      8.130232811   -0.000001378   10.025897980 XXX  1      oc1     O  -1.000
O18      8.130629539    0.000004626   12.368300438 XXX  1      oc1     O  -1.000
O19      6.099707127    3.517404556   15.607714653 XXX  1      oc2     O  -1.500
O20      0.007315393   -0.000003375    9.456574440 XXX  1      oc2     O  -1.500
O21      4.819079876   -1.299177170   16.371040344 XXX  1      oc1     O  -1.000
O22      8.650176048    3.517409563   10.822959900 XXX  1      oc1     O  -1.000
O23      8.661108017    3.517399073   16.370822906 XXX  1      oc1     O  -1.000
O24     10.916671753    4.825956345   10.822908401 XXX  1      oc1     O  -1.000
CA13     3.009048700    1.835847735   19.567510605 XXX  1      ca++    Ca  1.500
CA14     1.103546619    5.136186123   22.562047958 XXX  1      ca++    Ca  1.500
CA15     7.089862823    1.802490234   16.795570374 XXX  1      ca++    Ca  1.500
CA16     3.907415628    3.517402649   22.561946869 XXX  1      ca++    Ca  1.500
CA17     0.096495144    3.517407179   19.567396164 XXX  1      ca++    Ca  1.500
CA18     4.119561195    3.517402887   16.795686722 XXX  1      ca++    Ca  1.500
SI7      4.068947792    0.000000891   16.878490448 XXX  1      sc1     Si  1.000
SI8      4.069013596    0.000001672   22.375032425 XXX  1      sc1     Si  1.000
SI9      0.007413379    0.000000056   19.804086685 XXX  1      sc1     Si  1.000
O25      6.099769592    3.517407656   21.445661545 XXX  1      oc1     O  -1.000
O26      2.038191080    3.517406464   21.006702423 XXX  1      oc2     O  -1.500
O27      3.318174601    1.300402403   22.898296356 XXX  1      oc1     O  -1.000
O28      5.570526123    0.000004876   22.898542404 XXX  1      oc1     O  -1.000
O29      4.068790436   -0.000001378   18.450834274 XXX  1      oc1     O  -1.000
O30      4.069187164    0.000004626   20.793237686 XXX  1      oc1     O  -1.000
O31      2.038265467    3.517404556   24.032651901 XXX  1      oc2     O  -1.500
O32      8.130474091   -0.000003375   17.881511688 XXX  1      oc2     O  -1.500
O33      0.757638097   -1.299177170   -0.478821456 XXX  1      oc1     O  -1.000
O34      4.588734150    3.517409563   19.247896194 XXX  1      oc1     O  -1.000
O35      4.599666119    3.517399073   -0.479040802 XXX  1      oc1     O  -1.000
O36      6.855229855    4.825956345   19.247844696 XXX  1      oc1     O  -1.000
CA1     11.131933212    5.198971272    2.717641354 XXX  2      ca++    Ca  1.500
CA2      9.226428032    1.898623943    5.712171555 XXX  2      ca++    Ca  1.500
CA3      3.028147459    5.232314587   -0.054302976 XXX  2      ca++    Ca  1.500
O1      -0.743535101   -1.300394535    6.048421860 XXX  2      oc1     O  -1.000
O2       8.880527496    1.299185634    7.946108818 XXX  2      oc1     O  -1.000
O3       2.793507099    2.208848000    2.397974491 XXX  2      oc1     O  -1.000
CA4      5.039609909    5.353242874    2.717640877 XXX  2      ca++    Ca  1.500
CA5      3.134153605    1.618782163    5.712173939 XXX  2      ca++    Ca  1.500
CA6      9.120424271    5.319900990   -0.054302961 XXX  2      ca++    Ca  1.500
CA7      5.937973022    0.000000840    5.712074280 XXX  2      ca++    Ca  1.500
CA8      2.127101898   -0.000001915    2.717522860 XXX  2      ca++    Ca  1.500
CA9      6.150118828   -0.000002081   -0.054185882 XXX  2      ca++    Ca  1.500
SI1      6.099507332    3.517403364    0.028616356 XXX  2      sc1     Si  1.000
SI2      6.099573612    3.517404079    5.525158882 XXX  2      sc1     Si  1.000
SI3      2.038022041    3.517405033    2.954212666 XXX  2      sc1     Si  1.000
O4       8.130327225   -0.000001574    4.595788002 XXX  2      oc1     O  -1.000
O5       4.068749428   -0.000001990    4.156828403 XXX  2      oc2     O  -1.500
O6       5.348737717    4.817808628    6.048421860 XXX  2      oc1     O  -1.000
O7       7.601085663    3.517402172    6.048669338 XXX  2      oc1     O  -1.000
O8       6.099350452    3.517402172    1.600960732 XXX  2      oc1     O  -1.000
O9       6.099747181    3.517402649    3.943363667 XXX  2      oc1     O  -1.000
O10      4.068823338    0.000001124    7.182777882 XXX  2      oc2     O  -1.500
O11     10.161033630    3.517408133    1.031637788 XXX  2      oc2     O  -1.500
O12      2.788203001    2.218219757    7.946106911 XXX  2      oc1     O  -1.000
O13      6.619292259   -0.000002229    2.398023367 XXX  2      oc1     O  -1.000
O14      6.630223751    0.000008116    7.945886135 XXX  2      oc1     O  -1.000
O15      8.885784149    1.308555365    2.397974253 XXX  2      oc1     O  -1.000
CA10     5.039606094    1.681557536    2.717638016 XXX  2      ca++    Ca  1.500
CA11     3.134153128    5.416029453    5.712172031 XXX  2      ca++    Ca  1.500
CA12     9.120421410    1.714915872   -0.054302916 XXX  2      ca++    Ca  1.500
O16      5.348735332    2.217002392    6.048423290 XXX  2      oc1     O  -1.000
O17      2.788197756    4.816592216    7.946106434 XXX  2      oc1     O  -1.000
O18      8.885787010   -1.308543682    2.397972584 XXX  2      oc1     O  -1.000
CA13     7.070491314    5.198971272   11.142578125 XXX  2      ca++    Ca  1.500
CA14     5.164986134    1.898623943   14.137107849 XXX  2      ca++    Ca  1.500
CA15    11.151306152    5.232314587    8.370634079 XXX  2      ca++    Ca  1.500
O19      7.379622936   -1.300394535   14.473358154 XXX  2      oc1     O  -1.000
O20      4.819086075    1.299185634   16.371046066 XXX  2      oc1     O  -1.000
O21     10.916665077    2.208848000   10.822911263 XXX  2      oc1     O  -1.000
CA16     0.978168249    5.353242874   11.142577171 XXX  2      ca++    Ca  1.500
CA17    11.257311821    1.618782163   14.137110710 XXX  2      ca++    Ca  1.500
CA18     5.058982372    5.319900990    8.370634079 XXX  2      ca++    Ca  1.500
CA19     1.876531363    0.000000840   14.137010574 XXX  2      ca++    Ca  1.500
CA20    10.250260353   -0.000001915   11.142459869 XXX  2      ca++    Ca  1.500
CA21     2.088677168   -0.000002081    8.370750427 XXX  2      ca++    Ca  1.500
SI4      2.038065672    3.517403364    8.453553200 XXX  2      sc1     Si  1.000
SI5      2.038131952    3.517404079   13.950095177 XXX  2      sc1     Si  1.000
SI6     10.161180496    3.517405033   11.379149437 XXX  2      sc1     Si  1.000
O22      4.068885326   -0.000001574   13.020724297 XXX  2      oc1     O  -1.000
O23      0.007307764   -0.000001990   12.581765175 XXX  2      oc2     O  -1.500
O24      1.287296057    4.817808628   14.473358154 XXX  2      oc1     O  -1.000
O25      3.539644003    3.517402172   14.473606110 XXX  2      oc1     O  -1.000
O26      2.037908792    3.517402172   10.025897026 XXX  2      oc1     O  -1.000
O27      2.038305521    3.517402649   12.368300438 XXX  2      oc1     O  -1.000
O28      0.007381674    0.000001124   15.607714653 XXX  2      oc2     O  -1.500
O29      6.099591732    3.517408133    9.456574440 XXX  2      oc2     O  -1.500
O30     10.911361694    2.218219757   16.371044159 XXX  2      oc1     O  -1.000
O31      2.557850599   -0.000002229   10.822959900 XXX  2      oc1     O  -1.000
O32      2.568782091    0.000008116   16.370822906 XXX  2      oc1     O  -1.000
O33      4.824342251    1.308555365   10.822911263 XXX  2      oc1     O  -1.000
CA22     0.978164434    1.681557536   11.142574310 XXX  2      ca++    Ca  1.500
CA23    11.257311821    5.416029453   14.137108803 XXX  2      ca++    Ca  1.500
CA24     5.058979511    1.714915872    8.370634079 XXX  2      ca++    Ca  1.500
O34      1.287293673    2.217002392   14.473360062 XXX  2      oc1     O  -1.000
O35     10.911355972    4.816592216   16.371042252 XXX  2      oc1     O  -1.000
O36      4.824345112   -1.308543682   10.822909355 XXX  2      oc1     O  -1.000
CA25     3.009049654    5.198971272   19.567514420 XXX  2      ca++    Ca  1.500
CA26     1.103544712    1.898623943   22.562044144 XXX  2      ca++    Ca  1.500
CA27     7.089863777    5.232314587   16.795570374 XXX  2      ca++    Ca  1.500
O37      3.318181276   -1.300394535   22.898294449 XXX  2      oc1     O  -1.000
O38      0.757644773    1.299185634   -0.478817642 XXX  2      oc1     O  -1.000
O39      6.855223656    2.208848000   19.247848511 XXX  2      oc1     O  -1.000
CA28     9.101326942    5.353242874   19.567514420 XXX  2      ca++    Ca  1.500
CA29     7.195869923    1.618782163   22.562047958 XXX  2      ca++    Ca  1.500
CA30     0.997540951    5.319900990   16.795570374 XXX  2      ca++    Ca  1.500
CA31     9.999690056    0.000000840   22.561946869 XXX  2      ca++    Ca  1.500
CA32     6.188818455   -0.000001915   19.567396164 XXX  2      ca++    Ca  1.500
CA33    10.211835861   -0.000002081   16.795686722 XXX  2      ca++    Ca  1.500
SI7     10.161224365    3.517403364   16.878490448 XXX  2      sc1     Si  1.000
SI8     10.161290169    3.517404079   22.375032425 XXX  2      sc1     Si  1.000
SI9      6.099738598    3.517405033   19.804086685 XXX  2      sc1     Si  1.000
O40      0.007443897   -0.000001574   21.445661545 XXX  2      oc1     O  -1.000
O41      8.130466461   -0.000001990   21.006702423 XXX  2      oc2     O  -1.500
O42      9.410454750    4.817808628   22.898294449 XXX  2      oc1     O  -1.000
O43     11.662802696    3.517402172   22.898542404 XXX  2      oc1     O  -1.000
O44     10.161067009    3.517402172   18.450834274 XXX  2      oc1     O  -1.000
O45     10.161463737    3.517402649   20.793237686 XXX  2      oc1     O  -1.000
O46      8.130539894    0.000001124   24.032651901 XXX  2      oc2     O  -1.500
O47      2.038150311    3.517408133   17.881511688 XXX  2      oc2     O  -1.500
O48      6.849919319    2.218219757   -0.478819549 XXX  2      oc1     O  -1.000
O49     -1.503591061   -0.000002229   19.247896194 XXX  2      oc1     O  -1.000
O50     -1.492659569    0.000008116   -0.479040802 XXX  2      oc1     O  -1.000
O51      0.762900829    1.308555365   19.247848511 XXX  2      oc1     O  -1.000
CA34     9.101323128    1.681557536   19.567510605 XXX  2      ca++    Ca  1.500
CA35     7.195869446    5.416029453   22.562046051 XXX  2      ca++    Ca  1.500
CA36     0.997538090    1.714915872   16.795570374 XXX  2      ca++    Ca  1.500
O52      9.410451889    2.217002392   22.898296356 XXX  2      oc1     O  -1.000
O53      6.849914074    4.816592216   -0.478819549 XXX  2      oc1     O  -1.000
O54      0.762903690   -1.308543682   19.247846603 XXX  2      oc1     O  -1.000
end
end
