!BIOSYM archive 3
PBC=ON
Materials Studio Generated CAR File
!DATE Mon Apr 21 03:11:25 2014
PBC   30.5260  261.0520   30.5260   90.0000   90.0000   90.0000 (P1)
CA1      0.779275363    0.140150397    0.645804846 XXX  1      ca+a    Ca  1.500
CA2      5.191968885   -1.840280283    1.854159713 XXX  1      ca+a    Ca  1.500
CA3      3.911449015    3.939626653    3.711106770 XXX  1      ca+a    Ca  1.500
CA4      6.186438804    5.911064540    5.596485334 XXX  1      ca+a    Ca  1.500
CA5      2.317488471    5.819020853    1.565766472 XXX  1      ca+a    Ca  1.500
CA6      5.984794228    5.719365348    1.370919162 XXX  1      ca+a    Ca  1.500
AL1      3.638493576    0.042939325   -0.169992318 XXX  1      ac1     Al  1.200
AL2      3.772772429    3.520650497   -0.555384658 XXX  1      ac1     Al  1.200
O1       4.098230746    1.752984405   -0.465719102 XXX  1      oc3     O  -0.750
O2       7.335151572    1.843799770    3.101869788 XXX  1      oc3     O  -0.750
O3       4.168957225    4.196800062    1.101755572 XXX  1      oc4     O  -1.350
O4       3.550448083    6.148102937    3.913454996 XXX  1      oc4     O  -1.350
O5       4.987126634   -0.998538556   -0.305779031 XXX  1      oc4     O  -1.350
O6       2.168399852   -0.111275961   -1.035052955 XXX  1      oc4     O  -1.350
CA1      8.389119085   -0.142202080    6.599314356 XXX  2      ca+a    Ca  1.500
CA2     -2.363225401   -1.700758852    5.123285621 XXX  2      ca+a    Ca  1.500
CA3      4.110475611   11.588771817   11.145526834 XXX  2      ca+a    Ca  1.500
CA4      2.389569645    9.663350109   13.138797211 XXX  2      ca+a    Ca  1.500
CA5      5.950445676    9.756459748    9.708754695 XXX  2      ca+a    Ca  1.500
CA6      2.263979167   10.019056365    8.829933070 XXX  2      ca+a    Ca  1.500
AL1      4.308445863   15.111845305    7.502934386 XXX  2      ac1     Al  1.200
AL2      4.530400042   11.661717143    7.417986290 XXX  2      ac1     Al  1.200
O1       4.019665846   13.375052994    7.432482875 XXX  2      oc3     O  -0.750
O2      15.951627186   13.342195599   10.976304511 XXX  2      oc3     O  -0.750
O3       4.215014254   11.015986592    8.982965911 XXX  2      oc4     O  -1.350
O4       4.635073461    9.149855271   11.472586188 XXX  2      oc4     O  -1.350
O5       2.799275511   15.733500731    6.809155672 XXX  2      oc4     O  -1.350
O6       5.769858958   15.308589855    6.681737147 XXX  2      oc4     O  -1.350
CA7      0.104053503    7.666454329    7.232505498 XXX  2      ca+a    Ca  1.500
CA8      8.080072771    7.969436544    7.158380876 XXX  2      ca+a    Ca  1.500
CA9     11.638247687   11.888995223    3.359649132 XXX  2      ca+a    Ca  1.500
CA10     9.548903083   13.753718355    1.432052162 XXX  2      ca+a    Ca  1.500
CA11    13.577558900   13.599312918    5.399855484 XXX  2      ca+a    Ca  1.500
CA12     9.814322050   13.447957449    5.802849997 XXX  2      ca+a    Ca  1.500
AL3     11.658116156    7.858456061    7.041748426 XXX  2      ac1     Al  1.200
AL4     12.055156508   11.310222501    7.410591312 XXX  2      ac1     Al  1.200
O7      11.643499598    9.569816015    7.474236286 XXX  2      oc3     O  -0.750
O8       8.137106459    9.436644002    3.683661535 XXX  2      oc3     O  -0.750
O9      11.581470333   12.049594072    5.888985307 XXX  2      oc4     O  -1.350
O10     11.960436444   -0.941675206    3.315969865 XXX  2      oc4     O  -1.350
O11     10.185981148    7.287332195    7.783919493 XXX  2      oc4     O  -1.350
O12     13.214435148    7.175195691    7.487766080 XXX  2      oc4     O  -1.350
CA13     7.837025662    7.692043968   -0.273766410 XXX  2      ca+a    Ca  1.500
CA14     0.258261008    7.702767706   -0.186581061 XXX  2      ca+a    Ca  1.500
CA15    11.636966868    3.901783249   11.159935569 XXX  2      ca+a    Ca  1.500
CA16    14.782729511   -0.120421503    7.333350218 XXX  2      ca+a    Ca  1.500
CA17     9.663850006    1.805645264   12.733955876 XXX  2      ca+a    Ca  1.500
CA18    13.422645622    2.835662331   13.956057977 XXX  2      ca+a    Ca  1.500
AL5     11.704773446    7.367870773   14.844044418 XXX  2      ac1     Al  1.200
AL6     10.941936710    3.938700197   14.840545652 XXX  2      ac1     Al  1.200
O13     11.754156211    5.552894254   14.937185320 XXX  2      oc3     O  -0.750
O14      0.572434792    5.480978476   11.401583189 XXX  2      oc3     O  -0.750
O15     11.332237578    3.202639823   13.238076560 XXX  2      oc4     O  -1.350
O16     11.531161603   16.858760623   10.568084666 XXX  2      oc4     O  -1.350
O17     13.181812761    7.877207881   15.596311136 XXX  2      oc4     O  -1.350
O18     10.143965861    7.781941249   15.435149461 XXX  2      oc4     O  -1.350
CA19     2.132750094    2.154966535    5.260940706 XXX  2      ca+a    Ca  1.500
CA20     1.931487755    5.969132408    5.335288006 XXX  2      ca+a    Ca  1.500
AL7      0.394831159    3.692145327   -0.056441509 XXX  2      ac1     Al  1.200
AL8      0.064845069    3.644807820    3.366839497 XXX  2      ac1     Al  1.200
O19      0.416288768    3.980901811    1.662569799 XXX  2      oc3     O  -0.750
O20      4.140842636    7.453664512    1.671801395 XXX  2      oc3     O  -0.750
O21      1.593565517    3.948161758    4.111670547 XXX  2      oc4     O  -1.350
O22      4.122142256    2.867166685    6.005233543 XXX  2      oc4     O  -1.350
O23     -0.478158575    4.961075060   -0.788708505 XXX  2      oc4     O  -1.350
O24     -0.035002788    1.991106409   -0.398395727 XXX  2      oc4     O  -1.350
CA21    10.304256335    5.835887507    9.264596497 XXX  2      ca+a    Ca  1.500
CA22     9.288780433    1.593814584    9.126301839 XXX  2      ca+a    Ca  1.500
AL9      7.742912812    3.122222702   14.636840562 XXX  2      ac1     Al  1.200
AL10     7.674880221    3.864841120   11.274038337 XXX  2      ac1     Al  1.200
O25      7.254874532    3.633353638   13.025355330 XXX  2      oc3     O  -0.750
O26     11.846733254   15.747984337   13.186917800 XXX  2      oc3     O  -0.750
O27      9.076761745    2.861111405   10.846021891 XXX  2      oc4     O  -1.350
O28     11.897738636    4.351829457    8.970892173 XXX  2      oc4     O  -1.350
O29      8.451958126    1.489847237   14.498192382 XXX  2      oc4     O  -1.350
O30      6.639251120    3.503966428   15.758336833 XXX  2      oc4     O  -1.350
CA23     5.811673728   13.324751962   12.963161824 XXX  2      ca+a    Ca  1.500
CA24     6.341507413    9.521159956   12.969002523 XXX  2      ca+a    Ca  1.500
AL11     7.954913937   11.410804704    7.667128181 XXX  2      ac1     Al  1.200
AL12     8.069637135   11.650204681   10.955136361 XXX  2      ac1     Al  1.200
O31      7.955138728   11.150446663    9.352011071 XXX  2      oc3     O  -0.750
O32      4.202443933    7.838574142    9.010665730 XXX  2      oc3     O  -0.750
O33      6.451142465   11.256649879   11.500727509 XXX  2      oc4     O  -1.350
O34      3.732037088   11.919609974   -1.852683888 XXX  2      oc4     O  -1.350
O35      8.757241348   10.044436894    6.969299425 XXX  2      oc4     O  -1.350
O36      8.524844631   12.973970197    7.451709385 XXX  2      oc4     O  -1.350
CA25    13.153620876    9.694088586    1.753810269 XXX  2      ca+a    Ca  1.500
CA26    14.008966873   13.521026620    1.621404443 XXX  2      ca+a    Ca  1.500
AL13    15.376557177   11.542010052    7.018611250 XXX  2      ac1     Al  1.200
AL14    15.567721915   11.118735511    3.578633160 XXX  2      ac1     Al  1.200
O37     15.598824157   11.671770572    5.311002215 XXX  2      oc3     O  -0.750
O38     10.940577325   -0.129931723    5.651350313 XXX  2      oc3     O  -0.750
O39     13.944684924   11.455447389    2.859111490 XXX  2      oc4     O  -1.350
O40     11.424141195   11.060181338   16.295510966 XXX  2      oc4     O  -1.350
O41     16.160650252   12.901346014    7.739158029 XXX  2      oc4     O  -1.350
O42     15.872299401    9.937974846    7.471731600 XXX  2      oc4     O  -1.350
CA27     5.484083737    2.480211308    1.682018177 XXX  2      ca+a    Ca  1.500
CA28     5.343567205    1.048776091    5.126168562 XXX  2      ca+a    Ca  1.500
AL15    -0.044372407    0.330469765    3.825920761 XXX  2      ac1     Al  1.200
AL16     3.269743346    0.128669878    3.183574683 XXX  2      ac1     Al  1.200
O43      1.668395537    0.213686610    3.940846640 XXX  2      oc3     O  -0.750
O44      1.885390976    3.715209043    7.188418416 XXX  2      oc3     O  -0.750
O45      3.962333414    1.759869493    3.427108068 XXX  2      oc4     O  -1.350
O46      6.121217720    4.302865917    3.091745367 XXX  2      oc4     O  -1.350
O47     -0.873842577   -0.024000329    5.293662953 XXX  2      oc4     O  -1.350
O48     -0.515113881   -0.232453516    2.305682207 XXX  2      oc4     O  -1.350
CA29    10.141291622   10.095518682    5.224279970 XXX  2      ca+a    Ca  1.500
CA30     9.845619340    9.365807484    1.557509705 XXX  2      ca+a    Ca  1.500
AL17    15.206786884    7.643808169    3.434368809 XXX  2      ac1     Al  1.200
AL18    11.809052507    7.592695647    3.665750805 XXX  2      ac1     Al  1.200
O49     13.533875989    7.526329800    3.180001407 XXX  2      oc3     O  -0.750
O50     13.888428924   11.570209927   15.257341342 XXX  2      oc3     O  -0.750
O51     11.243368965    9.224791980    3.394783385 XXX  2      oc4     O  -1.350
O52      9.396963940   11.840996220    4.034691689 XXX  2      oc4     O  -1.350
O53     15.763155584    6.836022184    1.996029352 XXX  2      oc4     O  -1.350
O54     15.337527452    7.057911874    5.082142853 XXX  2      oc4     O  -1.350
CA31    13.651288233    5.861739050   12.798240257 XXX  2      ca+a    Ca  1.500
CA32    13.550061462    5.870919093    9.230491070 XXX  2      ca+a    Ca  1.500
AL19     8.117157076    7.226261797   11.045863125 XXX  2      ac1     Al  1.200
AL20    11.475508388    7.734723919   11.424624419 XXX  2      ac1     Al  1.200
O55      9.778979211    7.812685062   10.951322620 XXX  2      oc3     O  -0.750
O56      9.674455755    3.821438878    7.598995325 XXX  2      oc3     O  -0.750
O57     12.030947765    6.114587018   10.998779789 XXX  2      oc4     O  -1.350
O58     -1.421476064    3.588445583   11.720963769 XXX  2      oc4     O  -1.350
O59      7.283616260    7.726750021    9.632098793 XXX  2      oc4     O  -1.350
O60      7.460797550    7.581022092   12.708208157 XXX  2      oc4     O  -1.350
CA33     2.280926741   13.751353370    9.301863227 XXX  2      ca+a    Ca  1.500
CA34     2.350005108   13.725611662   13.106672746 XXX  2      ca+a    Ca  1.500
AL21     7.857181350   15.078510105   11.232252489 XXX  2      ac1     Al  1.200
AL22     4.521796905   15.473963596   10.889046899 XXX  2      ac1     Al  1.200
O61      6.126656198   15.351211298   11.497034680 XXX  2      oc3     O  -0.750
O62      6.187343630   11.439843539   -0.555146884 XXX  2      oc3     O  -0.750
O63      3.741293174   13.873826865   11.217884449 XXX  2      oc4     O  -1.350
O64     17.132242753   10.791181045   10.768194595 XXX  2      oc4     O  -1.350
O65      8.715702478   15.587139793   12.683551476 XXX  2      oc4     O  -1.350
O66      8.224690151   15.673974514    9.657669315 XXX  2      oc4     O  -1.350
CA35    11.802021566   11.650530018   11.128925908 XXX  2      ca+a    Ca  1.500
CA36    10.265118577    9.796038643    9.429553741 XXX  2      ca+a    Ca  1.500
CA37    13.552242901    9.748262552   12.550803277 XXX  2      ca+a    Ca  1.500
CA38    10.029293211    9.993361153   13.391784961 XXX  2      ca+a    Ca  1.500
AL23    11.806279137   15.201422377   14.860214260 XXX  2      ac1     Al  1.200
AL24    12.190716866   11.747435237   14.911878502 XXX  2      ac1     Al  1.200
O67     11.687911724   13.407699137   14.865062441 XXX  2      oc3     O  -0.750
O68      8.337931233   13.373432878   11.151462738 XXX  2      oc3     O  -0.750
O69     11.930013374   11.059375171   13.352366352 XXX  2      oc4     O  -1.350
O70     12.163739895    9.165963632   10.693756044 XXX  2      oc4     O  -1.350
O71     10.259613339   15.578243676   15.479822109 XXX  2      oc4     O  -1.350
O72     13.380361615   15.333009083   15.648571993 XXX  2      oc4     O  -1.350
CA39    11.660702065    4.058972649    3.115366206 XXX  2      ca+a    Ca  1.500
CA40    13.850370621    5.771254916    1.375504386 XXX  2      ca+a    Ca  1.500
CA41     9.828437863    5.449346141    4.956855284 XXX  2      ca+a    Ca  1.500
CA42    13.640911905    5.654995864    5.618991620 XXX  2      ca+a    Ca  1.500
AL25    11.381048174    0.167207943    7.279446865 XXX  2      ac1     Al  1.200
AL26    11.382972776    3.625295029    7.408242409 XXX  2      ac1     Al  1.200
O73     11.836892369    1.853967492    7.521068467 XXX  2      oc3     O  -0.750
O74     -0.450341876    1.957743545    3.660682856 XXX  2      oc3     O  -0.750
O75     11.711695084    4.249216882    5.788055965 XXX  2      oc4     O  -1.350
O76     11.044919441    6.140046810    3.052814754 XXX  2      oc4     O  -1.350
O77     12.802722610   -0.766201453    7.436494465 XXX  2      oc4     O  -1.350
O78      9.973727653   -0.153621864    8.178505768 XXX  2      oc4     O  -1.350
CA43     4.142505104    3.938154417   11.314009283 XXX  2      ca+a    Ca  1.500
CA44     6.927872357   -0.020529794   14.849485220 XXX  2      ca+a    Ca  1.500
CA45     2.173695825    1.892301579    9.513971923 XXX  2      ca+a    Ca  1.500
CA46     5.970177617    2.723990423    8.729791688 XXX  2      ca+a    Ca  1.500
AL27     4.154580202    7.282004528    7.362068084 XXX  2      ac1     Al  1.200
AL28     3.606508273    3.775126870    7.390892161 XXX  2      ac1     Al  1.200
O79      4.312641493    5.491618248    7.311035567 XXX  2      oc3     O  -0.750
O80      8.212726320    5.471810009   10.911585827 XXX  2      oc3     O  -0.750
O81      3.836689707    3.127814300    9.033507742 XXX  2      oc4     O  -1.350
O82      3.917979914   16.948816611   11.583815879 XXX  2      oc4     O  -1.350
O83      5.615903641    7.848508432    6.622943838 XXX  2      oc4     O  -1.350
O84      2.534764524    7.620558609    6.788636245 XXX  2      oc4     O  -1.350
CA47     3.999849122   11.761561384    3.752909807 XXX  2      ca+a    Ca  1.500
CA48     2.254235438   13.782073494    5.717597190 XXX  2      ca+a    Ca  1.500
CA49     5.878217443   13.511642946    1.752743966 XXX  2      ca+a    Ca  1.500
CA50     2.212029819   13.519338829    1.440953632 XXX  2      ca+a    Ca  1.500
AL29     4.101995753    7.949419912    0.013268825 XXX  2      ac1     Al  1.200
AL30     4.400044777   11.336565876   -0.294088213 XXX  2      ac1     Al  1.200
O85      3.852843549    9.666795592   -0.238583536 XXX  2      oc3     O  -0.750
O86     15.803591807    9.305072472    3.471977666 XXX  2      oc3     O  -0.750
O87      4.009841768   12.039130046    1.389784795 XXX  2      oc4     O  -1.350
O88      4.238656101   -1.144980127    3.763167683 XXX  2      oc4     O  -1.350
O89      2.611270897    7.095318054   -0.554117438 XXX  2      oc4     O  -1.350
O90      5.638511236    7.624344415   -0.657320695 XXX  2      oc4     O  -1.350
CA51    13.525077430   13.453506664    9.255302640 XXX  2      ca+a    Ca  1.500
CA52    14.044155619    9.499170087    9.242415668 XXX  2      ca+a    Ca  1.500
AL31    15.538433714   11.402257530   14.689114911 XXX  2      ac1     Al  1.200
AL32    15.712779530   11.639832743   11.248071281 XXX  2      ac1     Al  1.200
O91     15.584518875   11.215345445   12.939829822 XXX  2      oc3     O  -0.750
O92     11.774210873    7.911833718   13.188698648 XXX  2      oc3     O  -0.750
O93     14.090245679   11.291044788   10.661699616 XXX  2      oc4     O  -1.350
O94     11.446350261   11.806013662    8.920252240 XXX  2      oc4     O  -1.350
O95     16.317733615    9.935213457   15.273195795 XXX  2      oc4     O  -1.350
O96     16.182877708   12.935688477   14.824130933 XXX  2      oc4     O  -1.350
CA53     5.577296958    9.773040119    5.318252198 XXX  2      ca+a    Ca  1.500
CA54     6.347627393   13.563875931    5.373290306 XXX  2      ca+a    Ca  1.500
AL33     7.816683773   11.509137311    0.025526061 XXX  2      ac1     Al  1.200
AL34     7.888408571   11.274286797    3.481680777 XXX  2      ac1     Al  1.200
O97      7.760255843   11.746856551    1.793693228 XXX  2      oc3     O  -0.750
O98      3.181093188   -0.189317901    1.438673958 XXX  2      oc3     O  -0.750
O99      6.276063614   11.562545033    4.138927078 XXX  2      oc4     O  -1.350
O100     3.719183900   11.007719750    6.013891571 XXX  2      oc4     O  -1.350
O101     8.497002837   13.025280288   -0.522857260 XXX  2      oc4     O  -1.350
O102     8.537706345    9.962533627   -0.357505386 XXX  2      oc4     O  -1.350
CA55     9.742383822    2.220131436    1.994286885 XXX  2      ca+a    Ca  1.500
CA56     9.463496653    5.806088618    1.590149968 XXX  2      ca+a    Ca  1.500
AL35     8.028256843    3.557612215    7.054453549 XXX  2      ac1     Al  1.200
AL36     7.591139202    3.516063609    3.605252603 XXX  2      ac1     Al  1.200
O103     7.596977386    3.786384387    5.354657293 XXX  2      oc3     O  -0.750
O104    11.488435094    7.441964329    5.344879906 XXX  2      oc3     O  -0.750
O105     9.168479233    4.065413953    3.040330990 XXX  2      oc4     O  -1.350
O106    11.579758175    2.928732414   16.152129257 XXX  2      oc4     O  -1.350
O107     7.021783101    4.701878157    7.746022584 XXX  2      oc4     O  -1.350
O108     7.635473267    1.836974237    7.549621649 XXX  2      oc4     O  -1.350
CA57     2.650642331    6.029792703   12.971947956 XXX  2      ca+a    Ca  1.500
CA58     1.425736045    1.481928958   13.144009377 XXX  2      ca+a    Ca  1.500
AL37     0.325842284    3.124668580    7.616311626 XXX  2      ac1     Al  1.200
AL38     0.138245055    3.836523154   11.005104277 XXX  2      ac1     Al  1.200
O109    -0.211546900    3.591920956    9.266400559 XXX  2      oc3     O  -0.750
O110     4.448017606   15.697601017    9.156907311 XXX  2      oc3     O  -0.750
O111     1.612042811    2.775063712   11.401458188 XXX  2      oc4     O  -1.350
O112     4.433337087    4.219933652   -2.023469500 XXX  2      oc4     O  -1.350
O113     0.872841044    1.506797581    7.809866061 XXX  2      oc4     O  -1.350
O114    -0.779945918    3.501110646    6.438547828 XXX  2      oc4     O  -1.350
CA59     9.993765990   13.669254079   13.003297306 XXX  2      ca+a    Ca  1.500
CA60    10.115430081   13.679764747    9.102085197 XXX  2      ca+a    Ca  1.500
AL39    15.513054200   15.093640300   10.994401983 XXX  2      ac1     Al  1.200
AL40    12.134721314   15.453765864   11.371410341 XXX  2      ac1     Al  1.200
O115    13.803131850   15.385097710   10.796213090 XXX  2      oc3     O  -0.750
O116    13.716063626   11.604960865    7.592352720 XXX  2      oc3     O  -0.750
O117    11.471185484   13.843296080   11.056554202 XXX  2      oc4     O  -1.350
O118     9.583277034   10.829035248   11.454344313 XXX  2      oc4     O  -1.350
O119    16.320457574   15.603378873    9.486933740 XXX  2      oc4     O  -1.350
O120    16.007383455   15.587858138   12.587054965 XXX  2      oc4     O  -1.350
CA61     6.057947004    5.897896265    9.322337528 XXX  2      ca+a    Ca  1.500
CA62     5.870370154    5.968312839   13.032466733 XXX  2      ca+a    Ca  1.500
AL41     0.529590474    7.279960504   11.129422856 XXX  2      ac1     Al  1.200
AL42     3.921199419    7.765291334   10.726303685 XXX  2      ac1     Al  1.200
O121     2.234109552    7.851320121   11.148755323 XXX  2      oc3     O  -0.750
O122     2.035992020    3.783943805   -0.740408464 XXX  2      oc3     O  -0.750
O123     4.432664792    6.202218664   11.238689786 XXX  2      oc4     O  -1.350
O124     6.185153584    3.783075427   10.520286856 XXX  2      oc4     O  -1.350
O125    -0.204656753    7.772771528   12.621269512 XXX  2      oc4     O  -1.350
O126    -0.193782131    7.528906031    9.578154809 XXX  2      oc4     O  -1.350
CA63     2.308010258   10.147883574    1.692630185 XXX  2      ca+a    Ca  1.500
CA64     2.230930536    9.426228390    5.494011741 XXX  2      ca+a    Ca  1.500
AL43     7.545288871    7.750307548    3.629053321 XXX  2      ac1     Al  1.200
AL44     4.243971760    7.700151948    3.375733779 XXX  2      ac1     Al  1.200
O127     5.908892034    7.722415160    3.878858856 XXX  2      oc3     O  -0.750
O128     6.303212585   11.337957325    7.135025227 XXX  2      oc3     O  -0.750
O129     3.599246918    9.321741750    3.728112691 XXX  2      oc4     O  -1.350
O130    17.008919630   11.782783984    2.921557751 XXX  2      oc4     O  -1.350
O131     8.183742760    6.915916519    5.105322022 XXX  2      oc4     O  -1.350
O132     7.776460887    7.170708721    2.005845604 XXX  2      oc4     O  -1.350
CA65    13.110863842    2.611216167    5.335683730 XXX  2      ca+a    Ca  1.500
CA66    12.928930445    0.784159814    2.124723926 XXX  2      ca+a    Ca  1.500
AL45     7.673250289    0.180819105    3.273116254 XXX  2      ac1     Al  1.200
AL46    10.926094701    0.167554885    3.959729955 XXX  2      ac1     Al  1.200
O133     9.439919809    0.041729814    3.238185909 XXX  2      oc3     O  -0.750
O134     9.191756745    3.935434061   15.031721490 XXX  2      oc3     O  -0.750
O135    11.503975761    1.780167988    3.634848209 XXX  2      oc4     O  -1.350
O136    -1.422379531    4.512476782    3.565115529 XXX  2      oc4     O  -1.350
O137     7.002604236   -0.552214498    1.860917886 XXX  2      oc4     O  -1.350
O138     7.161271115   -0.152208303    4.897243058 XXX  2      oc4     O  -1.350
end
CA1     16.100886651   -0.120264818    0.541260745 XXX  1      ca+a    Ca  1.500
CA2     20.449363339   -1.731178909    1.827480697 XXX  1      ca+a    Ca  1.500
CA3     19.216399787    4.010374224    3.522548914 XXX  1      ca+a    Ca  1.500
CA4     21.334660618    5.879939329    5.356567060 XXX  1      ca+a    Ca  1.500
CA5     17.526872442    5.684717510    1.446657864 XXX  1      ca+a    Ca  1.500
CA6     21.297740254    5.505465147    1.296095627 XXX  1      ca+a    Ca  1.500
AL1     19.000160229   -0.003194683   -0.313750092 XXX  1      ac1     Al  1.200
AL2     19.014016017    3.423256423   -0.559176594 XXX  1      ac1     Al  1.200
O1      19.395860204    1.666360402   -0.630605423 XXX  1      oc3     O  -0.750
O2      22.507307928    2.036719340    3.416394588 XXX  1      oc3     O  -0.750
O3      19.323054387    4.066469611    1.099082550 XXX  1      oc4     O  -1.350
O4      19.020049400    6.180294309    4.163881787 XXX  1      oc4     O  -1.350
O5      20.365932330   -1.087900344   -0.341553973 XXX  1      oc4     O  -1.350
O6      17.499378308   -0.332949420   -1.192118055 XXX  1      oc4     O  -1.350
CA1     23.624299371   -0.146522277    6.519785526 XXX  2      ca+a    Ca  1.500
CA2     12.928372455   -1.584911266    5.095574726 XXX  2      ca+a    Ca  1.500
CA3     19.490579446   11.417342034   11.195047403 XXX  2      ca+a    Ca  1.500
CA4     17.663808380    9.866409066   13.024262618 XXX  2      ca+a    Ca  1.500
CA5     21.265853310    9.644972487    9.586333025 XXX  2      ca+a    Ca  1.500
CA6     17.627518560    9.742521563    8.937292503 XXX  2      ca+a    Ca  1.500
AL1     19.476562310   14.959548754    7.387885391 XXX  2      ac1     Al  1.200
AL2     19.804674023   11.570987368    7.346914508 XXX  2      ac1     Al  1.200
O1      19.251577870   13.235502573    7.400468632 XXX  2      oc3     O  -0.750
O2      31.174474277   13.417120832   11.036146182 XXX  2      oc3     O  -0.750
O3      19.526010363   10.889443383    8.934515520 XXX  2      oc4     O  -1.350
O4      19.882526273    9.147651459   11.571508799 XXX  2      oc4     O  -1.350
O5      17.946705337   15.519488038    6.707311748 XXX  2      oc4     O  -1.350
O6      21.021952904   15.231169567    6.688738179 XXX  2      oc4     O  -1.350
CA7     15.444874862    7.808936970    7.139443160 XXX  2      ca+a    Ca  1.500
CA8     23.293498552    7.810044301    7.122328063 XXX  2      ca+a    Ca  1.500
CA9     26.854677970   11.744638538    3.339935782 XXX  2      ca+a    Ca  1.500
CA10    24.997150526   13.560126277    1.358663520 XXX  2      ca+a    Ca  1.500
CA11    28.909932820   13.475238701    5.374860087 XXX  2      ca+a    Ca  1.500
CA12    25.082661530   13.349341239    5.718387764 XXX  2      ca+a    Ca  1.500
AL3     27.012677082    7.830378588    7.019732532 XXX  2      ac1     Al  1.200
AL4     27.363485388   11.225560643    7.403633319 XXX  2      ac1     Al  1.200
O7      27.331071723    9.457510367    7.525639618 XXX  2      oc3     O  -0.750
O8      23.473539149    9.429214950    3.372925989 XXX  2      oc3     O  -0.750
O9      26.711340585   11.624052924    5.788297763 XXX  2      oc4     O  -1.350
O10     27.083299058   -1.058030796    3.314409567 XXX  2      oc4     O  -1.350
O11     25.468432166    7.377818780    7.809774155 XXX  2      oc4     O  -1.350
O12     28.510313848    6.972769215    7.327841671 XXX  2      oc4     O  -1.350
CA13    22.976861798    7.807098667   -0.133178064 XXX  2      ca+a    Ca  1.500
CA14    15.348212911    7.937861081   -0.307125823 XXX  2      ca+a    Ca  1.500
CA15    26.956475140    3.855741485   11.219396175 XXX  2      ca+a    Ca  1.500
CA16    29.644220491    0.154198619    7.517204003 XXX  2      ca+a    Ca  1.500
CA17    25.122291651    1.651944613   12.870540513 XXX  2      ca+a    Ca  1.500
CA18    28.847288289    2.767504023   13.686414297 XXX  2      ca+a    Ca  1.500
AL5     26.979725026    7.212381809   14.929846251 XXX  2      ac1     Al  1.200
AL6     26.436945314    3.754434892   14.976449148 XXX  2      ac1     Al  1.200
O13     27.152554998    5.383502556   15.087535004 XXX  2      oc3     O  -0.750
O14     15.795332443    5.449390480   11.540518880 XXX  2      oc3     O  -0.750
O15     26.741404517    3.147783920   13.326701659 XXX  2      oc4     O  -1.350
O16     26.668369203   16.781962554   10.751455914 XXX  2      oc4     O  -1.350
O17     28.492854420    7.784517184   15.607718789 XXX  2      oc4     O  -1.350
O18     25.387712942    7.580547326   15.598671188 XXX  2      oc4     O  -1.350
CA19    17.352774631    2.326557282    5.259837799 XXX  2      ca+a    Ca  1.500
CA20    17.204368702    5.991072859    5.245685333 XXX  2      ca+a    Ca  1.500
AL7     15.731608834    3.446247736   -0.093140974 XXX  2      ac1     Al  1.200
AL8     15.347831303    3.568091687    3.311477661 XXX  2      ac1     Al  1.200
O19     15.403452286    3.796792539    1.572286230 XXX  2      oc3     O  -0.750
O20     19.300120679    7.361410366    1.693034720 XXX  2      oc3     O  -0.750
O21     16.917380031    4.065209688    4.040340246 XXX  2      oc4     O  -1.350
O22     19.421197750    3.023736691    6.093292471 XXX  2      oc4     O  -1.350
O23     14.701880723    4.552161741   -0.906516972 XXX  2      oc4     O  -1.350
O24     15.362876651    1.765299951   -0.402979850 XXX  2      oc4     O  -1.350
CA21    25.510588293    5.784342964    9.273430217 XXX  2      ca+a    Ca  1.500
CA22    24.374708102    1.601782180    9.211459251 XXX  2      ca+a    Ca  1.500
AL9     23.218310750    3.091280054   14.647336098 XXX  2      ac1     Al  1.200
AL10    23.178774758    3.680920569   11.274558478 XXX  2      ac1     Al  1.200
O25     22.800280168    3.445213369   12.989815149 XXX  2      oc3     O  -0.750
O26     27.205317289   15.597781501   13.200444066 XXX  2      oc3     O  -0.750
O27     24.736611729    2.801586910   11.044007481 XXX  2      oc4     O  -1.350
O28     27.239423229    4.261254103    8.947822697 XXX  2      oc4     O  -1.350
O29     23.720560554    1.430939436   14.701342150 XXX  2      oc4     O  -1.350
O30     22.049206463    3.704679944   15.759030725 XXX  2      oc4     O  -1.350
CA23    21.154441738   13.275044019   13.027654389 XXX  2      ca+a    Ca  1.500
CA24    21.651701189    9.415206752   13.011662746 XXX  2      ca+a    Ca  1.500
AL11    23.181022026   11.342666724    7.605180682 XXX  2      ac1     Al  1.200
AL12    23.293036958   11.500852708   11.031753097 XXX  2      ac1     Al  1.200
O31     23.271568170   11.038447956    9.324731384 XXX  2      oc3     O  -0.750
O32     19.438697496    7.874203867    9.101863554 XXX  2      oc3     O  -0.750
O33     21.747488074   11.137619394   11.562635160 XXX  2      oc4     O  -1.350
O34     18.961295664   11.780504129   -1.885371847 XXX  2      oc4     O  -1.350
O35     23.876029765    9.871828215    6.875443185 XXX  2      oc4     O  -1.350
O36     23.845186547   12.932760996    7.371131087 XXX  2      oc4     O  -1.350
CA25    28.430116794    9.740255760    1.760913220 XXX  2      ca+a    Ca  1.500
CA26    29.126815365   13.513562905    1.717074010 XXX  2      ca+a    Ca  1.500
AL13    30.658825283   11.563626573    7.123323887 XXX  2      ac1     Al  1.200
AL14    30.854621067   11.197019951    3.765700289 XXX  2      ac1     Al  1.200
O37     30.941958386   11.774978529    5.425505501 XXX  2      oc3     O  -0.750
O38     25.963373600   -0.100252189    5.614198580 XXX  2      oc3     O  -0.750
O39     29.213405995   11.531081057    3.114541189 XXX  2      oc4     O  -1.350
O40     26.680906045   10.910088994   16.349253901 XXX  2      oc4     O  -1.350
O41     31.549360448   12.898004459    7.794331564 XXX  2      oc4     O  -1.350
O42     31.005093423    9.887936223    7.477626655 XXX  2      oc4     O  -1.350
CA27    20.745478090    2.268008480    1.756567799 XXX  2      ca+a    Ca  1.500
CA28    20.584297509    1.237074469    5.230708807 XXX  2      ca+a    Ca  1.500
AL15    15.384404364    0.211683011    3.816971789 XXX  2      ac1     Al  1.200
AL16    18.688915526    0.200882368    3.109343811 XXX  2      ac1     Al  1.200
O43     17.115755491    0.143120990    3.905437190 XXX  2      oc3     O  -0.750
O44     17.085058341    3.891923098    7.334054849 XXX  2      oc3     O  -0.750
O45     19.307257402    1.781675515    3.402975600 XXX  2      oc4     O  -1.350
O46     21.355548813    4.562035960    3.476670230 XXX  2      oc4     O  -1.350
O47     14.736710537   -0.466047628    5.260348837 XXX  2      oc4     O  -1.350
O48     14.892733755   -0.190572550    2.245473259 XXX  2      oc4     O  -1.350
CA29    25.366341112   10.046533822    5.188069173 XXX  2      ca+a    Ca  1.500
CA30    25.046870908    9.413642609    1.376394418 XXX  2      ca+a    Ca  1.500
AL17    30.408294274    7.782659561    3.531919647 XXX  2      ac1     Al  1.200
AL18    27.049252508    7.627357235    3.734119458 XXX  2      ac1     Al  1.200
O49     28.678201294    7.678103802    3.311841456 XXX  2      oc3     O  -0.750
O50     29.169186132   11.433643464   15.340223115 XXX  2      oc3     O  -0.750
O51     26.404634274    9.161299553    3.198030470 XXX  2      oc4     O  -1.350
O52     24.686342940   11.906035600    3.956986124 XXX  2      oc4     O  -1.350
O53     31.018754921    7.118313885    2.022825221 XXX  2      oc4     O  -1.350
O54     30.654466844    7.010952765    5.078225115 XXX  2      oc4     O  -1.350
CA31    29.006357093    5.862759244   12.836918322 XXX  2      ca+a    Ca  1.500
CA32    28.797994048    5.839761718    9.195572188 XXX  2      ca+a    Ca  1.500
AL19    23.401196424    7.239568081   11.110748439 XXX  2      ac1     Al  1.200
AL20    26.752354358    7.690416855   11.535252741 XXX  2      ac1     Al  1.200
O55     25.043841652    7.847004241   11.037830107 XXX  2      oc3     O  -0.750
O56     24.871171144    3.740285371    7.721041767 XXX  2      oc3     O  -0.750
O57     27.336717398    6.017839286   11.152963395 XXX  2      oc4     O  -1.350
O58     13.757223713    3.582065669   11.836540439 XXX  2      oc4     O  -1.350
O59     22.541352944    7.735917071    9.728232409 XXX  2      oc4     O  -1.350
O60     22.787504028    7.358128306   12.774468417 XXX  2      oc4     O  -1.350
CA33    17.627299697   13.671965863    9.314701079 XXX  2      ca+a    Ca  1.500
CA34    17.517405742   13.766009284   13.069391644 XXX  2      ca+a    Ca  1.500
AL21    23.163615754   14.838027684   11.228850771 XXX  2      ac1     Al  1.200
AL22    19.839307304   15.290587631   10.758942096 XXX  2      ac1     Al  1.200
O61     21.455030280   15.187671795   11.428401610 XXX  2      oc3     O  -0.750
O62     21.343274674   11.493429127   -0.623854985 XXX  2      oc3     O  -0.750
O63     19.049958556   13.719246219   11.189081783 XXX  2      oc4     O  -1.350
O64     32.388545244   10.863790999   10.815301907 XXX  2      oc4     O  -1.350
O65     23.945424548   15.438961736   12.662278294 XXX  2      oc4     O  -1.350
O66     23.591321525   15.387554092    9.663007830 XXX  2      oc4     O  -1.350
CA35    27.090078719   11.504095302   11.177609402 XXX  2      ca+a    Ca  1.500
CA36    25.455150445    9.773592994    9.480242340 XXX  2      ca+a    Ca  1.500
CA37    29.016567692    9.627546518   12.737458168 XXX  2      ca+a    Ca  1.500
CA38    25.283249540    9.876366249   13.505640544 XXX  2      ca+a    Ca  1.500
AL23    27.177231675   15.037282598   14.854558778 XXX  2      ac1     Al  1.200
AL24    27.447544508   11.605003475   15.005468124 XXX  2      ac1     Al  1.200
O67     26.944240268   13.324645981   14.941049507 XXX  2      oc3     O  -0.750
O68     23.608524116   13.187574557   11.297293324 XXX  2      oc3     O  -0.750
O69     27.137190396   10.850555193   13.465809532 XXX  2      oc4     O  -1.350
O70     27.458488764    9.175104971   10.868268163 XXX  2      oc4     O  -1.350
O71     25.656184479   15.588737652   15.534371090 XXX  2      oc4     O  -1.350
O72     28.691674694   15.307081385   15.573626919 XXX  2      oc4     O  -1.350
CA39    27.023828823    3.979908548    3.137639048 XXX  2      ca+a    Ca  1.500
CA40    29.097601039    5.937699740    1.596536071 XXX  2      ca+a    Ca  1.500
CA41    25.161536133    5.482716942    4.986100578 XXX  2      ca+a    Ca  1.500
CA42    28.843414751    5.364383060    5.568843849 XXX  2      ca+a    Ca  1.500
AL25    26.509829939    0.044492272    7.300894268 XXX  2      ac1     Al  1.200
AL26    26.602840166    3.464630082    7.552342818 XXX  2      ac1     Al  1.200
O73     26.997669549    1.716441125    7.548495472 XXX  2      oc3     O  -0.750
O74     15.026213579    1.934283232    3.891097600 XXX  2      oc3     O  -0.750
O75     26.852012286    4.100513590    5.887457104 XXX  2      oc4     O  -1.350
O76     26.389929306    6.084082632    3.098860467 XXX  2      oc4     O  -1.350
O77     27.892952343   -1.056600112    7.317648992 XXX  2      oc4     O  -1.350
O78     25.031984729   -0.262186252    8.257769277 XXX  2      oc4     O  -1.350
CA43    19.779064951    3.828682697   11.199631075 XXX  2      ca+a    Ca  1.500
CA44    22.213052340   -0.115551528   15.045702237 XXX  2      ca+a    Ca  1.500
CA45    17.422181870    1.919312048    9.583212380 XXX  2      ca+a    Ca  1.500
CA46    21.082892284    2.631038291    8.549231740 XXX  2      ca+a    Ca  1.500
AL27    19.385087847    7.303859529    7.399861565 XXX  2      ac1     Al  1.200
AL28    18.813541155    3.937805060    7.457384060 XXX  2      ac1     Al  1.200
O79     19.468440520    5.495985496    7.365069186 XXX  2      oc3     O  -0.750
O80     23.471687569    5.439411793   10.835985401 XXX  2      oc3     O  -0.750
O81     19.097601769    3.270938400    9.059374935 XXX  2      oc4     O  -1.350
O82     19.158024936   16.684463860   11.547582198 XXX  2      oc4     O  -1.350
O83     20.964301913    7.729192521    6.765193180 XXX  2      oc4     O  -1.350
O84     17.760561783    7.795013779    6.854919164 XXX  2      oc4     O  -1.350
CA47    19.242781209   11.774374285    3.620690619 XXX  2      ca+a    Ca  1.500
CA48    17.382067591   13.687730423    5.647741631 XXX  2      ca+a    Ca  1.500
CA49    21.274421853   13.565455451    1.749836673 XXX  2      ca+a    Ca  1.500
CA50    17.472116222   13.401452478    1.250971120 XXX  2      ca+a    Ca  1.500
AL29    19.254496297    7.723995765   -0.005592256 XXX  2      ac1     Al  1.200
AL30    19.618422516   11.205462583   -0.391237725 XXX  2      ac1     Al  1.200
O85     19.121844235    9.513373736   -0.413675044 XXX  2      oc3     O  -0.750
O86     31.022039722    9.488135432    3.649182043 XXX  2      oc3     O  -0.750
O87     19.212408353   11.840389595    1.227458593 XXX  2      oc4     O  -1.350
O88     19.609212249   -0.988018935    3.723699801 XXX  2      oc4     O  -1.350
O89     17.795050722    7.023120551   -0.435069758 XXX  2      oc4     O  -1.350
O90     20.763245255    7.046659016   -0.490064671 XXX  2      oc4     O  -1.350
CA51    28.653967683   13.362072081    9.379741280 XXX  2      ca+a    Ca  1.500
CA52    29.205456125    9.623097309    9.229336547 XXX  2      ca+a    Ca  1.500
AL31    30.789320663   11.472678652   14.786024304 XXX  2      ac1     Al  1.200
AL32    30.960913597   11.716293737   11.381181942 XXX  2      ac1     Al  1.200
O91     30.836416003   11.265029385   13.060213656 XXX  2      oc3     O  -0.750
O92     27.007644202    7.824251617   13.285444404 XXX  2      oc3     O  -0.750
O93     29.396563360   11.360809580   10.712809796 XXX  2      oc4     O  -1.350
O94     26.633551112   11.693579652    8.936769940 XXX  2      oc4     O  -1.350
O95     31.487683554    9.964152792   15.234550296 XXX  2      oc4     O  -1.350
O96     31.425933962   13.086874968   14.937625457 XXX  2      oc4     O  -1.350
CA53    21.132888843    9.666790776    5.291675626 XXX  2      ca+a    Ca  1.500
CA54    21.665539096   13.493113598    5.318064328 XXX  2      ca+a    Ca  1.500
AL33    23.026889583   11.513761919   -0.074059788 XXX  2      ac1     Al  1.200
AL34    23.243651377   11.234538543    3.263179768 XXX  2      ac1     Al  1.200
O97     23.235807309   11.807347633    1.616704347 XXX  2      oc3     O  -0.750
O98     18.517629265   -0.041570879    1.337661373 XXX  2      oc3     O  -0.750
O99     21.623552564   11.536400102    3.911588583 XXX  2      oc4     O  -1.350
O100    19.163487677   10.852708842    5.897881573 XXX  2      oc4     O  -1.350
O101    23.754020873   12.882595867   -0.737164805 XXX  2      oc4     O  -1.350
O102    23.537891068    9.945783635   -0.332837856 XXX  2      oc4     O  -1.350
CA55    24.937653033    2.217344306    1.871975194 XXX  2      ca+a    Ca  1.500
CA56    24.778927897    5.922681646    1.763926961 XXX  2      ca+a    Ca  1.500
AL35    23.203334339    3.558283544    7.108872452 XXX  2      ac1     Al  1.200
AL36    22.844436456    3.679212187    3.788985426 XXX  2      ac1     Al  1.200
O103    23.079936056    3.977966555    5.441645540 XXX  2      oc3     O  -0.750
O104    26.720997571    7.541140078    5.342968995 XXX  2      oc3     O  -0.750
O105    24.332019837    4.109634645    2.996194138 XXX  2      oc4     O  -1.350
O106    26.921077870    2.788771137   16.346462007 XXX  2      oc4     O  -1.350
O107    22.177124988    4.658028980    7.922661377 XXX  2      oc4     O  -1.350
O108    22.818329053    1.842817854    7.384679151 XXX  2      oc4     O  -1.350
CA57    17.854992127    5.685077685   13.007874296 XXX  2      ca+a    Ca  1.500
CA58    16.974485280    1.761659858   13.250143483 XXX  2      ca+a    Ca  1.500
AL37    15.585313921    3.172320837    7.694239175 XXX  2      ac1     Al  1.200
AL38    15.344933647    3.831196166   11.106522380 XXX  2      ac1     Al  1.200
O109    15.025031968    3.605552112    9.375053821 XXX  2      oc3     O  -0.750
O110    19.609523742   15.557060274    9.033201388 XXX  2      oc3     O  -0.750
O111    16.850242870    2.902265329   11.461700314 XXX  2      oc4     O  -1.350
O112    19.394714432    4.176325527   -2.072427270 XXX  2      oc4     O  -1.350
O113    16.196621333    1.482933175    7.849917818 XXX  2      oc4     O  -1.350
O114    14.509795451    3.754797391    6.483391555 XXX  2      oc4     O  -1.350
CA59    25.229796325   13.612219040   13.018406666 XXX  2      ca+a    Ca  1.500
CA60    25.132113966   13.627997957    9.216893296 XXX  2      ca+a    Ca  1.500
AL39    30.773664899   15.135190095   10.985262763 XXX  2      ac1     Al  1.200
AL40    27.355931830   15.356927334   11.416385178 XXX  2      ac1     Al  1.200
O115    29.057720860   15.425191651   10.869254510 XXX  2      oc3     O  -0.750
O116    28.970686119   11.763850895    7.456979561 XXX  2      oc3     O  -0.750
O117    26.762258653   13.703369644   10.937307784 XXX  2      oc4     O  -1.350
O118    24.714866129   10.723923396   11.535800255 XXX  2      oc4     O  -1.350
O119    31.538718650   15.697976990    9.493869262 XXX  2      oc4     O  -1.350
O120    31.327898112   15.679316926   12.566083070 XXX  2      oc4     O  -1.350
CA61    21.206597867    5.985662251    9.396642034 XXX  2      ca+a    Ca  1.500
CA62    21.202402677    5.901866872   13.204742028 XXX  2      ca+a    Ca  1.500
AL41    15.855027856    7.205931810   11.257332857 XXX  2      ac1     Al  1.200
AL42    19.212649714    7.666841426   10.842322053 XXX  2      ac1     Al  1.200
O121    17.508363115    7.720723221   11.313854673 XXX  2      oc3     O  -0.750
O122    17.328773818    3.665601122   -0.632669874 XXX  2      oc3     O  -0.750
O123    19.878614625    6.082843539   11.254450139 XXX  2      oc4     O  -1.350
O124    21.710578718    3.149222619   10.460837956 XXX  2      oc4     O  -1.350
O125    14.968250827    7.873863002   12.659762028 XXX  2      oc4     O  -1.350
O126    15.125838889    7.465213922    9.631729340 XXX  2      oc4     O  -1.350
CA63    17.630040434   10.076107443    1.590792355 XXX  2      ca+a    Ca  1.500
CA64    17.560963175    9.481275135    5.423675133 XXX  2      ca+a    Ca  1.500
AL43    22.841650853    7.798088317    3.488342153 XXX  2      ac1     Al  1.200
AL44    19.480201987    7.676636322    3.404952742 XXX  2      ac1     Al  1.200
O127    21.105982705    7.854486724    3.848275323 XXX  2      oc3     O  -0.750
O128    21.539641369   11.444349448    7.073701419 XXX  2      oc3     O  -0.750
O129    18.613030339    9.210956903    3.602658704 XXX  2      oc4     O  -1.350
O130    32.328435813   11.795665320    3.020166433 XXX  2      oc4     O  -1.350
O131    23.401891696    7.060819290    4.952652285 XXX  2      oc4     O  -1.350
O132    22.917492514    6.971973887    1.894438739 XXX  2      oc4     O  -1.350
CA65    28.287693805    2.236774535    5.296350012 XXX  2      ca+a    Ca  1.500
CA66    28.074543695    0.794905104    1.953022837 XXX  2      ca+a    Ca  1.500
AL45    22.773020652    0.319297182    3.265973259 XXX  2      ac1     Al  1.200
AL46    26.035598377    0.165407896    3.898598397 XXX  2      ac1     Al  1.200
O133    24.476561387    0.034534148    3.104801080 XXX  2      oc3     O  -0.750
O134    24.749631705    3.684936736   15.080852214 XXX  2      oc3     O  -0.750
O135    26.616836536    1.809493366    3.626840150 XXX  2      oc4     O  -1.350
O136    13.796900335    4.328367990    3.593329745 XXX  2      oc4     O  -1.350
O137    22.012999430   -0.124653371    1.780237488 XXX  2      oc4     O  -1.350
O138    22.326544103   -0.191720876    4.900885039 XXX  2      oc4     O  -1.350
end
CA1      0.337807278   15.263110686   -0.187613307 XXX  1      ca+a    Ca  1.500
CA2     10.253213320   17.533705458    1.626079202 XXX  1      ca+a    Ca  1.500
CA3      4.451867727   19.411822099    3.666009213 XXX  1      ca+a    Ca  1.500
CA4      6.379636132   21.545074586    5.922183301 XXX  1      ca+a    Ca  1.500
CA5      2.444621938   20.925536185    2.046491932 XXX  1      ca+a    Ca  1.500
CA6      6.110091774   21.141935219    1.506898395 XXX  1      ca+a    Ca  1.500
AL1      4.206803581   15.548535675   -0.042882761 XXX  1      ac1     Al  1.200
AL2      3.934374464   18.860702251   -0.274485827 XXX  1      ac1     Al  1.200
O1       4.549740020   17.215961044   -0.370111138 XXX  1      oc3     O  -0.750
O2       7.803060821   17.243872065    3.450022759 XXX  1      oc3     O  -0.750
O3       4.337568403   19.551620855    1.258012916 XXX  1      oc4     O  -1.350
O4       3.839610350   21.493401436    4.057306989 XXX  1      oc4     O  -1.350
O5       5.627305518   14.708004982   -0.612698726 XXX  1      oc4     O  -1.350
O6       2.553749849   15.251027489   -0.489698530 XXX  1      oc4     O  -1.350
CA1      8.097495433   15.530070433    7.401997096 XXX  2      ca+a    Ca  1.500
CA2      0.198316447   15.647038379    7.323040659 XXX  2      ca+a    Ca  1.500
CA3      3.958380134   26.650937615   11.366087809 XXX  2      ca+a    Ca  1.500
CA4      2.250243082   25.058121940   13.021992931 XXX  2      ca+a    Ca  1.500
CA5      5.976594917   25.046864228    9.626954056 XXX  2      ca+a    Ca  1.500
CA6      2.145401176   24.860146010    9.137779851 XXX  2      ca+a    Ca  1.500
AL1      3.616902772   30.420657173    7.463872500 XXX  2      ac1     Al  1.200
AL2      4.412062933   27.077834943    7.357632460 XXX  2      ac1     Al  1.200
O1       3.613538345   28.619981285    7.431606851 XXX  2      oc3     O  -0.750
O2      15.921726609   28.677819971   10.794642858 XXX  2      oc3     O  -0.750
O3       3.985643011   26.263559751    8.820858239 XXX  2      oc4     O  -1.350
O4       4.469282059   24.511460612   11.778008036 XXX  2      oc4     O  -1.350
O5       2.116761532   30.694247121    6.556076518 XXX  2      oc4     O  -1.350
O6       5.188298359   30.843432457    6.786705293 XXX  2      oc4     O  -1.350
CA7      0.275160220   23.054322922    7.324635990 XXX  2      ca+a    Ca  1.500
CA8      8.447183802   23.420839417    7.442713679 XXX  2      ca+a    Ca  1.500
CA9     11.811224848   27.162854655    3.344836107 XXX  2      ca+a    Ca  1.500
CA10     8.133461400   30.256852159   -0.232805672 XXX  2      ca+a    Ca  1.500
CA11    17.405846399   32.287120923   11.042015262 XXX  2      ca+a    Ca  1.500
CA12     9.695445936   28.741025982    5.515830559 XXX  2      ca+a    Ca  1.500
AL3     11.814433446   23.508115677    7.245026476 XXX  2      ac1     Al  1.200
AL4     11.854430528   26.909272333    7.339422176 XXX  2      ac1     Al  1.200
O7      11.466817780   25.196715055    7.559788481 XXX  2      oc3     O  -0.750
O8       8.276045469   24.932463404    3.492612989 XXX  2      oc3     O  -0.750
O9      11.330936715   27.345107512    5.732914783 XXX  2      oc4     O  -1.350
O10     12.552817281   14.063907610    3.204091703 XXX  2      oc4     O  -1.350
O11     10.450530528   22.549211097    7.739428703 XXX  2      oc4     O  -1.350
O12     13.378982235   23.081319847    7.912638876 XXX  2      oc4     O  -1.350
CA13     7.910845994   22.985780119   -0.166370891 XXX  2      ca+a    Ca  1.500
CA14     0.501706812   23.214414738   -0.193694757 XXX  2      ca+a    Ca  1.500
CA15    11.868160678   19.389773415   11.194424491 XXX  2      ca+a    Ca  1.500
CA16    13.517599263   17.634981003    9.499903647 XXX  2      ca+a    Ca  1.500
CA17    10.145118145   17.368686506   12.546745355 XXX  2      ca+a    Ca  1.500
CA18    13.799926667   17.755948572   13.384700457 XXX  2      ca+a    Ca  1.500
AL5     11.779843534   22.873776677   14.732843400 XXX  2      ac1     Al  1.200
AL6     11.589187138   19.440060454   14.998350698 XXX  2      ac1     Al  1.200
O13     12.053511794   21.148546672   14.854606457 XXX  2      oc3     O  -0.750
O14      0.135559930   21.003856117   11.156924787 XXX  2      oc3     O  -0.750
O15     11.750923712   18.684752328   13.364770894 XXX  2      oc4     O  -1.350
O16     10.931858925   30.845931980   10.612348043 XXX  2      oc4     O  -1.350
O17     13.330546885   23.299680553   15.408396823 XXX  2      oc4     O  -1.350
O18     10.251349895   23.102247641   15.489809633 XXX  2      oc4     O  -1.350
CA19     2.708897257   17.553402640    5.335134540 XXX  2      ca+a    Ca  1.500
CA20     2.111624325   21.338418839    5.360443942 XXX  2      ca+a    Ca  1.500
AL7      0.502935146   19.122889117    0.041782504 XXX  2      ac1     Al  1.200
AL8      0.382251711   18.934178570    3.420370950 XXX  2      ac1     Al  1.200
O19      0.369239837   19.421747606    1.757534693 XXX  2      oc3     O  -0.750
O20      4.237966172   22.722924732    1.687779061 XXX  2      oc3     O  -0.750
O21      2.020339648   19.233759486    3.974025549 XXX  2      oc4     O  -1.350
O22      4.711476934   18.773305341    6.054967763 XXX  2      oc4     O  -1.350
O23     -0.040634289   20.559523499   -0.712985291 XXX  2      oc4     O  -1.350
O24     -0.200155297   17.565802156   -0.203936426 XXX  2      oc4     O  -1.350
CA21    10.169207161   21.014227126    9.156884510 XXX  2      ca+a    Ca  1.500
CA22     9.724464820   17.217014779    9.140896113 XXX  2      ca+a    Ca  1.500
AL9      8.162225847   19.115039897   14.745019292 XXX  2      ac1     Al  1.200
AL10     8.135249639   19.307320521   11.303166443 XXX  2      ac1     Al  1.200
O25      8.273919064   18.807384036   12.961579785 XXX  2      oc3     O  -0.750
O26     11.771167482   30.786691523   13.312958737 XXX  2      oc3     O  -0.750
O27      9.668932986   18.903520970   10.635012393 XXX  2      oc4     O  -1.350
O28     12.265743000   19.651531317    8.897029988 XXX  2      oc4     O  -1.350
O29      7.435451094   17.678364913   15.370924982 XXX  2      oc4     O  -1.350
O30      7.549793040   20.757092543   14.906014486 XXX  2      oc4     O  -1.350
CA23     5.825732390   28.605297236   12.729779814 XXX  2      ca+a    Ca  1.500
CA24     6.257537728   24.837899122   13.154966831 XXX  2      ca+a    Ca  1.500
AL11     7.861655463   27.040324308    7.671207605 XXX  2      ac1     Al  1.200
AL12     7.840868145   27.114836367   11.040903424 XXX  2      ac1     Al  1.200
O31      8.028264983   26.736561096    9.391247720 XXX  2      oc3     O  -0.750
O32      4.102014480   23.410004789    9.276100138 XXX  2      oc3     O  -0.750
O33      6.294497943   26.584975671   11.518466767 XXX  2      oc4     O  -1.350
O34      3.678617001   27.351291334   -1.833477015 XXX  2      oc4     O  -1.350
O35      8.494981322   25.589886300    6.929105715 XXX  2      oc4     O  -1.350
O36      8.492073103   28.613703068    7.337231614 XXX  2      oc4     O  -1.350
CA25    13.412520412   25.161287328    1.724323183 XXX  2      ca+a    Ca  1.500
CA26    14.543660948   30.367278467   -0.867152163 XXX  2      ca+a    Ca  1.500
AL13    15.249647286   26.993089504    7.084024106 XXX  2      ac1     Al  1.200
AL14    15.602913240   26.718921890    3.697281748 XXX  2      ac1     Al  1.200
O37     15.578602638   27.199532059    5.394573023 XXX  2      oc3     O  -0.750
O38     11.824647790   15.202540974    5.478340478 XXX  2      oc3     O  -0.750
O39     14.050836261   26.971518215    2.970224279 XXX  2      oc4     O  -1.350
O40     11.800611792   26.397365202   16.783296242 XXX  2      oc4     O  -1.350
O41     16.140789298   28.357310904    7.699519023 XXX  2      oc4     O  -1.350
O42     15.749037154   25.406261307    7.535921832 XXX  2      oc4     O  -1.350
CA27     6.027687263   17.797155870    1.750046106 XXX  2      ca+a    Ca  1.500
CA28     6.222739019   17.208556884    5.664583826 XXX  2      ca+a    Ca  1.500
AL15     0.664012877   15.520947976    3.677443833 XXX  2      ac1     Al  1.200
AL16     4.032124968   15.421066272    3.441432827 XXX  2      ac1     Al  1.200
O43      2.371414279   15.582210261    3.908836190 XXX  2      oc3     O  -0.750
O44      2.262638067   19.242987156    7.115332848 XXX  2      oc3     O  -0.750
O45      4.779555262   16.956170650    3.788786722 XXX  2      oc4     O  -1.350
O46      6.565417229   19.602588862    3.112775832 XXX  2      oc4     O  -1.350
O47      0.065897988   14.819541971    5.204915171 XXX  2      oc4     O  -1.350
O48      0.442465252   14.711058432    2.130139311 XXX  2      oc4     O  -1.350
CA29     9.934871189   25.610041598    5.201096947 XXX  2      ca+a    Ca  1.500
CA30     9.876296286   24.787013852    1.583669768 XXX  2      ca+a    Ca  1.500
AL17    15.380149822   23.360763313    3.480391724 XXX  2      ac1     Al  1.200
AL18    11.962013643   23.240910245    3.813534932 XXX  2      ac1     Al  1.200
O49     13.618325676   23.235692789    3.206392592 XXX  2      oc3     O  -0.750
O50     13.423106893   26.919786902   14.560356346 XXX  2      oc3     O  -0.750
O51     11.235913436   24.755231814    3.519641788 XXX  2      oc4     O  -1.350
O52      9.470522701   27.398175868    3.952106937 XXX  2      oc4     O  -1.350
O53     15.983024927   22.734586245    1.953797126 XXX  2      oc4     O  -1.350
O54     15.646670782   22.594555543    5.029660759 XXX  2      oc4     O  -1.350
CA31    13.920162059   21.715568378   13.016489743 XXX  2      ca+a    Ca  1.500
CA32    13.709347590   21.400739112    9.216853904 XXX  2      ca+a    Ca  1.500
AL19     8.290352297   22.774164343   11.055862366 XXX  2      ac1     Al  1.200
AL20    11.639746892   23.157674100   11.356068857 XXX  2      ac1     Al  1.200
O55      9.969797672   22.928606982   10.792641319 XXX  2      oc3     O  -0.750
O56      9.940357196   19.287978805    7.613661032 XXX  2      oc3     O  -0.750
O57     12.447946442   21.587345208   11.104357598 XXX  2      oc4     O  -1.350
O58     -1.108760752   18.592615659   11.502068391 XXX  2      oc4     O  -1.350
O59      7.424060574   23.341292576    9.604700966 XXX  2      oc4     O  -1.350
O60      7.925296724   23.384221390   12.663497693 XXX  2      oc4     O  -1.350
CA33     2.481276565   28.136820932    9.425262548 XXX  2      ca+a    Ca  1.500
CA34    -0.608379372   30.241868429   14.574420335 XXX  2      ca+a    Ca  1.500
AL21     7.547505822   30.562372602   11.211456248 XXX  2      ac1     Al  1.200
AL22     4.070934649   30.471528393   10.892672254 XXX  2      ac1     Al  1.200
O61      5.765492080   30.854336327   11.281761463 XXX  2      oc3     O  -0.750
O62      5.872649555   26.863359639   -0.526464305 XXX  2      oc3     O  -0.750
O63      3.968305591   28.750302204   11.083636377 XXX  2      oc4     O  -1.350
O64     17.242039733   26.199463557   10.644316247 XXX  2      oc4     O  -1.350
O65      8.217275695   31.303418487   12.654251350 XXX  2      oc4     O  -1.350
O66      8.106766563   30.936357939    9.553749870 XXX  2      oc4     O  -1.350
CA35    13.099424380   28.142740474    9.755644653 XXX  2      ca+a    Ca  1.500
CA36    10.283318821   25.749635958    9.657122752 XXX  2      ca+a    Ca  1.500
CA37    12.465417460   26.215385863   12.267238706 XXX  2      ca+a    Ca  1.500
CA38     9.589619351   24.956501123   13.257866589 XXX  2      ca+a    Ca  1.500
AL23    11.573140216   30.556931266   15.015363917 XXX  2      ac1     Al  1.200
AL24    11.840701573   27.102710685   15.240124394 XXX  2      ac1     Al  1.200
O67     11.332791201   28.849751265   15.387560607 XXX  2      oc3     O  -0.750
O68      8.014361893   28.893531531   11.411833943 XXX  2      oc3     O  -0.750
O69     10.933160341   26.449493280   13.991920832 XXX  2      oc4     O  -1.350
O70     12.019139364   24.665261373   10.590151457 XXX  2      oc4     O  -1.350
O71     10.200582146   31.509568452   15.426456512 XXX  2      oc4     O  -1.350
O72     13.193466698   30.738678007   15.750493877 XXX  2      oc4     O  -1.350
CA39    14.092540146   21.336470907    1.445747677 XXX  2      ca+a    Ca  1.500
CA40    15.751101776   23.302519222   -0.339212971 XXX  2      ca+a    Ca  1.500
CA41    10.272833955   21.263963948    5.313181657 XXX  2      ca+a    Ca  1.500
CA42    13.799320640   21.207936580    5.538547980 XXX  2      ca+a    Ca  1.500
AL25    11.843510131   15.780521974    7.116383061 XXX  2      ac1     Al  1.200
AL26    11.646279224   19.084612234    7.405364244 XXX  2      ac1     Al  1.200
O73     12.192447466   17.434049209    7.257832446 XXX  2      oc3     O  -0.750
O74      0.065790276   17.171955927    3.579185483 XXX  2      oc3     O  -0.750
O75     12.095247828   19.787788146    5.858171294 XXX  2      oc4     O  -1.350
O76     11.300904607   21.651637530    3.368844486 XXX  2      oc4     O  -1.350
O77     13.197183083   14.861600129    7.681056419 XXX  2      oc4     O  -1.350
O78     10.305932525   15.448652863    7.710281986 XXX  2      oc4     O  -1.350
CA43     4.328997529   19.465119089   11.136194264 XXX  2      ca+a    Ca  1.500
CA44     5.891770134   17.594983858   12.869346474 XXX  2      ca+a    Ca  1.500
CA45     2.543204331   17.461545378    9.751846955 XXX  2      ca+a    Ca  1.500
CA46     6.121397572   17.474584173    9.061515322 XXX  2      ca+a    Ca  1.500
AL27     4.150901858   22.908862823    7.581837681 XXX  2      ac1     Al  1.200
AL28     3.943403721   19.427617615    7.469719826 XXX  2      ac1     Al  1.200
O79      4.448001154   21.161387483    7.538490552 XXX  2      oc3     O  -0.750
O80      7.829990899   21.067508677   11.072568984 XXX  2      oc3     O  -0.750
O81      4.198098707   18.797897928    9.066441254 XXX  2      oc4     O  -1.350
O82      3.091737527   31.320874621   12.077512345 XXX  2      oc4     O  -1.350
O83      5.690305442   23.408852148    6.922358884 XXX  2      oc4     O  -1.350
O84      2.559128133   23.085919446    6.843545260 XXX  2      oc4     O  -1.350
CA47     4.255796044   26.924255316    3.537373550 XXX  2      ca+a    Ca  1.500
CA48     2.166949998   28.727884509    5.445738237 XXX  2      ca+a    Ca  1.500
CA49     7.237536120   30.339172093   23.271375789 XXX  2      ca+a    Ca  1.500
CA50     2.456273747   29.229436216   28.207199366 XXX  2      ca+a    Ca  1.500
AL29     4.064294953   23.304311191    0.018655786 XXX  2      ac1     Al  1.200
AL30     4.181493684   26.675707630   -0.289272351 XXX  2      ac1     Al  1.200
O85      3.741171546   24.970726532   -0.357578130 XXX  2      oc3     O  -0.750
O86     15.995757875   25.013944803    3.486992503 XXX  2      oc3     O  -0.750
O87      3.764025919   27.218538015    1.288880261 XXX  2      oc4     O  -1.350
O88      4.578478999   13.934882009    4.004318304 XXX  2      oc4     O  -1.350
O89      2.674013869   22.628365673   -0.667125611 XXX  2      oc4     O  -1.350
O90      5.544039789   23.020720440   -0.695766356 XXX  2      oc4     O  -1.350
CA51    15.852539981   30.564306972    7.678193793 XXX  2      ca+a    Ca  1.500
CA52    13.984504829   24.792221907    9.408496363 XXX  2      ca+a    Ca  1.500
AL31    15.161914305   27.027623756   14.587770819 XXX  2      ac1     Al  1.200
AL32    15.792368722   26.971922165   11.305126860 XXX  2      ac1     Al  1.200
O91     15.927962880   26.908000749   13.049450962 XXX  2      oc3     O  -0.750
O92     11.733699339   23.477163170   13.084744926 XXX  2      oc3     O  -0.750
O93     14.120941119   26.506685912   10.829044314 XXX  2      oc4     O  -1.350
O94     11.166595232   27.707793775    8.728591650 XXX  2      oc4     O  -1.350
O95     15.680715153   25.683726365   15.543327871 XXX  2      oc4     O  -1.350
O96     15.483354643   28.627606573   15.131026945 XXX  2      oc4     O  -1.350
CA53     5.858480856   25.181290729    5.565125947 XXX  2      ca+a    Ca  1.500
CA54     6.828119246   30.239219789    7.926730073 XXX  2      ca+a    Ca  1.500
AL33     7.552741219   26.871861430   -0.104197883 XXX  2      ac1     Al  1.200
AL34     7.986268341   26.677585098    3.293443553 XXX  2      ac1     Al  1.200
O97      7.842772995   27.236533432    1.623306845 XXX  2      oc3     O  -0.750
O98      4.172396228   15.195443101    1.692466307 XXX  2      oc3     O  -0.750
O99      6.419350736   26.909180189    4.074018664 XXX  2      oc4     O  -1.350
O100     3.937232660   26.365979098    5.817483703 XXX  2      oc4     O  -1.350
O101     8.039667473   28.259805172   -1.073871829 XXX  2      oc4     O  -1.350
O102     8.106054300   25.207381739   -0.398360709 XXX  2      oc4     O  -1.350
CA55    11.898313402   19.412402682    3.454113691 XXX  2      ca+a    Ca  1.500
CA56     9.675716308   21.358498112    1.825798972 XXX  2      ca+a    Ca  1.500
AL35     8.267859608   19.268959661    7.081761492 XXX  2      ac1     Al  1.200
AL36     8.071676954   19.010876973    3.684229265 XXX  2      ac1     Al  1.200
O103     8.161248685   19.539132948    5.353625240 XXX  2      oc3     O  -0.750
O104    12.036059157   23.049443097    5.588143807 XXX  2      oc3     O  -0.750
O105     9.592873965   19.303240612    2.963768884 XXX  2      oc4     O  -1.350
O106    12.327071884   18.773119869   16.415638964 XXX  2      oc4     O  -1.350
O107     7.615280054   20.725321890    7.801759551 XXX  2      oc4     O  -1.350
O108     7.617001571   17.682864554    7.472641336 XXX  2      oc4     O  -1.350
CA57     2.264398219   20.952129288   13.190245804 XXX  2      ca+a    Ca  1.500
CA58     2.271730900   17.215980021   12.990364644 XXX  2      ca+a    Ca  1.500
AL37     0.537805281   19.146714645    7.574394910 XXX  2      ac1     Al  1.200
AL38     0.352710324   19.271143461   10.929999841 XXX  2      ac1     Al  1.200
O109     0.406316929   18.785775639    9.252962988 XXX  2      oc3     O  -0.750
O110     3.520207713   30.829973152    9.214906168 XXX  2      oc3     O  -0.750
O111     1.895797214   18.892449013   11.686728341 XXX  2      oc4     O  -1.350
O112     4.528522670   19.556586824   -1.778343079 XXX  2      oc4     O  -1.350
O113    -0.134341843   17.786509492    6.749461109 XXX  2      oc4     O  -1.350
O114    -0.179882405   20.724196122    7.381824014 XXX  2      oc4     O  -1.350
CA59     9.918849210   28.106535674   13.189197210 XXX  2      ca+a    Ca  1.500
CA60     9.702622667   29.473719929    9.249334615 XXX  2      ca+a    Ca  1.500
AL39    15.327992854   30.346596163   10.998075877 XXX  2      ac1     Al  1.200
AL40    11.966742182   30.104251165   11.738145706 XXX  2      ac1     Al  1.200
O115    13.596775978   30.410744524   11.046552938 XXX  2      oc3     O  -0.750
O116    13.550526661   27.208299073    7.557893859 XXX  2      oc3     O  -0.750
O117    11.924615611   28.364574541   11.868025428 XXX  2      oc4     O  -1.350
O118     9.290371919   26.372932729   11.683957881 XXX  2      oc4     O  -1.350
O119    15.857985773   31.265590959    9.675610124 XXX  2      oc4     O  -1.350
O120    15.802421308   30.840951085   12.534092170 XXX  2      oc4     O  -1.350
CA61     6.133892928   21.382049196    9.319684560 XXX  2      ca+a    Ca  1.500
CA62     6.218015890   21.409225390   13.119469320 XXX  2      ca+a    Ca  1.500
AL41     0.743927510   22.652258301   11.209568935 XXX  2      ac1     Al  1.200
AL42     4.040206005   23.041794729   11.016545641 XXX  2      ac1     Al  1.200
O121     2.433642531   22.720978197   11.500043631 XXX  2      oc3     O  -0.750
O122     2.165402333   18.938969603   -0.513060867 XXX  2      oc3     O  -0.750
O123     4.946659467   21.564175434   11.224649740 XXX  2      oc4     O  -1.350
O124     6.609742161   18.585838268   10.882416503 XXX  2      oc4     O  -1.350
O125     0.099178212   23.225341829   12.665532377 XXX  2      oc4     O  -1.350
O126     0.411122142   23.304607111    9.633376864 XXX  2      oc4     O  -1.350
CA63     2.491298278   25.160660566    1.847299841 XXX  2      ca+a    Ca  1.500
CA64     2.253794528   24.921818597    5.602274037 XXX  2      ca+a    Ca  1.500
AL43     7.676766113   23.297223747    3.709232120 XXX  2      ac1     Al  1.200
AL44     4.362017193   22.977977390    3.430912111 XXX  2      ac1     Al  1.200
O127     5.998861651   23.200378491    3.973767176 XXX  2      oc3     O  -0.750
O128     6.135953305   27.072167282    7.196693556 XXX  2      oc3     O  -0.750
O129     3.537114426   24.472038201    3.802353622 XXX  2      oc4     O  -1.350
O130    17.038344484   27.524845629    3.176696763 XXX  2      oc4     O  -1.350
O131     8.394463757   22.753305295    5.171068269 XXX  2      oc4     O  -1.350
O132     7.864359457   22.610883326    2.089216533 XXX  2      oc4     O  -1.350
CA65    13.693989540   17.974570948    5.244615344 XXX  2      ca+a    Ca  1.500
CA66    13.681910736   17.192544585    1.574713286 XXX  2      ca+a    Ca  1.500
AL45     8.353730630   15.554405001    3.434372807 XXX  2      ac1     Al  1.200
AL46    11.760092149   15.497175880    3.736879564 XXX  2      ac1     Al  1.200
O133    10.082431023   15.409373367    3.126869559 XXX  2      oc3     O  -0.750
O134     9.837269691   19.162568838   15.328023179 XXX  2      oc3     O  -0.750
O135    12.311428853   17.122946961    3.551322580 XXX  2      oc4     O  -1.350
O136    -1.109399519   19.654919801    4.042247765 XXX  2      oc4     O  -1.350
O137     7.640356267   14.752913379    2.035386009 XXX  2      oc4     O  -1.350
O138     8.120505682   14.925173978    5.113525009 XXX  2      oc4     O  -1.350
end
CA1     15.667498070   15.498758862   -0.215702759 XXX  1      ca+a    Ca  1.500
CA2     23.212723864   15.535027325   -0.366183884 XXX  1      ca+a    Ca  1.500
CA3     19.532394095   19.549023831    3.785277989 XXX  1      ca+a    Ca  1.500
CA4     21.800406555   21.351222515    5.594898260 XXX  1      ca+a    Ca  1.500
CA5     17.646946308   21.243430846    1.909102540 XXX  1      ca+a    Ca  1.500
CA6     21.438540347   21.185562560    1.428027880 XXX  1      ca+a    Ca  1.500
AL1     19.497562446   15.633311224   -0.111279058 XXX  1      ac1     Al  1.200
AL2     19.233165226   19.084820305   -0.321699560 XXX  1      ac1     Al  1.200
O1      19.705914867   17.372762542   -0.348254102 XXX  1      oc3     O  -0.750
O2      23.064671611   17.131950827    3.364516895 XXX  1      oc3     O  -0.750
O3      19.653599515   19.684437366    1.264429083 XXX  1      oc4     O  -1.350
O4      18.804111057   21.650602442    3.788666661 XXX  1      oc4     O  -1.350
O5      20.986966998   14.778486839   -0.619699235 XXX  1      oc4     O  -1.350
O6      17.910572217   15.253574596   -0.726933599 XXX  1      oc4     O  -1.350
CA1     23.262454300   15.308479775    7.278881462 XXX  2      ca+a    Ca  1.500
CA2     15.637660526   15.539568277    7.245190736 XXX  2      ca+a    Ca  1.500
CA3     20.226774003   26.234745693   10.112098878 XXX  2      ca+a    Ca  1.500
CA4     18.075988459   25.553257568   12.607979094 XXX  2      ca+a    Ca  1.500
CA5     23.285046128   23.660165697    7.331204738 XXX  2      ca+a    Ca  1.500
CA6     17.461328069   24.879594225    8.882181698 XXX  2      ca+a    Ca  1.500
AL1     19.095758483   30.543187031    7.253894961 XXX  2      ac1     Al  1.200
AL2     19.728565693   27.135606634    6.854429114 XXX  2      ac1     Al  1.200
O1      19.564347996   28.908079904    6.729632790 XXX  2      oc3     O  -0.750
O2      31.090782953   28.770761888   11.137528763 XXX  2      oc3     O  -0.750
O3      18.849709786   26.440467757    8.184462890 XXX  2      oc4     O  -1.350
O4      19.831342264   24.610020061   11.597132645 XXX  2      oc4     O  -1.350
O5      17.594239862   30.581013078    6.359083292 XXX  2      oc4     O  -1.350
O6      20.527332511   31.474839889    7.063645184 XXX  2      oc4     O  -1.350
CA7     15.495646796   23.207165164    7.331659207 XXX  2      ca+a    Ca  1.500
CA8     25.373763246   25.359084816    5.173978239 XXX  2      ca+a    Ca  1.500
CA9     27.471223143   26.960786052    3.690055339 XXX  2      ca+a    Ca  1.500
CA10    24.922534490   28.916351665    1.572175335 XXX  2      ca+a    Ca  1.500
CA11    32.185889798   32.643803910   11.268717858 XXX  2      ca+a    Ca  1.500
CA12    25.039163960   29.190981480    9.337718097 XXX  2      ca+a    Ca  1.500
AL3     27.056941800   23.385078617    7.160199473 XXX  2      ac1     Al  1.200
AL4     27.157340321   26.758385382    7.390475955 XXX  2      ac1     Al  1.200
O7      26.758627709   25.077706667    7.501153867 XXX  2      oc3     O  -0.750
O8      23.652830553   24.973166490    3.352436304 XXX  2      oc3     O  -0.750
O9      26.663879080   27.099721962    5.788571910 XXX  2      oc4     O  -1.350
O10     27.599814557   13.871480533    3.184296026 XXX  2      oc4     O  -1.350
O11     25.543280097   22.441119495    7.405173529 XXX  2      oc4     O  -1.350
O12     28.587420313   23.026877580    7.945423643 XXX  2      oc4     O  -1.350
CA13    23.164620398   23.131468967   -0.198225609 XXX  2      ca+a    Ca  1.500
CA14    17.668054252   25.286625197   -2.329081884 XXX  2      ca+a    Ca  1.500
CA15    26.950936036   19.361553344   11.129897353 XXX  2      ca+a    Ca  1.500
CA16    28.662815883   17.616235900    9.556722156 XXX  2      ca+a    Ca  1.500
CA17    25.217370062   17.354361709   12.656482286 XXX  2      ca+a    Ca  1.500
CA18    29.038274579   17.705694930   13.452673420 XXX  2      ca+a    Ca  1.500
AL5     27.288213249   22.737090291   14.836987999 XXX  2      ac1     Al  1.200
AL6     26.681638638   19.360719077   15.032967364 XXX  2      ac1     Al  1.200
O13     27.350750381   20.990418469   14.968719794 XXX  2      oc3     O  -0.750
O14     15.456446788   21.050322960   11.140135025 XXX  2      oc3     O  -0.750
O15     26.878712097   18.589101162   13.437491292 XXX  2      oc4     O  -1.350
O16     26.621546789   32.268629738   10.825904562 XXX  2      oc4     O  -1.350
O17     28.769762941   23.119090727   15.647315982 XXX  2      oc4     O  -1.350
O18     25.699081765   23.142820522   15.449815651 XXX  2      oc4     O  -1.350
CA19    17.814340702   17.452717713    5.345151025 XXX  2      ca+a    Ca  1.500
CA20    17.347526121   21.319296461    5.536313135 XXX  2      ca+a    Ca  1.500
AL7     15.833236475   19.324308743    0.035008261 XXX  2      ac1     Al  1.200
AL8     15.667460456   18.968192101    3.419540190 XXX  2      ac1     Al  1.200
O19     15.804463435   19.514548813    1.752385981 XXX  2      oc3     O  -0.750
O20     19.422936262   22.930678947    1.425391597 XXX  2      oc3     O  -0.750
O21     17.141121140   19.278035418    4.151969405 XXX  2      oc4     O  -1.350
O22     19.769233780   18.642059308    5.875107907 XXX  2      oc4     O  -1.350
O23     15.177940399   20.793213641   -0.589923818 XXX  2      oc4     O  -1.350
O24     15.182808906   17.761508287   -0.170555114 XXX  2      oc4     O  -1.350
CA21    24.684379665   21.101998014    8.914224859 XXX  2      ca+a    Ca  1.500
CA22    25.044286435   16.999004799    9.288476010 XXX  2      ca+a    Ca  1.500
AL9     23.368900801   19.054839424   14.820183853 XXX  2      ac1     Al  1.200
AL10    23.156696832   19.232261297   11.444334483 XXX  2      ac1     Al  1.200
O25     23.233789310   18.688001650   13.098474370 XXX  2      oc3     O  -0.750
O26     26.815008390   30.995398879   13.452308063 XXX  2      oc3     O  -0.750
O27     24.679203614   18.734445077   10.771811290 XXX  2      oc4     O  -1.350
O28     27.439174529   19.404086312    8.919912551 XXX  2      oc4     O  -1.350
O29     22.949932944   17.564200583   15.627287037 XXX  2      oc4     O  -1.350
O30     22.513904082   20.515692760   15.105572504 XXX  2      oc4     O  -1.350
CA23    20.696158178   28.264602678   12.579912224 XXX  2      ca+a    Ca  1.500
CA24    21.610798521   24.730577593   13.003602596 XXX  2      ca+a    Ca  1.500
AL11    23.066030412   26.865983325    7.702749823 XXX  2      ac1     Al  1.200
AL12    23.237573331   26.941409316   11.094079334 XXX  2      ac1     Al  1.200
O31     23.227271855   26.445107909    9.414852217 XXX  2      oc3     O  -0.750
O32     19.688423790   23.320453291    9.173940993 XXX  2      oc3     O  -0.750
O33     21.741318700   26.428728427   11.733619901 XXX  2      oc4     O  -1.350
O34     18.872078520   27.578434766   -1.983851105 XXX  2      oc4     O  -1.350
O35     24.033493530   25.678546904    6.891806898 XXX  2      oc4     O  -1.350
O36     23.481912157   28.598097714    7.618565193 XXX  2      oc4     O  -1.350
CA25    28.794216442   25.218914193    1.709858704 XXX  2      ca+a    Ca  1.500
CA26    32.314550650   28.419638534    1.451207370 XXX  2      ca+a    Ca  1.500
AL13    30.500323400   26.900297126    7.192607643 XXX  2      ac1     Al  1.200
AL14    30.953882201   26.682618419    3.823123784 XXX  2      ac1     Al  1.200
O37     30.711636859   27.127927222    5.491225884 XXX  2      oc3     O  -0.750
O38     27.028750057   15.068469468    5.441316153 XXX  2      oc3     O  -0.750
O39     29.528914306   26.875338943    3.049975257 XXX  2      oc4     O  -1.350
O40     26.596757397   26.511120504   16.574676758 XXX  2      oc4     O  -1.350
O41     31.278468540   28.304076370    7.964353637 XXX  2      oc4     O  -1.350
O42     31.069905855   25.266256525    7.605353045 XXX  2      oc4     O  -1.350
CA27    21.124804607   17.838463358    1.741500397 XXX  2      ca+a    Ca  1.500
CA28    21.419272480   17.128393741    5.383089396 XXX  2      ca+a    Ca  1.500
AL15    15.954604373   15.469042734    3.609811380 XXX  2      ac1     Al  1.200
AL16    19.292352574   15.341315753    3.231417804 XXX  2      ac1     Al  1.200
O43     17.682633118   15.364974067    3.864913620 XXX  2      oc3     O  -0.750
O44     17.453160703   19.297457021    7.041105048 XXX  2      oc3     O  -0.750
O45     19.974685650   16.911379258    3.614241342 XXX  2      oc4     O  -1.350
O46     21.871317052   19.656371300    3.091691112 XXX  2      oc4     O  -1.350
O47     15.412635951   14.638953436    5.093889243 XXX  2      oc4     O  -1.350
O48     15.828382288   14.739859486    2.030092816 XXX  2      oc4     O  -1.350
CA29    24.835536355   28.292081672    5.740471200 XXX  2      ca+a    Ca  1.500
CA30    25.459272041   24.974206201    1.547533846 XXX  2      ca+a    Ca  1.500
AL17    30.669804514   23.167761178    3.436516587 XXX  2      ac1     Al  1.200
AL18    27.324178363   23.140686475    3.739368330 XXX  2      ac1     Al  1.200
O49     28.937522750   23.063923530    3.147067385 XXX  2      oc3     O  -0.750
O50     29.075496421   26.770453759   15.322650345 XXX  2      oc3     O  -0.750
O51     26.713454273   24.747106028    3.373647510 XXX  2      oc4     O  -1.350
O52     24.738221361   27.535942676    3.707480251 XXX  2      oc4     O  -1.350
O53     31.386452427   22.391510135    2.044598519 XXX  2      oc4     O  -1.350
O54     30.808326340   22.524084745    5.033607575 XXX  2      oc4     O  -1.350
CA31    29.150206189   21.284667134   12.987262939 XXX  2      ca+a    Ca  1.500
CA32    28.838674752   21.233800763    9.158079551 XXX  2      ca+a    Ca  1.500
AL19    23.680253576   22.553703266   11.264889748 XXX  2      ac1     Al  1.200
AL20    27.085744140   22.838732933   11.415869946 XXX  2      ac1     Al  1.200
O55     25.465422149   22.355176375   11.117082496 XXX  2      oc3     O  -0.750
O56     25.077183790   18.907859161    7.585296871 XXX  2      oc3     O  -0.750
O57     27.896594337   21.362397626   11.157616890 XXX  2      oc4     O  -1.350
O58     14.095059212   18.691876664   11.407652516 XXX  2      oc4     O  -1.350
O59     23.241769944   22.976566973    9.627927564 XXX  2      oc4     O  -1.350
O60     23.353794071   23.424700779   12.729068424 XXX  2      oc4     O  -1.350
CA33    17.731797384   28.005099187    9.200078711 XXX  2      ca+a    Ca  1.500
CA34    17.378764743   29.351614569   13.154985966 XXX  2      ca+a    Ca  1.500
AL21    22.762939033   30.329462511   11.045469255 XXX  2      ac1     Al  1.200
AL22    19.448478482   30.029727935   10.533847341 XXX  2      ac1     Al  1.200
O61     21.049796555   30.602396607   10.846845375 XXX  2      oc3     O  -0.750
O62     21.163257989   27.245053234   -0.601866304 XXX  2      oc3     O  -0.750
O63     19.623233127   28.347354825   10.513960176 XXX  2      oc4     O  -1.350
O64     32.393157482   26.231809984   10.865520183 XXX  2      oc4     O  -1.350
O65     23.265170101   31.328764218   12.454721243 XXX  2      oc4     O  -1.350
O66     23.595529798   30.816778160    9.627638131 XXX  2      oc4     O  -1.350
CA35    28.051114614   28.320138969   10.089343917 XXX  2      ca+a    Ca  1.500
CA36    25.506721839   25.290962366    9.704985316 XXX  2      ca+a    Ca  1.500
CA37    28.386217264   25.564978447   12.379716723 XXX  2      ca+a    Ca  1.500
CA38    25.034900088   24.872484946   13.331834378 XXX  2      ca+a    Ca  1.500
AL23    26.773512793   30.423061579   15.137348797 XXX  2      ac1     Al  1.200
AL24    27.336381755   27.055627495   15.155142890 XXX  2      ac1     Al  1.200
O67     26.753083478   28.651546973   14.915040374 XXX  2      oc3     O  -0.750
O68     23.233811983   28.648771381   11.388652606 XXX  2      oc3     O  -0.750
O69     26.821352376   26.222143991   13.736870814 XXX  2      oc4     O  -1.350
O70     27.381588645   24.353984592   10.511094659 XXX  2      oc4     O  -1.350
O71     25.194999298   30.599196592   15.898970138 XXX  2      oc4     O  -1.350
O72     28.309686845   30.585409834   15.872115857 XXX  2      oc4     O  -1.350
CA39    27.230476697   19.468460305    3.386418487 XXX  2      ca+a    Ca  1.500
CA40    29.390938801   21.313107793    1.350646930 XXX  2      ca+a    Ca  1.500
CA41    25.403525052   21.309766898    5.379366270 XXX  2      ca+a    Ca  1.500
CA42    29.024315541   21.184355774    5.579301012 XXX  2      ca+a    Ca  1.500
AL25    27.106087673   15.525034912    7.091030633 XXX  2      ac1     Al  1.200
AL26    26.805797238   18.900264305    7.382181348 XXX  2      ac1     Al  1.200
O73     27.399252462   17.254361197    7.344662703 XXX  2      oc3     O  -0.750
O74     15.358080517   17.156071549    3.583492501 XXX  2      oc3     O  -0.750
O75     27.144729825   19.677107492    5.821040626 XXX  2      oc4     O  -1.350
O76     26.586260612   21.617273846    3.432523708 XXX  2      oc4     O  -1.350
O77     28.513162911   14.659780180    7.557965222 XXX  2      oc4     O  -1.350
O78     25.603166881   15.174686402    7.829596252 XXX  2      oc4     O  -1.350
CA43    19.364739388   19.504975843   11.115625649 XXX  2      ca+a    Ca  1.500
CA44    20.927229760   17.588125967   12.752196117 XXX  2      ca+a    Ca  1.500
CA45    17.685127810   17.407983013    9.675534429 XXX  2      ca+a    Ca  1.500
CA46    21.328038125   17.622002116    9.023717835 XXX  2      ca+a    Ca  1.500
AL27    19.624914874   22.757424892    7.449577214 XXX  2      ac1     Al  1.200
AL28    19.159749400   19.361988532    7.300455913 XXX  2      ac1     Al  1.200
O79     19.772900996   20.983968995    7.368137222 XXX  2      oc3     O  -0.750
O80     23.015920852   20.940029937   11.347290749 XXX  2      oc3     O  -0.750
O81     19.341187925   18.657150859    8.886285471 XXX  2      oc4     O  -1.350
O82     18.552762275   30.678185989   11.796717950 XXX  2      oc4     O  -1.350
O83     21.156958711   23.292848320    6.647357315 XXX  2      oc4     O  -1.350
O84     17.985333565   23.225559903    6.892993172 XXX  2      oc4     O  -1.350
CA47    19.804032397   27.108403113    3.261026945 XXX  2      ca+a    Ca  1.500
CA48    17.422396801   28.709839688    5.505267306 XXX  2      ca+a    Ca  1.500
CA49    24.905775149   32.430260166   26.173897254 XXX  2      ca+a    Ca  1.500
CA50    17.012474873   28.541122509    1.332581344 XXX  2      ca+a    Ca  1.500
AL29    19.303869121   23.479742435   -0.191834202 XXX  2      ac1     Al  1.200
AL30    19.511616065   26.931258505   -0.436226810 XXX  2      ac1     Al  1.200
O85     19.108167400   25.197066625   -0.436807256 XXX  2      oc3     O  -0.750
O86     31.287064270   24.877674971    3.608663169 XXX  2      oc3     O  -0.750
O87     18.943411851   27.450786291    1.110712264 XXX  2      oc4     O  -1.350
O88     20.012026456   13.847412424    3.800577523 XXX  2      oc4     O  -1.350
O89     17.932876028   22.607031566   -0.698844860 XXX  2      oc4     O  -1.350
O90     20.878979689   23.066183919   -0.798282455 XXX  2      oc4     O  -1.350
CA51    30.939680753   30.636386891    7.955728946 XXX  2      ca+a    Ca  1.500
CA52    29.285549135   24.781582354    9.278655755 XXX  2      ca+a    Ca  1.500
AL31    30.735520649   26.839802143   14.645507409 XXX  2      ac1     Al  1.200
AL32    30.943002296   27.022303094   11.359272783 XXX  2      ac1     Al  1.200
O91     30.743323985   26.523923177   12.961160171 XXX  2      oc3     O  -0.750
O92     27.362520725   23.212935710   13.150279035 XXX  2      oc3     O  -0.750
O93     29.447813576   26.642723252   10.644028498 XXX  2      oc4     O  -1.350
O94     26.397332907   27.442754850    8.744165920 XXX  2      oc4     O  -1.350
O95     31.545013500   25.442157413   15.316341071 XXX  2      oc4     O  -1.350
O96     31.370554050   28.545433849   14.780428416 XXX  2      oc4     O  -1.350
CA53    21.158872049   25.210262487    5.281254835 XXX  2      ca+a    Ca  1.500
CA54    22.311403134   30.517476677    7.854441649 XXX  2      ca+a    Ca  1.500
AL33    22.861988051   27.022956456   -0.155853321 XXX  2      ac1     Al  1.200
AL34    23.334561426   26.654919209    3.145841887 XXX  2      ac1     Al  1.200
O97     23.135438983   27.212944148    1.551165468 XXX  2      oc3     O  -0.750
O98     19.323707755   15.147610364    1.558019391 XXX  2      oc3     O  -0.750
O99     21.833112117   26.878932674    3.929759687 XXX  2      oc4     O  -1.350
O100    19.293970499   26.512974321    5.326272975 XXX  2      oc4     O  -1.350
O101    23.606681678   28.408238936   -0.926981216 XXX  2      oc4     O  -1.350
O102    23.431045471   25.397212408   -0.502260838 XXX  2      oc4     O  -1.350
CA55    25.539888545   17.483868731    1.716697362 XXX  2      ca+a    Ca  1.500
CA56    24.961334008   21.396747268    1.897626808 XXX  2      ca+a    Ca  1.500
AL35    23.438599898   19.068410256    7.021236187 XXX  2      ac1     Al  1.200
AL36    23.366700555   18.891690888    3.651261497 XXX  2      ac1     Al  1.200
O103    23.299000159   19.366926797    5.356924290 XXX  2      oc3     O  -0.750
O104    27.448736071   23.024899915    5.532237494 XXX  2      oc3     O  -0.750
O105    24.882600134   19.326936670    2.948844995 XXX  2      oc4     O  -1.350
O106    27.318793235   18.574241111   16.395312622 XXX  2      oc4     O  -1.350
O107    22.858751040   20.523605281    7.758559817 XXX  2      oc4     O  -1.350
O108    22.660154046   17.487845354    7.251518289 XXX  2      oc4     O  -1.350
CA57    17.632089073   21.163153781   13.360188441 XXX  2      ca+a    Ca  1.500
CA58    17.445897950   17.143804605   13.005482680 XXX  2      ca+a    Ca  1.500
AL37    15.800257086   19.149815888    7.629404701 XXX  2      ac1     Al  1.200
AL38    15.622611292   19.342610221   10.932126370 XXX  2      ac1     Al  1.200
O109    15.714516769   18.834332666    9.296544895 XXX  2      oc3     O  -0.750
O110    18.773141186   30.506392846    9.008402945 XXX  2      oc3     O  -0.750
O111    17.222748147   18.950753290   11.632958377 XXX  2      oc4     O  -1.350
O112    19.880465199   19.683577326   -1.850241297 XXX  2      oc4     O  -1.350
O113    15.169389918   17.662404664    6.939629996 XXX  2      oc4     O  -1.350
O114    15.175707163   20.724320527    7.401646301 XXX  2      oc4     O  -1.350
CA59    25.373056177   28.050090437   12.914651151 XXX  2      ca+a    Ca  1.500
CA60    24.506192190   32.569790451   10.925614938 XXX  2      ca+a    Ca  1.500
AL39    30.397021566   30.483281064   11.328572855 XXX  2      ac1     Al  1.200
AL40    27.020587549   30.819832901   11.703406075 XXX  2      ac1     Al  1.200
O115    28.621637305   30.439599226   11.190825617 XXX  2      oc3     O  -0.750
O116    28.850826794   27.016320866    7.671145020 XXX  2      oc3     O  -0.750
O117    26.237607007   29.244129155   11.259273490 XXX  2      oc4     O  -1.350
O118    24.767099508   26.295529266   11.628115807 XXX  2      oc4     O  -1.350
O119    30.913324120   31.411026126    9.965757697 XXX  2      oc4     O  -1.350
O120    30.924809930   30.995337135   12.862169378 XXX  2      oc4     O  -1.350
CA61    21.613098785   21.624572516    9.245023150 XXX  2      ca+a    Ca  1.500
CA62    21.266877850   21.326741288   13.282145312 XXX  2      ca+a    Ca  1.500
AL41    16.144307868   22.675986837   11.208315979 XXX  2      ac1     Al  1.200
AL42    19.481923830   23.042623604   10.848364293 XXX  2      ac1     Al  1.200
O121    17.861153977   22.648217952   11.367248660 XXX  2      oc3     O  -0.750
O122    17.508469959   19.245827734   -0.560216598 XXX  2      oc3     O  -0.750
O123    20.311791405   21.571558633   11.180066560 XXX  2      oc4     O  -1.350
O124    21.650908033   18.568449191   10.892035343 XXX  2      oc4     O  -1.350
O125    15.651877017   23.207571329   12.750976095 XXX  2      oc4     O  -1.350
O126    15.701852018   23.354407194    9.644685386 XXX  2      oc4     O  -1.350
CA63    17.646748147   25.459901903    1.723993259 XXX  2      ca+a    Ca  1.500
CA64    17.664746250   24.973311714    5.403196192 XXX  2      ca+a    Ca  1.500
AL43    23.032977498   23.302973866    3.560799843 XXX  2      ac1     Al  1.200
AL44    19.536137064   23.173210557    3.185957308 XXX  2      ac1     Al  1.200
O127    21.217267773   23.152459171    3.793685269 XXX  2      oc3     O  -0.750
O128    21.423188407   26.580975903    7.152729228 XXX  2      oc3     O  -0.750
O129    18.908116833   24.732862606    3.480474107 XXX  2      oc4     O  -1.350
O130    32.390963196   27.481867533    3.422913096 XXX  2      oc4     O  -1.350
O131    23.635616992   22.615336397    5.048241596 XXX  2      oc4     O  -1.350
O132    23.191066680   22.526369302    2.073693180 XXX  2      oc4     O  -1.350
CA65    28.756506322   17.859404567    5.185220742 XXX  2      ca+a    Ca  1.500
CA66    28.967898345   17.167744314    1.642330525 XXX  2      ca+a    Ca  1.500
AL45    23.618690675   15.434722104    3.342282005 XXX  2      ac1     Al  1.200
AL46    26.979412722   15.354988890    3.727756096 XXX  2      ac1     Al  1.200
O133    25.356663849   15.361482563    3.133092811 XXX  2      oc3     O  -0.750
O134    24.982845829   19.381822066   15.311204896 XXX  2      oc3     O  -0.750
O135    27.536676274   16.965974005    3.452043949 XXX  2      oc4     O  -1.350
O136    14.159595867   19.774263569    3.838191648 XXX  2      oc4     O  -1.350
O137    23.090788228   14.669290186    1.797126714 XXX  2      oc4     O  -1.350
O138    23.465182781   14.717501840    4.931935092 XXX  2      oc4     O  -1.350
end
CA1      0.206935429  130.180206615    1.184537983 XXX  1      ca+a    Ca  1.500
CA2      4.797307158  128.608650408    2.515700784 XXX  1      ca+a    Ca  1.500
CA3      3.292955678  134.376669274    4.364546752 XXX  1      ca+a    Ca  1.500
CA4      5.499710661  136.151545600    6.058579050 XXX  1      ca+a    Ca  1.500
CA5      1.572495186  136.041535666    2.443613466 XXX  1      ca+a    Ca  1.500
CA6      5.482382207  135.818391035    2.107625658 XXX  1      ca+a    Ca  1.500
AL1      3.188612139  130.363504352    0.333155126 XXX  1      ac1     Al  1.200
AL2      3.112320860  133.806166747    0.108660213 XXX  1      ac1     Al  1.200
O1       3.562476680  132.057125216   -0.004671072 XXX  1      oc3     O  -0.750
O2       6.683241236  132.291640230    3.783538892 XXX  1      oc3     O  -0.750
O3       3.430800241  134.319258083    1.796395745 XXX  1      oc4     O  -1.350
O4       2.856270576  136.471239359    4.521196592 XXX  1      oc4     O  -1.350
O5       4.558710837  129.380059626    0.275078658 XXX  1      oc4     O  -1.350
O6       1.686175154  130.131003730   -0.515559280 XXX  1      oc4     O  -1.350
CA1      7.753659266  130.094566605    7.080712715 XXX  2      ca+a    Ca  1.500
CA2     -2.890581505  128.570896496    5.649581923 XXX  2      ca+a    Ca  1.500
CA3      3.459925133  141.979419060   11.630080793 XXX  2      ca+a    Ca  1.500
CA4      1.791411724  140.122772185   13.492357127 XXX  2      ca+a    Ca  1.500
CA5      5.398191196  139.862878022   10.247624693 XXX  2      ca+a    Ca  1.500
CA6      1.673504201  140.338819506    9.457632041 XXX  2      ca+a    Ca  1.500
AL1      3.740314701  145.339849204    8.034553089 XXX  2      ac1     Al  1.200
AL2      3.976963340  141.966415721    8.022865339 XXX  2      ac1     Al  1.200
O1       3.525635401  143.611932975    8.119766263 XXX  2      oc3     O  -0.750
O2      15.272922111  143.724103896   11.587054168 XXX  2      oc3     O  -0.750
O3       3.639906180  141.232974947    9.549426951 XXX  2      oc4     O  -1.350
O4       3.987387834  139.385126099   12.047606569 XXX  2      oc4     O  -1.350
O5       2.147274077  145.791430122    7.349184455 XXX  2      oc4     O  -1.350
O6       5.190816321  145.531766508    7.249016526 XXX  2      oc4     O  -1.350
CA7     -0.604477341  138.125495451    7.771271403 XXX  2      ca+a    Ca  1.500
CA8      7.310593361  138.252030179    7.684296466 XXX  2      ca+a    Ca  1.500
CA9     11.040566335  142.038122799    3.954987543 XXX  2      ca+a    Ca  1.500
CA10     9.106559009  143.968919214    1.848847845 XXX  2      ca+a    Ca  1.500
CA11    13.042093686  143.837042618    5.998029811 XXX  2      ca+a    Ca  1.500
CA12     9.280572052  143.785009894    6.156618506 XXX  2      ca+a    Ca  1.500
AL3     11.078307440  138.032171537    7.581598492 XXX  2      ac1     Al  1.200
AL4     11.524725048  141.479401605    7.934130239 XXX  2      ac1     Al  1.200
O7      11.267504844  139.717184907    8.051300287 XXX  2      oc3     O  -0.750
O8       7.553866089  139.729679469    4.115226364 XXX  2      oc3     O  -0.750
O9      11.085158269  142.051595281    6.353519191 XXX  2      oc4     O  -1.350
O10     11.269737623  129.303934632    3.686593824 XXX  2      oc4     O  -1.350
O11      9.524787658  137.472151131    8.319633137 XXX  2      oc4     O  -1.350
O12     12.588198328  137.241365674    7.890015769 XXX  2      oc4     O  -1.350
CA13     7.208293011  137.957810318    0.367046046 XXX  2      ca+a    Ca  1.500
CA14    -0.263082004  138.086964337    0.447307577 XXX  2      ca+a    Ca  1.500
CA15    11.078584060  134.283255191   11.678050713 XXX  2      ca+a    Ca  1.500
CA16    14.019369187  130.383237285    8.053107137 XXX  2      ca+a    Ca  1.500
CA17     9.208976588  132.274835219   13.376712232 XXX  2      ca+a    Ca  1.500
CA18    12.920492404  133.094648895   14.392929405 XXX  2      ca+a    Ca  1.500
AL5     11.167757965  137.612769737   15.411874724 XXX  2      ac1     Al  1.200
AL6     10.545860253  134.242927120   15.523848714 XXX  2      ac1     Al  1.200
O13     11.214185748  135.830900878   15.524380450 XXX  2      oc3     O  -0.750
O14     -0.100547265  135.959211962   12.015273436 XXX  2      oc3     O  -0.750
O15     10.850555912  133.602946329   13.901767375 XXX  2      oc4     O  -1.350
O16     10.871987418  147.180643448   11.326194368 XXX  2      oc4     O  -1.350
O17     12.632546100  138.187110526   16.123431292 XXX  2      oc4     O  -1.350
O18      9.596092956  137.994010473   16.087726933 XXX  2      oc4     O  -1.350
CA19     1.330660254  132.402658540    5.803929915 XXX  2      ca+a    Ca  1.500
CA20     1.223763772  136.204711463    5.872673123 XXX  2      ca+a    Ca  1.500
AL7     -0.272400740  133.952117814    0.539571005 XXX  2      ac1     Al  1.200
AL8     -0.731451574  133.948495410    3.848903884 XXX  2      ac1     Al  1.200
O19     -0.470754052  134.318544871    2.204691753 XXX  2      oc3     O  -0.750
O20      3.086934972  137.967195055    2.325979532 XXX  2      oc3     O  -0.750
O21      0.858152050  134.328972618    4.665442993 XXX  2      oc4     O  -1.350
O22      3.408783007  133.088340236    6.538274365 XXX  2      oc4     O  -1.350
O23     -1.173252718  135.102659499   -0.270151663 XXX  2      oc4     O  -1.350
O24     -0.622219194  132.279721844    0.235050817 XXX  2      oc4     O  -1.350
CA21     9.491376555  136.079787946    9.873112606 XXX  2      ca+a    Ca  1.500
CA22     8.747371827  131.944529778    9.720498138 XXX  2      ca+a    Ca  1.500
AL9      7.294525195  133.428554804   15.191535852 XXX  2      ac1     Al  1.200
AL10     7.219352336  134.171783377   11.876283072 XXX  2      ac1     Al  1.200
O25      6.842054837  133.923104561   13.573208290 XXX  2      oc3     O  -0.750
O26     11.415115211  145.908004040   13.744207262 XXX  2      oc3     O  -0.750
O27      8.720414726  133.277091402   11.478542925 XXX  2      oc4     O  -1.350
O28     11.245755004  134.531177991    9.539349504 XXX  2      oc4     O  -1.350
O29      7.825830592  131.780901881   14.845841030 XXX  2      oc4     O  -1.350
O30      6.156689633  133.856411985   16.386916198 XXX  2      oc4     O  -1.350
CA23     4.909735651  143.738772157   13.596613723 XXX  2      ca+a    Ca  1.500
CA24     5.674478670  139.808298972   13.600996475 XXX  2      ca+a    Ca  1.500
AL11     7.431301212  141.641827457    8.185160958 XXX  2      ac1     Al  1.200
AL12     7.445098979  141.866619923   11.575072301 XXX  2      ac1     Al  1.200
O31      7.649167140  141.456351490    9.882642149 XXX  2      oc3     O  -0.750
O32      3.537332144  138.073070357    9.584347080 XXX  2      oc3     O  -0.750
O33      5.908314915  141.369082726   12.008049436 XXX  2      oc4     O  -1.350
O34      3.204112540  142.110340003   -1.333615795 XXX  2      oc4     O  -1.350
O35      8.230734186  140.215194158    7.597854495 XXX  2      oc4     O  -1.350
O36      7.878406951  143.288511572    7.778141738 XXX  2      oc4     O  -1.350
CA25    12.576227803  140.049888966    2.269696441 XXX  2      ca+a    Ca  1.500
CA26    13.391263977  143.841785827    2.291530982 XXX  2      ca+a    Ca  1.500
AL13    14.909865079  141.754764471    7.694707588 XXX  2      ac1     Al  1.200
AL14    15.000746859  141.502120535    4.297282717 XXX  2      ac1     Al  1.200
O37     14.932170685  142.020182250    5.982439648 XXX  2      oc3     O  -0.750
O38     10.329743104  130.125304448    6.184945745 XXX  2      oc3     O  -0.750
O39     13.486461747  141.792212664    3.518067051 XXX  2      oc4     O  -1.350
O40     10.798293491  141.295115404   16.879669509 XXX  2      oc4     O  -1.350
O41     15.743388791  143.104591093    8.398436733 XXX  2      oc4     O  -1.350
O42     15.432460474  140.066409124    8.011879938 XXX  2      oc4     O  -1.350
CA27     4.762950272  132.713226305    2.287763462 XXX  2      ca+a    Ca  1.500
CA28     4.671164541  131.309236654    5.702376426 XXX  2      ca+a    Ca  1.500
AL15    -0.637011536  130.541168111    4.382697180 XXX  2      ac1     Al  1.200
AL16     2.612008043  130.379738015    3.680319392 XXX  2      ac1     Al  1.200
O43      1.080252145  130.292178824    4.438770022 XXX  2      oc3     O  -0.750
O44      1.214148376  133.930892672    7.847896660 XXX  2      oc3     O  -0.750
O45      3.287059131  131.948960342    4.017304158 XXX  2      oc4     O  -1.350
O46      5.479037748  134.782291046    4.063818792 XXX  2      oc4     O  -1.350
O47     -1.387024624  130.084084049    5.889759879 XXX  2      oc4     O  -1.350
O48     -1.213146771  130.165729306    2.781924987 XXX  2      oc4     O  -1.350
CA29     9.499038304  140.416269686    5.867688075 XXX  2      ca+a    Ca  1.500
CA30     9.188265713  139.726337258    1.945706913 XXX  2      ca+a    Ca  1.500
AL17    14.562839329  138.078608850    4.125636545 XXX  2      ac1     Al  1.200
AL18    11.122531669  138.018926478    4.206926662 XXX  2      ac1     Al  1.200
O49     12.844168014  138.158891495    3.800400137 XXX  2      oc3     O  -0.750
O50     13.208956542  141.769582500   15.915447228 XXX  2      oc3     O  -0.750
O51     10.456650124  139.556696030    3.837082051 XXX  2      oc4     O  -1.350
O52      8.809972953  142.088703663    4.549330071 XXX  2      oc4     O  -1.350
O53     15.163845321  137.372714480    2.646496612 XXX  2      oc4     O  -1.350
O54     14.815784888  137.274218243    5.691381732 XXX  2      oc4     O  -1.350
CA31    13.117133160  136.255354660   13.338722340 XXX  2      ca+a    Ca  1.500
CA32    12.826651799  136.059472058    9.707956778 XXX  2      ca+a    Ca  1.500
AL19     7.587486650  137.608391882   11.638868394 XXX  2      ac1     Al  1.200
AL20    10.932445069  138.101984500   11.995827816 XXX  2      ac1     Al  1.200
O55      9.213137207  138.217286143   11.574915071 XXX  2      oc3     O  -0.750
O56      9.006282351  133.969697762    8.250316440 XXX  2      oc3     O  -0.750
O57     11.469873987  136.494390007   11.516331403 XXX  2      oc4     O  -1.350
O58     -1.682264338  133.862673003   12.501464176 XXX  2      oc4     O  -1.350
O59      6.738130167  138.039880698   10.131916185 XXX  2      oc4     O  -1.350
O60      6.952128917  137.930870313   13.245723352 XXX  2      oc4     O  -1.350
CA33     1.628067122  144.198431358    9.819857446 XXX  2      ca+a    Ca  1.500
CA34     1.685987725  144.130153613   13.723344619 XXX  2      ca+a    Ca  1.500
AL21     7.280728846  145.358141402   11.781418768 XXX  2      ac1     Al  1.200
AL22     3.938864954  145.730728940   11.448126859 XXX  2      ac1     Al  1.200
O61      5.590404601  145.680840813   12.036316014 XXX  2      oc3     O  -0.750
O62      5.578296956  141.932082216   -0.078435548 XXX  2      oc3     O  -0.750
O63      3.232211406  144.163422478   11.866242295 XXX  2      oc4     O  -1.350
O64     16.539288053  141.356508240   11.467503854 XXX  2      oc4     O  -1.350
O65      8.109110675  145.892323703   13.268339465 XXX  2      oc4     O  -1.350
O66      7.761952281  145.779698609   10.157162986 XXX  2      oc4     O  -1.350
CA35    11.157302562  141.947748902   11.755259580 XXX  2      ca+a    Ca  1.500
CA36     9.648319764  140.032156174    9.877915489 XXX  2      ca+a    Ca  1.500
CA37    12.969076104  140.041078178   13.279702360 XXX  2      ca+a    Ca  1.500
CA38     9.321650660  140.153348037   14.055265429 XXX  2      ca+a    Ca  1.500
AL23    11.300474348  145.327643451   15.423206563 XXX  2      ac1     Al  1.200
AL24    11.533726710  141.970023717   15.511801762 XXX  2      ac1     Al  1.200
O67     11.034280751  143.606728595   15.487798914 XXX  2      oc3     O  -0.750
O68      7.634979779  143.625041623   11.853180796 XXX  2      oc3     O  -0.750
O69     11.313101164  141.265906451   13.927671686 XXX  2      oc4     O  -1.350
O70     11.644694904  139.462169580   11.334675476 XXX  2      oc4     O  -1.350
O71      9.756149136  145.939760713   16.028322718 XXX  2      oc4     O  -1.350
O72     12.875918477  145.662076027   16.067631298 XXX  2      oc4     O  -1.350
CA39    10.957215161  134.288812169    3.880919425 XXX  2      ca+a    Ca  1.500
CA40    13.143706915  136.227432983    2.220021122 XXX  2      ca+a    Ca  1.500
CA41     9.168776988  135.942796110    5.936212272 XXX  2      ca+a    Ca  1.500
CA42    13.026303455  135.726328893    6.141695562 XXX  2      ca+a    Ca  1.500
AL25    10.751975683  130.405696507    7.832293455 XXX  2      ac1     Al  1.200
AL26    10.747189762  133.859957446    8.042140356 XXX  2      ac1     Al  1.200
O73     11.215248135  132.161086116    8.035683712 XXX  2      oc3     O  -0.750
O74     -1.014933676  132.225876602    4.264049974 XXX  2      oc3     O  -0.750
O75     10.973713192  134.585829524    6.419211146 XXX  2      oc4     O  -1.350
O76     10.745609691  136.480767210    3.506040173 XXX  2      oc4     O  -1.350
O77     12.180759417  129.397576104    8.047456106 XXX  2      oc4     O  -1.350
O78      9.269637739  130.191069899    8.743580762 XXX  2      oc4     O  -1.350
CA43     3.529320998  134.098913864   11.729736076 XXX  2      ca+a    Ca  1.500
CA44     6.099625629  130.507178340   15.433517077 XXX  2      ca+a    Ca  1.500
CA45     1.448378398  132.129151414   10.216149623 XXX  2      ca+a    Ca  1.500
CA46     5.384079694  133.006436602    9.111240343 XXX  2      ca+a    Ca  1.500
AL27     3.431721027  137.477131937    7.935254380 XXX  2      ac1     Al  1.200
AL28     2.911071538  133.981080992    7.975412743 XXX  2      ac1     Al  1.200
O79      3.533924116  135.629814704    7.847958040 XXX  2      oc3     O  -0.750
O80      7.581438059  135.817745526   11.497236236 XXX  2      oc3     O  -0.750
O81      3.285719458  133.321480032    9.547494546 XXX  2      oc4     O  -1.350
O82      3.237158202  147.200917006   12.108108547 XXX  2      oc4     O  -1.350
O83      4.966595243  138.038523280    7.224910619 XXX  2      oc4     O  -1.350
O84      1.781980977  137.896450188    7.266122745 XXX  2      oc4     O  -1.350
CA47     3.495661519  142.046456877    4.164707487 XXX  2      ca+a    Ca  1.500
CA48     1.404214908  143.956877417    6.394689636 XXX  2      ca+a    Ca  1.500
CA49     5.300853480  143.998499231    2.094330006 XXX  2      ca+a    Ca  1.500
CA50     1.595406499  143.709218465    2.131086006 XXX  2      ca+a    Ca  1.500
AL29     3.376433967  138.122001361    0.614224034 XXX  2      ac1     Al  1.200
AL30     3.887548038  141.533261020    0.120705331 XXX  2      ac1     Al  1.200
O85      3.614039875  139.759479140   -0.012754064 XXX  2      oc3     O  -0.750
O86     15.202132465  139.745135535    4.205703564 XXX  2      oc3     O  -0.750
O87      3.448683955  142.133507411    1.715054170 XXX  2      oc4     O  -1.350
O88      3.506318049  129.119156157    4.300666464 XXX  2      oc4     O  -1.350
O89      1.922777521  137.563335452   -0.171602204 XXX  2      oc4     O  -1.350
O90      4.930339239  137.324890107    0.381852765 XXX  2      oc4     O  -1.350
CA51    12.678601929  143.575951774    9.831568231 XXX  2      ca+a    Ca  1.500
CA52    13.382971488  139.852422127    9.959421106 XXX  2      ca+a    Ca  1.500
AL31    14.946358982  141.753833918   15.423925888 XXX  2      ac1     Al  1.200
AL32    15.009879985  142.073291520   11.936700638 XXX  2      ac1     Al  1.200
O91     15.007881834  141.539205154   13.666023590 XXX  2      oc3     O  -0.750
O92     11.236904572  138.203306057   13.751152199 XXX  2      oc3     O  -0.750
O93     13.459007787  141.631939833   11.261799052 XXX  2      oc4     O  -1.350
O94     10.847309074  142.057899168    9.478885495 XXX  2      oc4     O  -1.350
O95     15.740929566  140.242845273   15.887961101 XXX  2      oc4     O  -1.350
O96     15.608831346  143.301534235   15.568234934 XXX  2      oc4     O  -1.350
CA53     4.880783755  139.999505816    5.951005164 XXX  2      ca+a    Ca  1.500
CA54     5.898264390  143.795267234    5.668630068 XXX  2      ca+a    Ca  1.500
AL33     7.238775982  141.805397625    0.505907509 XXX  2      ac1     Al  1.200
AL34     7.326517794  141.474960452    3.936634697 XXX  2      ac1     Al  1.200
O97      7.303198418  142.043988861    2.235079750 XXX  2      oc3     O  -0.750
O98      2.600208242  130.143288707    1.933438766 XXX  2      oc3     O  -0.750
O99      5.742046362  141.844335511    4.692392120 XXX  2      oc4     O  -1.350
O100     3.277632296  141.250703741    6.625682879 XXX  2      oc4     O  -1.350
O101     8.089957515  143.123221668   -0.172462946 XXX  2      oc4     O  -1.350
O102     7.698985578  140.121833467    0.218588008 XXX  2      oc4     O  -1.350
CA55     9.084609647  132.494799479    2.435211529 XXX  2      ca+a    Ca  1.500
CA56     8.975195823  136.175319434    2.227126134 XXX  2      ca+a    Ca  1.500
AL35     7.433638210  133.740639592    7.571476113 XXX  2      ac1     Al  1.200
AL36     7.063279657  133.961104543    4.238920248 XXX  2      ac1     Al  1.200
O103     7.416005599  134.177692642    5.909801601 XXX  2      oc3     O  -0.750
O104    10.789724022  137.802603627    5.921061892 XXX  2      oc3     O  -0.750
O105     8.659947665  134.376856552    3.460751237 XXX  2      oc4     O  -1.350
O106    11.126351365  133.404658118   16.955500425 XXX  2      oc4     O  -1.350
O107     6.460414117  134.983413805    8.191942007 XXX  2      oc4     O  -1.350
O108     6.923255897  132.064366444    7.888674116 XXX  2      oc4     O  -1.350
CA57     1.932834727  136.187534679   13.495677522 XXX  2      ca+a    Ca  1.500
CA58     0.091745120  132.244554158   13.710020145 XXX  2      ca+a    Ca  1.500
AL37    -0.293707699  133.320495573    8.290564839 XXX  2      ac1     Al  1.200
AL38    -0.367686111  134.291585558   11.560072825 XXX  2      ac1     Al  1.200
O109    -0.676052925  133.960974955    9.917666880 XXX  2      oc3     O  -0.750
O110     3.899445994  145.959121946    9.675992957 XXX  2      oc3     O  -0.750
O111     1.095194721  133.357997825   11.904549786 XXX  2      oc4     O  -1.350
O112     3.579162156  134.671756009   -1.282493292 XXX  2      oc4     O  -1.350
O113     0.116551423  131.620186849    8.577770384 XXX  2      oc4     O  -1.350
O114    -1.448083001  133.881269760    7.103226998 XXX  2      oc4     O  -1.350
CA59     9.388011975  143.993984862   13.593087752 XXX  2      ca+a    Ca  1.500
CA60     9.128938735  144.035890178    9.798961957 XXX  2      ca+a    Ca  1.500
AL39    14.907808615  145.428200388   11.593818030 XXX  2      ac1     Al  1.200
AL40    11.494004170  145.656126362   12.020197102 XXX  2      ac1     Al  1.200
O115    13.145373864  145.634742472   11.433646289 XXX  2      oc3     O  -0.750
O116    13.214610643  141.773486829    8.156022353 XXX  2      oc3     O  -0.750
O117    10.761600717  144.079744860   11.631520107 XXX  2      oc4     O  -1.350
O118     8.925925776  141.193977054   12.121119117 XXX  2      oc4     O  -1.350
O119    15.671744444  146.018405922   10.158220749 XXX  2      oc4     O  -1.350
O120    15.490090588  145.755031732   13.216724019 XXX  2      oc4     O  -1.350
CA61     5.495195496  136.245671802    9.808596948 XXX  2      ca+a    Ca  1.500
CA62     5.226453693  136.173353159   13.573221030 XXX  2      ca+a    Ca  1.500
AL41    -0.136133794  137.687683983   11.798171033 XXX  2      ac1     Al  1.200
AL42     3.254189591  138.028172591   11.333540443 XXX  2      ac1     Al  1.200
O121     1.526052925  138.194732076   11.750517635 XXX  2      oc3     O  -0.750
O122     1.420127990  134.122107481   -0.051615805 XXX  2      oc3     O  -0.750
O123     3.760156979  136.431807031   11.752830347 XXX  2      oc4     O  -1.350
O124     5.722836766  133.962825710   11.036277859 XXX  2      oc4     O  -1.350
O125    -0.726030923  138.334506538   13.269040814 XXX  2      oc4     O  -1.350
O126    -0.878505826  137.930469749   10.183267288 XXX  2      oc4     O  -1.350
CA63     1.926496366  140.357756539    2.348815706 XXX  2      ca+a    Ca  1.500
CA64     1.567933222  139.958565046    6.179997375 XXX  2      ca+a    Ca  1.500
AL43     6.943526516  138.033924526    4.112953938 XXX  2      ac1     Al  1.200
AL44     3.515823914  137.962251112    4.025057668 XXX  2      ac1     Al  1.200
O127     5.230320310  137.956348903    4.427579206 XXX  2      oc3     O  -0.750
O128     5.737844328  141.540110871    7.788850098 XXX  2      oc3     O  -0.750
O129     2.929341654  139.503176145    4.553735361 XXX  2      oc4     O  -1.350
O130    16.529483614  142.072095419    3.689224329 XXX  2      oc4     O  -1.350
O131     7.493090254  137.252991244    5.600298806 XXX  2      oc4     O  -1.350
O132     7.201384379  137.325892481    2.518576231 XXX  2      oc4     O  -1.350
CA65    12.498234463  132.641187325    5.866077327 XXX  2      ca+a    Ca  1.500
CA66    12.250240814  131.285649147    2.549646515 XXX  2      ca+a    Ca  1.500
AL45     6.975248029  130.610151503    3.830281341 XXX  2      ac1     Al  1.200
AL46    10.301694770  130.432160064    4.466001285 XXX  2      ac1     Al  1.200
O133     8.688259303  130.419202480    3.680737378 XXX  2      oc3     O  -0.750
O134     8.811914119  134.191238678   15.638818267 XXX  2      oc3     O  -0.750
O135    10.899524439  132.098255026    4.267649626 XXX  2      oc4     O  -1.350
O136    -2.282588084  134.727194421    4.178943383 XXX  2      oc4     O  -1.350
O137     6.257869741  130.115373747    2.334912489 XXX  2      oc4     O  -1.350
O138     6.430198678  130.170604488    5.381849938 XXX  2      oc4     O  -1.350
end
CA1     15.450815918  130.357270321    1.193321312 XXX  1      ca+a    Ca  1.500
CA2     19.969467726  128.288173649    2.893034244 XXX  1      ca+a    Ca  1.500
CA3     18.611520644  134.417270271    4.269776059 XXX  1      ca+a    Ca  1.500
CA4     20.946520314  136.020045987    6.071176763 XXX  1      ca+a    Ca  1.500
CA5     16.914950381  136.102605370    2.407223690 XXX  1      ca+a    Ca  1.500
CA6     20.721677644  135.964021849    1.994729896 XXX  1      ca+a    Ca  1.500
AL1     18.347323033  130.447942715    0.278467521 XXX  1      ac1     Al  1.200
AL2     18.339475327  133.989366658    0.024828746 XXX  1      ac1     Al  1.200
O1      18.753077097  132.236014991    0.024820568 XXX  1      oc3     O  -0.750
O2      21.914318327  132.157105614    3.751583394 XXX  1      oc3     O  -0.750
O3      18.607426190  134.641888814    1.650216258 XXX  1      oc4     O  -1.350
O4      18.153470990  136.538630660    4.408161218 XXX  1      oc4     O  -1.350
O5      19.718737916  129.543328721   -0.142621738 XXX  1      oc4     O  -1.350
O6      16.808064774  130.295418218   -0.490458196 XXX  1      oc4     O  -1.350
CA1     23.031009679  130.332024171    6.919262296 XXX  2      ca+a    Ca  1.500
CA2     12.451971651  128.727874222    5.461416871 XXX  2      ca+a    Ca  1.500
CA3     18.769445504  142.020798891   11.685617100 XXX  2      ca+a    Ca  1.500
CA4     17.109477114  140.309414006   13.596482822 XXX  2      ca+a    Ca  1.500
CA5     20.602164821  139.970680109   10.332694475 XXX  2      ca+a    Ca  1.500
CA6     16.945659850  140.442905168    9.564289794 XXX  2      ca+a    Ca  1.500
AL1     18.978078707  145.335015946    8.085213402 XXX  2      ac1     Al  1.200
AL2     19.281248343  141.966032839    7.926342690 XXX  2      ac1     Al  1.200
O1      18.797865518  143.621872064    7.922752226 XXX  2      oc3     O  -0.750
O2      30.687780642  143.730382633   11.644172576 XXX  2      oc3     O  -0.750
O3      18.951614980  141.335467472    9.503352387 XXX  2      oc4     O  -1.350
O4      19.204571299  139.560271073   12.117526589 XXX  2      oc4     O  -1.350
O5      17.398654399  145.902877160    7.468706881 XXX  2      oc4     O  -1.350
O6      20.554481651  145.671453428    7.392251479 XXX  2      oc4     O  -1.350
CA7     14.713956972  137.940620749    7.747486354 XXX  2      ca+a    Ca  1.500
CA8     22.638313419  138.226527377    7.742629964 XXX  2      ca+a    Ca  1.500
CA9     26.397740359  142.105014301    3.912698496 XXX  2      ca+a    Ca  1.500
CA10    24.468426519  144.050326614    1.848218130 XXX  2      ca+a    Ca  1.500
CA11    28.267374501  143.817229094    5.807646617 XXX  2      ca+a    Ca  1.500
CA12    24.494826108  143.860064606    6.199468807 XXX  2      ca+a    Ca  1.500
AL3     26.341142455  138.110005908    7.714067773 XXX  2      ac1     Al  1.200
AL4     26.714600608  141.534862735    7.972411882 XXX  2      ac1     Al  1.200
O7      26.506118138  139.728322176    8.154753773 XXX  2      oc3     O  -0.750
O8      22.801454663  139.778067216    4.182002285 XXX  2      oc3     O  -0.750
O9      26.152329006  142.096695867    6.395139874 XXX  2      oc4     O  -1.350
O10     26.627997787  129.281246965    3.842069129 XXX  2      oc4     O  -1.350
O11     24.903306744  137.442738474    8.405477207 XXX  2      oc4     O  -1.350
O12     27.916508437  137.335229089    7.945811831 XXX  2      oc4     O  -1.350
CA13    22.526095666  138.076829717    0.208896019 XXX  2      ca+a    Ca  1.500
CA14    15.015613753  138.173004485    0.568809404 XXX  2      ca+a    Ca  1.500
CA15    26.812652770  134.075298379   11.752423848 XXX  2      ca+a    Ca  1.500
CA16    29.175179997  130.199367329    8.046814353 XXX  2      ca+a    Ca  1.500
CA17    24.617096892  132.260156594   13.538186830 XXX  2      ca+a    Ca  1.500
CA18    28.152276811  135.658070396   13.689895067 XXX  2      ca+a    Ca  1.500
AL5     26.479299847  137.769329226   15.421076169 XXX  2      ac1     Al  1.200
AL6     25.885010297  134.365238029   15.517637848 XXX  2      ac1     Al  1.200
O13     26.512622250  136.045843767   15.769234248 XXX  2      oc3     O  -0.750
O14     15.225031621  135.861961462   11.924422082 XXX  2      oc3     O  -0.750
O15     26.154620322  133.827020569   13.851136981 XXX  2      oc4     O  -1.350
O16     26.259243258  147.093432418   11.215394714 XXX  2      oc4     O  -1.350
O17     27.926323195  138.365939363   16.179390909 XXX  2      oc4     O  -1.350
O18     24.789489237  138.231353483   15.848190100 XXX  2      oc4     O  -1.350
CA19    16.759733510  132.566257896    5.712520733 XXX  2      ca+a    Ca  1.500
CA20    16.592252080  136.158060352    5.961258533 XXX  2      ca+a    Ca  1.500
AL7     15.074139298  134.096599523    0.545239901 XXX  2      ac1     Al  1.200
AL8     14.748349595  133.995998270    3.838196728 XXX  2      ac1     Al  1.200
O19     15.112408355  134.362872473    2.232950330 XXX  2      oc3     O  -0.750
O20     18.370478513  138.033956086    2.134281095 XXX  2      oc3     O  -0.750
O21     16.191010739  134.393637591    4.697323595 XXX  2      oc4     O  -1.350
O22     18.814546849  133.269457337    6.459328703 XXX  2      oc4     O  -1.350
O23     14.061032684  135.356486078   -0.013790625 XXX  2      oc4     O  -1.350
O24     14.708835427  132.415940590    0.152974892 XXX  2      oc4     O  -1.350
CA21    25.049752629  136.077684975   10.049418856 XXX  2      ca+a    Ca  1.500
CA22    23.829614094  132.068577464    9.676204392 XXX  2      ca+a    Ca  1.500
AL9     22.591396237  133.531688614   15.130647212 XXX  2      ac1     Al  1.200
AL10    22.514041148  134.207726555   11.860806907 XXX  2      ac1     Al  1.200
O25     22.145395781  134.080402413   13.512943931 XXX  2      oc3     O  -0.750
O26     26.600680445  145.889457350   13.691962469 XXX  2      oc3     O  -0.750
O27     23.828123598  133.033062602   11.565428066 XXX  2      oc4     O  -1.350
O28     26.562883442  134.590030339    9.533288337 XXX  2      oc4     O  -1.350
O29     23.173855243  131.891894936   15.028705601 XXX  2      oc4     O  -1.350
O30     21.412525264  134.006441274   16.250680431 XXX  2      oc4     O  -1.350
CA23    20.515673901  143.573180042   13.633792471 XXX  2      ca+a    Ca  1.500
CA24    20.985816721  139.908109540   13.497313458 XXX  2      ca+a    Ca  1.500
AL11    22.608632954  141.686648243    8.203556745 XXX  2      ac1     Al  1.200
AL12    22.725225138  141.991100305   11.568899619 XXX  2      ac1     Al  1.200
O31     22.545868986  141.461238675    9.895902657 XXX  2      oc3     O  -0.750
O32     18.911937747  138.255882745    9.659069356 XXX  2      oc3     O  -0.750
O33     21.126814459  141.658491960   12.264112354 XXX  2      oc4     O  -1.350
O34     18.442794184  142.220219588   -1.266177162 XXX  2      oc4     O  -1.350
O35     23.371446281  140.219035365    7.700831348 XXX  2      oc4     O  -1.350
O36     23.340506644  143.265570469    7.994038619 XXX  2      oc4     O  -1.350
CA25    27.852200393  140.003356126    2.300047812 XXX  2      ca+a    Ca  1.500
CA26    28.595600517  143.978501087    2.358613482 XXX  2      ca+a    Ca  1.500
AL13    30.047881015  141.880396270    7.612512867 XXX  2      ac1     Al  1.200
AL14    30.210236123  141.440291366    4.225543314 XXX  2      ac1     Al  1.200
O37     30.204452433  142.034983631    5.891102179 XXX  2      oc3     O  -0.750
O38     25.414746261  130.162118361    6.161171172 XXX  2      oc3     O  -0.750
O39     28.706449607  141.919973502    3.483726576 XXX  2      oc4     O  -1.350
O40     26.066156955  141.449704273   17.033243743 XXX  2      oc4     O  -1.350
O41     31.030869531  143.071901866    8.332121692 XXX  2      oc4     O  -1.350
O42     30.500318866  140.183507046    8.049283319 XXX  2      oc4     O  -1.350
CA27    20.027349733  132.839005940    2.260924507 XXX  2      ca+a    Ca  1.500
CA28    19.926471148  131.381110411    5.599003328 XXX  2      ca+a    Ca  1.500
AL15    14.620623440  130.655003312    4.320812948 XXX  2      ac1     Al  1.200
AL16    17.974488873  130.483228817    3.713450573 XXX  2      ac1     Al  1.200
O43     16.357564781  130.357425029    4.431197462 XXX  2      oc3     O  -0.750
O44     16.536295128  134.105067284    7.818758254 XXX  2      oc3     O  -0.750
O45     18.451031260  132.153911062    3.905149868 XXX  2      oc4     O  -1.350
O46     20.758764810  134.562048129    3.879925234 XXX  2      oc4     O  -1.350
O47     13.883573678  130.383093043    5.851967143 XXX  2      oc4     O  -1.350
O48     14.087809461  130.124478467    2.767350585 XXX  2      oc4     O  -1.350
CA29    24.652041325  140.514499725    5.936560744 XXX  2      ca+a    Ca  1.500
CA30    24.499618545  139.840244986    2.080340613 XXX  2      ca+a    Ca  1.500
AL17    29.768716400  138.029395843    4.126400979 XXX  2      ac1     Al  1.200
AL18    26.363124943  138.026472582    4.341697315 XXX  2      ac1     Al  1.200
O49     28.028818714  137.857860159    3.896498522 XXX  2      oc3     O  -0.750
O50     28.558051961  141.863033104   15.895434483 XXX  2      oc3     O  -0.750
O51     25.895067965  139.594942965    3.803547747 XXX  2      oc4     O  -1.350
O52     24.030687315  142.184913375    4.570750102 XXX  2      oc4     O  -1.350
O53     30.290239887  137.292792205    2.581670730 XXX  2      oc4     O  -1.350
O54     29.933478791  137.291556552    5.659447068 XXX  2      oc4     O  -1.350
CA31    30.114361754  138.228926466   15.570474094 XXX  2      ca+a    Ca  1.500
CA32    28.279885479  136.199799925    9.935390182 XXX  2      ca+a    Ca  1.500
AL19    22.889470090  137.625820247   11.720413585 XXX  2      ac1     Al  1.200
AL20    26.250896078  137.933556231   12.026252395 XXX  2      ac1     Al  1.200
O55     24.568402472  138.175148357   11.756695792 XXX  2      oc3     O  -0.750
O56     24.342570638  134.081399420    8.207291919 XXX  2      oc3     O  -0.750
O57     26.780821277  136.267767285   11.588662808 XXX  2      oc4     O  -1.350
O58     13.220297853  134.067955647   12.326097488 XXX  2      oc4     O  -1.350
O59     22.163001704  138.172506481   10.259736792 XXX  2      oc4     O  -1.350
O60     22.141319038  137.895768889   13.289819648 XXX  2      oc4     O  -1.350
CA33    16.915360685  144.134071122    9.900857601 XXX  2      ca+a    Ca  1.500
CA34    16.903589728  144.061801987   13.747812252 XXX  2      ca+a    Ca  1.500
AL21    22.551309344  145.433759339   11.820235412 XXX  2      ac1     Al  1.200
AL22    19.227294494  145.707055939   11.530430354 XXX  2      ac1     Al  1.200
O61     20.882363942  145.666582661   12.152894401 XXX  2      oc3     O  -0.750
O62     20.776477588  141.992334329    0.017438898 XXX  2      oc3     O  -0.750
O63     18.392881808  144.205517960   11.874369484 XXX  2      oc4     O  -1.350
O64     31.783558960  141.139646204   11.492812248 XXX  2      oc4     O  -1.350
O65     23.386489377  145.978561111   13.277365467 XXX  2      oc4     O  -1.350
O66     22.977788201  145.995043326   10.212343718 XXX  2      oc4     O  -1.350
CA35    26.450503329  141.891686281   11.918199034 XXX  2      ca+a    Ca  1.500
CA36    24.712280361  140.157656432   10.074768118 XXX  2      ca+a    Ca  1.500
CA37    28.215748646  139.952091066   13.205898009 XXX  2      ca+a    Ca  1.500
CA38    24.517351824  140.081092724   14.124247685 XXX  2      ca+a    Ca  1.500
AL23    26.535549298  145.323807357   15.351447970 XXX  2      ac1     Al  1.200
AL24    26.831636641  142.018627373   15.583943388 XXX  2      ac1     Al  1.200
O67     26.302994068  143.637729017   15.450083806 XXX  2      oc3     O  -0.750
O68     22.966815826  143.739516257   11.810434278 XXX  2      oc3     O  -0.750
O69     26.559180768  141.225610660   14.079465723 XXX  2      oc4     O  -1.350
O70     26.934859121  139.383760970   11.338943574 XXX  2      oc4     O  -1.350
O71     24.968210456  145.926356808   16.002259865 XXX  2      oc4     O  -1.350
O72     28.128099489  145.641912097   16.144327092 XXX  2      oc4     O  -1.350
CA39    25.962449663  134.351231540    3.954615001 XXX  2      ca+a    Ca  1.500
CA40    28.262310719  136.148282342    2.203057941 XXX  2      ca+a    Ca  1.500
CA41    24.608499897  136.136073185    5.992646608 XXX  2      ca+a    Ca  1.500
CA42    28.257185085  135.806522531    6.260594678 XXX  2      ca+a    Ca  1.500
AL25    25.914545474  130.393284549    7.843707298 XXX  2      ac1     Al  1.200
AL26    26.031168059  133.882326344    8.063467075 XXX  2      ac1     Al  1.200
O73     26.378165817  132.097428162    8.030533478 XXX  2      oc3     O  -0.750
O74     14.315908026  132.374623342    4.154696635 XXX  2      oc3     O  -0.750
O75     26.275060910  134.430253952    6.440705336 XXX  2      oc4     O  -1.350
O76     25.690369317  136.511920799    3.813290253 XXX  2      oc4     O  -1.350
O77     27.233612868  129.275655671    8.085922317 XXX  2      oc4     O  -1.350
O78     24.363245549  130.282334146    8.715151242 XXX  2      oc4     O  -1.350
CA43    18.827413758  134.258362755   11.683686850 XXX  2      ca+a    Ca  1.500
CA44    21.792431154  130.260015546   15.305035949 XXX  2      ca+a    Ca  1.500
CA45    16.840521717  132.096720481   10.280394315 XXX  2      ca+a    Ca  1.500
CA46    20.644314296  133.050268766    9.163382951 XXX  2      ca+a    Ca  1.500
AL27    18.838122994  137.569705087    8.009819988 XXX  2      ac1     Al  1.200
AL28    18.272101853  134.090098106    7.921281338 XXX  2      ac1     Al  1.200
O79     19.008575604  135.754573090    7.895085391 XXX  2      oc3     O  -0.750
O80     22.910404032  135.876599067   11.476419769 XXX  2      oc3     O  -0.750
O81     18.509544106  133.339535383    9.494461251 XXX  2      oc4     O  -1.350
O82     18.611562233  147.249033830   12.028413182 XXX  2      oc4     O  -1.350
O83     20.341094094  138.112407589    7.230699240 XXX  2      oc4     O  -1.350
O84     17.205984113  137.864041221    7.364152920 XXX  2      oc4     O  -1.350
CA47    18.752181318  141.949987347    4.190196527 XXX  2      ca+a    Ca  1.500
CA48    16.858658838  143.808283321    6.377919887 XXX  2      ca+a    Ca  1.500
CA49    20.733206895  143.834842576    2.424884284 XXX  2      ca+a    Ca  1.500
CA50    16.913197598  143.781698964    2.028188757 XXX  2      ca+a    Ca  1.500
AL29    18.708901583  138.219486469    0.510706612 XXX  2      ac1     Al  1.200
AL30    19.119686563  141.619923595    0.195933661 XXX  2      ac1     Al  1.200
O85     18.934094997  139.832853955    0.012701332 XXX  2      oc3     O  -0.750
O86     30.364364834  139.695665615    4.133468098 XXX  2      oc3     O  -0.750
O87     18.565037223  142.049170327    1.817012203 XXX  2      oc4     O  -1.350
O88     18.976113365  129.402727169    4.483300600 XXX  2      oc4     O  -1.350
O89     17.198651250  137.683905185   -0.243043926 XXX  2      oc4     O  -1.350
O90     20.229993246  137.415845295    0.217112902 XXX  2      oc4     O  -1.350
CA51    27.934851059  143.667897522   10.014044109 XXX  2      ca+a    Ca  1.500
CA52    28.584263026  139.865391068    9.985500528 XXX  2      ca+a    Ca  1.500
AL31    30.255644886  141.743870670   15.341839964 XXX  2      ac1     Al  1.200
AL32    30.355108767  141.983226255   11.886915273 XXX  2      ac1     Al  1.200
O91     30.240493002  141.517753988   13.539555937 XXX  2      oc3     O  -0.750
O92     26.718683058  138.029710473   13.678918280 XXX  2      oc3     O  -0.750
O93     28.762657830  141.508473167   11.336130137 XXX  2      oc4     O  -1.350
O94     26.032001770  142.087695923    9.472246862 XXX  2      oc4     O  -1.350
O95     30.917861565  140.236665887   15.895402802 XXX  2      oc4     O  -1.350
O96     31.005374729  143.291928281   15.672513645 XXX  2      oc4     O  -1.350
CA53    20.210879131  139.955706876    5.878568886 XXX  2      ca+a    Ca  1.500
CA54    21.107020854  143.904073776    5.919290552 XXX  2      ca+a    Ca  1.500
AL33    22.465853670  141.917159866    0.545232060 XXX  2      ac1     Al  1.200
AL34    22.613219020  141.556634119    3.928647368 XXX  2      ac1     Al  1.200
O97     22.624283060  142.093039387    2.266404394 XXX  2      oc3     O  -0.750
O98     18.081294452  130.069931341    2.003459833 XXX  2      oc3     O  -0.750
O99     21.002515094  141.905311069    4.551727617 XXX  2      oc4     O  -1.350
O100    18.504257985  141.315355659    6.560623778 XXX  2      oc4     O  -1.350
O101    23.389904060  143.301188963   -0.011951927 XXX  2      oc4     O  -1.350
O102    23.023274647  140.286084914    0.164899939 XXX  2      oc4     O  -1.350
CA55    24.303001954  132.307057808    2.302869919 XXX  2      ca+a    Ca  1.500
CA56    24.211637651  136.241078447    2.148051403 XXX  2      ca+a    Ca  1.500
AL35    22.760484714  133.951426502    7.499040641 XXX  2      ac1     Al  1.200
AL36    22.316484096  133.824608144    4.094161620 XXX  2      ac1     Al  1.200
O103    22.714878100  134.113601621    5.754624399 XXX  2      oc3     O  -0.750
O104    26.051770825  137.939639074    6.037464738 XXX  2      oc3     O  -0.750
O105    23.786844852  134.213906168    3.230610623 XXX  2      oc4     O  -1.350
O106    26.248031097  133.450405316   16.934454357 XXX  2      oc4     O  -1.350
O107    21.674873423  135.164912695    8.153667308 XXX  2      oc4     O  -1.350
O108    22.379268079  132.308967484    7.913773875 XXX  2      oc4     O  -1.350
CA57    17.203204484  136.137169975   13.653010073 XXX  2      ca+a    Ca  1.500
CA58    16.166629596  132.060371674   13.839692057 XXX  2      ca+a    Ca  1.500
AL37    14.965375291  133.423200418    8.301282713 XXX  2      ac1     Al  1.200
AL38    14.697661815  134.205561344   11.560219090 XXX  2      ac1     Al  1.200
O109    14.423765923  133.957129316    9.902603263 XXX  2      oc3     O  -0.750
O110    19.004961620  145.867880756    9.733599425 XXX  2      oc3     O  -0.750
O111    15.993333218  133.123546895   11.988583942 XXX  2      oc4     O  -1.350
O112    18.954092599  134.612611121   -1.478339992 XXX  2      oc4     O  -1.350
O113    15.456345337  131.803926521    8.607812338 XXX  2      oc4     O  -1.350
O114    13.842697140  133.848472448    7.084802794 XXX  2      oc4     O  -1.350
CA59    24.582329963  144.042006924   13.520395429 XXX  2      ca+a    Ca  1.500
CA60    24.472160949  144.067712329    9.693514971 XXX  2      ca+a    Ca  1.500
AL39    30.262694640  145.464173334   11.686540757 XXX  2      ac1     Al  1.200
AL40    26.877130082  145.688326610   11.982623543 XXX  2      ac1     Al  1.200
O115    28.518416531  145.614284466   11.447934409 XXX  2      oc3     O  -0.750
O116    28.381832996  142.033696690    8.044252195 XXX  2      oc3     O  -0.750
O117    26.251858918  144.104031402   11.658952222 XXX  2      oc4     O  -1.350
O118    24.189026585  141.169576526   12.073918661 XXX  2      oc4     O  -1.350
O119    31.023802563  146.039006662   10.255249502 XXX  2      oc4     O  -1.350
O120    30.585048588  145.958657254   13.320048876 XXX  2      oc4     O  -1.350
CA61    20.785069740  136.302303508    9.906297264 XXX  2      ca+a    Ca  1.500
CA62    20.638535569  136.106744026   13.582119218 XXX  2      ca+a    Ca  1.500
AL41    15.151882637  137.660424949   11.746645141 XXX  2      ac1     Al  1.200
AL42    18.502734023  138.141384786   11.413558442 XXX  2      ac1     Al  1.200
O121    16.812825229  138.276864620   11.781476365 XXX  2      oc3     O  -0.750
O122    16.646074334  134.291482504   -0.148350347 XXX  2      oc3     O  -0.750
O123    19.000243921  136.560486245   11.814690419 XXX  2      oc4     O  -1.350
O124    20.950432971  134.032126613   11.095781079 XXX  2      oc4     O  -1.350
O125    14.289926262  138.225184897   13.147922717 XXX  2      oc4     O  -1.350
O126    14.416425491  137.882878917   10.135303451 XXX  2      oc4     O  -1.350
CA63    17.013513751  140.486256600    2.310198043 XXX  2      ca+a    Ca  1.500
CA64    16.915366719  139.782568194    6.222555533 XXX  2      ca+a    Ca  1.500
AL43    22.236640058  138.087059887    4.049037482 XXX  2      ac1     Al  1.200
AL44    18.792112614  138.042474261    3.840291038 XXX  2      ac1     Al  1.200
O127    20.496008898  137.871116338    4.318540787 XXX  2      oc3     O  -0.750
O128    20.981966524  141.695115867    7.623144673 XXX  2      oc3     O  -0.750
O129    18.300148600  139.565770830    4.467896840 XXX  2      oc4     O  -1.350
O130    31.744236616  142.035289814    3.590628267 XXX  2      oc4     O  -1.350
O131    22.826502760  137.288218202    5.531488017 XXX  2      oc4     O  -1.350
O132    22.497360663  137.521708348    2.426220450 XXX  2      oc4     O  -1.350
CA65    27.640205892  132.714734923    5.741170779 XXX  2      ca+a    Ca  1.500
CA66    27.482117884  131.401613484    2.506057036 XXX  2      ca+a    Ca  1.500
AL45    22.227626050  130.378955246    3.796556564 XXX  2      ac1     Al  1.200
AL46    25.557737681  130.493728765    4.491381371 XXX  2      ac1     Al  1.200
O133    23.989994279  130.202963375    3.739981376 XXX  2      oc3     O  -0.750
O134    24.104574734  134.313866230   15.572022879 XXX  2      oc3     O  -0.750
O135    26.052287892  132.124308539    4.162129703 XXX  2      oc4     O  -1.350
O136    13.120722061  134.707030902    4.063814889 XXX  2      oc4     O  -1.350
O137    21.536481079  129.721712855    2.396797990 XXX  2      oc4     O  -1.350
O138    21.696050436  129.991406382    5.349940276 XXX  2      oc4     O  -1.350
end
CA1     -0.083112998  145.693625200    0.350366288 XXX  1      ca+a    Ca  1.500
CA2      7.385779255  145.896900228    0.227146779 XXX  1      ca+a    Ca  1.500
CA3      3.602089298  149.750009907    4.120973018 XXX  1      ca+a    Ca  1.500
CA4      5.989958294  151.527215709    6.106662777 XXX  1      ca+a    Ca  1.500
CA5      1.941739871  151.773763447    2.185644317 XXX  1      ca+a    Ca  1.500
CA6      5.629660621  151.491007323    2.070003787 XXX  1      ca+a    Ca  1.500
AL1      3.779735274  145.942895177    0.412396026 XXX  1      ac1     Al  1.200
AL2      3.396881921  149.367669887    0.184570600 XXX  1      ac1     Al  1.200
O1       4.014689585  147.671779134    0.218482076 XXX  1      oc3     O  -0.750
O2       7.262605870  147.539231812    3.965781397 XXX  1      oc3     O  -0.750
O3       3.797687739  150.130086082    1.684024645 XXX  1      oc4     O  -1.350
O4       3.155545785  151.935825076    4.191644724 XXX  1      oc4     O  -1.350
O5       5.216611819  145.142824131   -0.038872440 XXX  1      oc4     O  -1.350
O6       2.285674297  145.665730403   -0.334785114 XXX  1      oc4     O  -1.350
CA1      7.458641627  145.619180584    7.801881117 XXX  2      ca+a    Ca  1.500
CA2     -0.350033482  146.067095642    7.993724982 XXX  2      ca+a    Ca  1.500
CA3      2.169331857  159.827407237   13.166500842 XXX  2      ca+a    Ca  1.500
CA4      2.338169430  156.006510710   13.154590157 XXX  2      ca+a    Ca  1.500
CA5      4.600287901  156.761570373   10.881918170 XXX  2      ca+a    Ca  1.500
CA6      1.622222672  155.371325030    9.567490334 XXX  2      ca+a    Ca  1.500
AL1      3.961474172  160.763794644    7.899441231 XXX  2      ac1     Al  1.200
AL2      3.840918354  157.399695512    7.646467286 XXX  2      ac1     Al  1.200
O1       3.478520309  159.103708052    7.714373115 XXX  2      oc3     O  -0.750
O2      15.496901529  159.168972928   11.343475298 XXX  2      oc3     O  -0.750
O3       3.307967952  156.723308637    9.148329572 XXX  2      oc4     O  -1.350
O4       4.143014477  154.970411538   12.129814292 XXX  2      oc4     O  -1.350
O5       2.474687116  161.675884889    7.708520000 XXX  2      oc4     O  -1.350
O6       5.411083661  160.937828516    7.005532374 XXX  2      oc4     O  -1.350
CA7     -0.132771668  153.413956035    7.829556399 XXX  2      ca+a    Ca  1.500
CA8      7.601217292  153.607840172    7.820941186 XXX  2      ca+a    Ca  1.500
CA9     11.411320232  157.450947560    4.170672774 XXX  2      ca+a    Ca  1.500
CA10     8.153159807  160.840395012    0.251247309 XXX  2      ca+a    Ca  1.500
CA11    13.481126415  159.365907812    2.416012326 XXX  2      ca+a    Ca  1.500
CA12     9.380672297  159.041326287    6.293175596 XXX  2      ca+a    Ca  1.500
AL3     11.277645560  153.692799515    7.945296679 XXX  2      ac1     Al  1.200
AL4     11.543395729  157.039935448    7.921849547 XXX  2      ac1     Al  1.200
O7      10.931673583  155.412411972    8.078295785 XXX  2      oc3     O  -0.750
O8       7.711282821  155.207829151    4.105142423 XXX  2      oc3     O  -0.750
O9      11.065842265  157.589130016    6.326940653 XXX  2      oc4     O  -1.350
O10     11.767129864  144.133040128    3.741353722 XXX  2      oc4     O  -1.350
O11      9.852743875  152.861707991    8.481017415 XXX  2      oc4     O  -1.350
O12     12.876518760  153.403685034    8.559273698 XXX  2      oc4     O  -1.350
CA13     7.244562702  153.609886218    0.527357017 XXX  2      ca+a    Ca  1.500
CA14    -0.059875053  153.878389937    0.209513833 XXX  2      ca+a    Ca  1.500
CA15    11.282898045  149.711771895   11.806090176 XXX  2      ca+a    Ca  1.500
CA16    12.890013234  147.910461325   10.135094370 XXX  2      ca+a    Ca  1.500
CA17     9.529659883  147.702890690   13.148631956 XXX  2      ca+a    Ca  1.500
CA18    13.142040274  147.952785368   13.935173734 XXX  2      ca+a    Ca  1.500
AL5     11.454383554  153.039935811   15.436022364 XXX  2      ac1     Al  1.200
AL6     10.977725601  149.669848685   15.570905837 XXX  2      ac1     Al  1.200
O13     11.606870102  151.291804270   15.496779302 XXX  2      oc3     O  -0.750
O14     -0.305208091  151.481246773   11.695306881 XXX  2      oc3     O  -0.750
O15     11.157003049  148.943768006   14.006726112 XXX  2      oc4     O  -1.350
O16     10.913064476  162.091738518   11.543277065 XXX  2      oc4     O  -1.350
O17     13.006252730  153.468147502   16.036156379 XXX  2      oc4     O  -1.350
O18      9.903759316  153.344316542   16.175152844 XXX  2      oc4     O  -1.350
CA19     2.123354644  147.734359925    6.081932913 XXX  2      ca+a    Ca  1.500
CA20     1.631531416  151.673925256    5.819523618 XXX  2      ca+a    Ca  1.500
AL7      0.006747436  149.453132463    0.601301071 XXX  2      ac1     Al  1.200
AL8     -0.161529814  149.232029655    4.021103746 XXX  2      ac1     Al  1.200
O19      0.010695704  149.727813403    2.365785085 XXX  2      oc3     O  -0.750
O20      3.874218856  153.313925022    2.109661970 XXX  2      oc3     O  -0.750
O21      1.368909240  149.554714497    4.844815201 XXX  2      oc4     O  -1.350
O22      3.996081548  149.047255677    6.410430847 XXX  2      oc4     O  -1.350
O23     -0.583834684  150.969970677   -0.010759032 XXX  2      oc4     O  -1.350
O24     -0.599095659  147.869487800    0.413318543 XXX  2      oc4     O  -1.350
CA21     9.419357236  151.235145876    9.848752429 XXX  2      ca+a    Ca  1.500
CA22     9.280262837  147.399170054    9.807750250 XXX  2      ca+a    Ca  1.500
AL9      7.597739654  149.392433842   15.320876449 XXX  2      ac1     Al  1.200
AL10     7.467312666  149.577477371   11.946960467 XXX  2      ac1     Al  1.200
O25      7.578532565  149.061994854   13.604610526 XXX  2      oc3     O  -0.750
O26     12.130667422  161.079959840   13.817738822 XXX  2      oc3     O  -0.750
O27      8.975386988  149.172279847   11.189773892 XXX  2      oc4     O  -1.350
O28     11.754605727  149.728256871    9.551727842 XXX  2      oc4     O  -1.350
O29      7.136783661  147.928878578   16.192301233 XXX  2      oc4     O  -1.350
O30      6.770965450  150.946001573   15.472921634 XXX  2      oc4     O  -1.350
CA23     5.683608865  158.636606683   13.483393953 XXX  2      ca+a    Ca  1.500
CA24     5.786535412  155.027022044   13.585924064 XXX  2      ca+a    Ca  1.500
AL11     7.230256531  157.220933391    8.189705037 XXX  2      ac1     Al  1.200
AL12     7.680565194  157.294331597   11.509234006 XXX  2      ac1     Al  1.200
O31      7.224829654  157.048248562    9.881193329 XXX  2      oc3     O  -0.750
O32      3.765751342  153.703788220    9.639967225 XXX  2      oc3     O  -0.750
O33      6.256757424  156.889478749   12.358871492 XXX  2      oc4     O  -1.350
O34      3.031304896  157.952999533   -1.038384366 XXX  2      oc4     O  -1.350
O35      8.141848842  155.889244179    7.591881342 XXX  2      oc4     O  -1.350
O36      7.751504070  158.857990905    7.821139350 XXX  2      oc4     O  -1.350
CA25    13.303699401  155.701003960    2.257229979 XXX  2      ca+a    Ca  1.500
CA26    14.183268402  160.698643626   -0.466640537 XXX  2      ca+a    Ca  1.500
AL13    14.935491271  157.218521295    7.721049568 XXX  2      ac1     Al  1.200
AL14    15.231007655  157.190090863    4.354802470 XXX  2      ac1     Al  1.200
O37     15.187567794  157.614776350    6.011355577 XXX  2      oc3     O  -0.750
O38     11.123560552  145.425208517    5.963171172 XXX  2      oc3     O  -0.750
O39     13.689618128  157.643145783    3.648452086 XXX  2      oc4     O  -1.350
O40     11.065413901  156.625684177   17.039646544 XXX  2      oc4     O  -1.350
O41     15.379289913  158.607501132    8.723891730 XXX  2      oc4     O  -1.350
O42     15.627494477  155.634300279    7.948973350 XXX  2      oc4     O  -1.350
CA27     5.404600619  148.210403740    2.361067103 XXX  2      ca+a    Ca  1.500
CA28     5.528446002  147.339032478    6.009796202 XXX  2      ca+a    Ca  1.500
AL15     0.162881316  145.780334358    4.288834101 XXX  2      ac1     Al  1.200
AL16     3.487510939  145.761556663    3.796867951 XXX  2      ac1     Al  1.200
O43      1.879602520  145.758066043    4.497539036 XXX  2      oc3     O  -0.750
O44      1.659796329  149.570977488    7.608768664 XXX  2      oc3     O  -0.750
O45      4.185137129  147.275438355    4.081412739 XXX  2      oc4     O  -1.350
O46      6.009533247  149.927196474    3.633214282 XXX  2      oc4     O  -1.350
O47     -0.443079933  145.031269540    5.834537978 XXX  2      oc4     O  -1.350
O48     -0.088974272  145.049222938    2.657574154 XXX  2      oc4     O  -1.350
CA29     9.499886637  155.884683394    5.830906560 XXX  2      ca+a    Ca  1.500
CA30     9.525810840  155.455151176    2.058163331 XXX  2      ca+a    Ca  1.500
AL17    14.869033268  153.677292310    4.078265048 XXX  2      ac1     Al  1.200
AL18    11.467688261  153.441378583    4.483851196 XXX  2      ac1     Al  1.200
O49     13.109644046  153.532372746    3.848418795 XXX  2      oc3     O  -0.750
O50     13.118615597  157.010443373   15.367333153 XXX  2      oc3     O  -0.750
O51     10.687594467  154.914760559    4.250800300 XXX  2      oc4     O  -1.350
O52      8.786702713  157.693519632    4.732636439 XXX  2      oc4     O  -1.350
O53     15.435887649  153.082994274    2.520104215 XXX  2      oc4     O  -1.350
O54     15.098277984  152.865569706    5.610241582 XXX  2      oc4     O  -1.350
CA31    13.434113781  151.824322741   13.670826526 XXX  2      ca+a    Ca  1.500
CA32    13.227870545  151.542028785    9.789787027 XXX  2      ca+a    Ca  1.500
AL19     7.937329642  152.979793211   11.691242918 XXX  2      ac1     Al  1.200
AL20    11.312832347  153.278891983   12.087450154 XXX  2      ac1     Al  1.200
O55      9.670422759  153.136470084   11.455931732 XXX  2      oc3     O  -0.750
O56      9.449858251  149.220438509    8.149118976 XXX  2      oc3     O  -0.750
O57     12.191447255  151.771465487   11.877832239 XXX  2      oc4     O  -1.350
O58     -1.611334877  149.000048734   11.989417056 XXX  2      oc4     O  -1.350
O59      7.442556426  153.517098521   10.113102302 XXX  2      oc4     O  -1.350
O60      7.633523015  153.744696055   13.199323091 XXX  2      oc4     O  -1.350
CA33     2.163598260  158.528530169    9.839972011 XXX  2      ca+a    Ca  1.500
CA34     2.270067125  162.428217178   10.065271950 XXX  2      ca+a    Ca  1.500
AL21     7.544353671  160.736402619   12.016588954 XXX  2      ac1     Al  1.200
AL22     4.314059864  160.549836784   11.275334340 XXX  2      ac1     Al  1.200
O61      5.814075222  160.785522809   12.108146472 XXX  2      oc3     O  -0.750
O62      5.491394401  157.293400455   -0.033165239 XXX  2      oc3     O  -0.750
O63      4.036091059  158.873315129   11.281683634 XXX  2      oc4     O  -1.350
O64     16.527779366  156.628757173   11.289181369 XXX  2      oc4     O  -1.350
O65      8.237271541  161.237862661   13.527994819 XXX  2      oc4     O  -1.350
O66      8.093146585  161.125458761   10.427008065 XXX  2      oc4     O  -1.350
CA35     9.915489721  159.940846381   10.226163555 XXX  2      ca+a    Ca  1.500
CA36     9.190276950  155.120873984    9.886692620 XXX  2      ca+a    Ca  1.500
CA37    11.266935085  157.058457097   11.625863232 XXX  2      ca+a    Ca  1.500
CA38     9.143582457  155.424477671   13.800469621 XXX  2      ca+a    Ca  1.500
AL23    11.694135285  160.818490665   15.438041414 XXX  2      ac1     Al  1.200
AL24    11.410656376  157.380686784   15.539987128 XXX  2      ac1     Al  1.200
O67     11.183061963  159.135125297   15.672259347 XXX  2      oc3     O  -0.750
O68      7.983917961  159.034328691   11.910786279 XXX  2      oc3     O  -0.750
O69     10.885232581  156.821231713   13.962753908 XXX  2      oc4     O  -1.350
O70     11.912393522  154.776373536   11.460585300 XXX  2      oc4     O  -1.350
O71     10.250155582  161.852893076   15.639324367 XXX  2      oc4     O  -1.350
O72     13.253727043  160.866602119   16.251673371 XXX  2      oc4     O  -1.350
CA39    11.317404739  149.660455110    3.862550925 XXX  2      ca+a    Ca  1.500
CA40    13.625141512  151.927607422    1.892622033 XXX  2      ca+a    Ca  1.500
CA41     9.781162411  151.581894122    5.931221032 XXX  2      ca+a    Ca  1.500
CA42    13.330383432  151.569565426    6.203392253 XXX  2      ca+a    Ca  1.500
AL25    11.392729066  145.865150844    7.641174008 XXX  2      ac1     Al  1.200
AL26    11.179469175  149.200898417    8.014548387 XXX  2      ac1     Al  1.200
O73     11.752956748  147.561508703    7.834166476 XXX  2      oc3     O  -0.750
O74     -0.425735293  147.449017519    4.251836897 XXX  2      oc3     O  -0.750
O75     11.524724997  150.067942462    6.468012879 XXX  2      oc4     O  -1.350
O76     10.869661886  151.904332613    3.906461157 XXX  2      oc4     O  -1.350
O77     12.825065518  144.998284251    8.112634382 XXX  2      oc4     O  -1.350
O78      9.836722450  145.674326739    8.386509453 XXX  2      oc4     O  -1.350
CA43     3.723286119  149.906460781   11.703526958 XXX  2      ca+a    Ca  1.500
CA44     5.240629250  147.905201044   13.347769102 XXX  2      ca+a    Ca  1.500
CA45     1.923778216  147.780653210   10.313126289 XXX  2      ca+a    Ca  1.500
CA46     5.551324566  148.072757456    9.524318791 XXX  2      ca+a    Ca  1.500
AL27     3.727305281  153.090134413    8.001550840 XXX  2      ac1     Al  1.200
AL28     3.375900185  149.696998280    7.887028878 XXX  2      ac1     Al  1.200
O79      3.906050876  151.368534401    7.937879558 XXX  2      oc3     O  -0.750
O80      7.329507646  151.338121650   11.752194865 XXX  2      oc3     O  -0.750
O81      3.593488321  149.032936562    9.462354823 XXX  2      oc4     O  -1.350
O82      3.037706029  161.503339384   11.879224688 XXX  2      oc4     O  -1.350
O83      5.217985475  153.530101762    7.217664635 XXX  2      oc4     O  -1.350
O84      2.157718360  153.370814513    7.333532752 XXX  2      oc4     O  -1.350
CA47     3.505732537  157.305301442    4.192802349 XXX  2      ca+a    Ca  1.500
CA48     0.549642278  160.654017634    7.879091967 XXX  2      ca+a    Ca  1.500
CA49     5.922361263  159.087683455    5.984861899 XXX  2      ca+a    Ca  1.500
CA50     1.625949168  158.989234302    1.769618346 XXX  2      ca+a    Ca  1.500
AL29     3.491871884  153.762094553    0.436170232 XXX  2      ac1     Al  1.200
AL30     3.741391471  157.153822588    0.299851266 XXX  2      ac1     Al  1.200
O85      3.216479320  155.515503715    0.217115327 XXX  2      oc3     O  -0.750
O86     15.400479651  155.389836944    4.193112458 XXX  2      oc3     O  -0.750
O87      3.369793956  157.642601873    1.871801766 XXX  2      oc4     O  -1.350
O88      4.206791387  144.229500739    4.267890648 XXX  2      oc4     O  -1.350
O89      2.026439379  152.865312811    0.109655025 XXX  2      oc4     O  -1.350
O90      5.077923789  153.392099556   -0.287604028 XXX  2      oc4     O  -1.350
CA51    13.327913665  158.758480793   10.007233257 XXX  2      ca+a    Ca  1.500
CA52    13.554345930  155.221452478    9.961395367 XXX  2      ca+a    Ca  1.500
AL31    14.895241419  157.239310675   15.333126162 XXX  2      ac1     Al  1.200
AL32    15.199178116  157.530207820   11.976611519 XXX  2      ac1     Al  1.200
O91     15.439236466  157.188524472   13.718659112 XXX  2      oc3     O  -0.750
O92     11.364535857  153.577169464   13.735442559 XXX  2      oc3     O  -0.750
O93     13.555205463  157.056942377   11.530702453 XXX  2      oc4     O  -1.350
O94     11.075763410  157.998638301    9.380955576 XXX  2      oc4     O  -1.350
O95     15.497414328  155.794881172   16.151320178 XXX  2      oc4     O  -1.350
O96     15.230697051  158.819003362   16.009553304 XXX  2      oc4     O  -1.350
CA53     4.909492919  155.312515078    5.893554311 XXX  2      ca+a    Ca  1.500
CA54     6.813536678  160.710555896    8.799057782 XXX  2      ca+a    Ca  1.500
AL33     7.172482058  157.383324631    0.621696862 XXX  2      ac1     Al  1.200
AL34     7.366621325  156.987930377    4.009278598 XXX  2      ac1     Al  1.200
O97      7.339656959  157.630453722    2.349067189 XXX  2      oc3     O  -0.750
O98      3.435856683  145.512117608    2.076067866 XXX  2      oc3     O  -0.750
O99      5.747273381  157.252771749    4.737684509 XXX  2      oc4     O  -1.350
O100     3.176375421  156.738560126    6.196103180 XXX  2      oc4     O  -1.350
O101     7.745235114  158.744587969   -0.190115896 XXX  2      oc4     O  -1.350
O102     7.779560897  155.812147098    0.389460693 XXX  2      oc4     O  -1.350
CA55     9.243938113  147.878273401    1.961643813 XXX  2      ca+a    Ca  1.500
CA56     9.319366562  151.744987626    2.370861316 XXX  2      ca+a    Ca  1.500
AL35     7.818348410  149.429040887    7.591902453 XXX  2      ac1     Al  1.200
AL36     7.539873853  149.282974082    4.182466009 XXX  2      ac1     Al  1.200
O103     7.685252640  149.753859237    5.895555862 XXX  2      oc3     O  -0.750
O104    11.489130892  153.194990093    6.297006586 XXX  2      oc3     O  -0.750
O105     9.054692226  149.603134168    3.404218186 XXX  2      oc4     O  -1.350
O106    11.584869570  148.987609380   17.039714900 XXX  2      oc4     O  -1.350
O107     7.311270371  150.924522339    8.350639939 XXX  2      oc4     O  -1.350
O108     6.971537766  147.899314839    7.871833718 XXX  2      oc4     O  -1.350
CA57     1.470898339  151.550394474   13.917137262 XXX  2      ca+a    Ca  1.500
CA58     1.546907456  147.680295802   13.619424279 XXX  2      ca+a    Ca  1.500
AL37     0.001237805  149.553350197    8.163102755 XXX  2      ac1     Al  1.200
AL38    -0.157893602  149.741674081   11.470568802 XXX  2      ac1     Al  1.200
O109    -0.039991430  149.199298280    9.862029787 XXX  2      oc3     O  -0.750
O110     4.415756177  160.966830059    9.570693149 XXX  2      oc3     O  -0.750
O111     1.340288366  149.333330857   12.202240220 XXX  2      oc4     O  -1.350
O112     3.976790947  149.966628845   -1.343585258 XXX  2      oc4     O  -1.350
O113    -0.711853541  148.089137281    7.517884821 XXX  2      oc4     O  -1.350
O114    -0.729586398  151.108229382    7.943858601 XXX  2      oc4     O  -1.350
CA59     9.796340338  158.801549168   13.521772290 XXX  2      ca+a    Ca  1.500
CA60     9.922923519  162.635197163   13.461449701 XXX  2      ca+a    Ca  1.500
AL39    15.214422273  160.909413276   11.369434982 XXX  2      ac1     Al  1.200
AL40    11.973940839  160.867276562   12.116698534 XXX  2      ac1     Al  1.200
O115    13.507078972  160.935622952   11.273998507 XXX  2      oc3     O  -0.750
O116    13.259108677  157.096253071    8.170345072 XXX  2      oc3     O  -0.750
O117    11.312201353  159.272723428   11.886315364 XXX  2      oc4     O  -1.350
O118     9.156954770  156.378730442   11.770140323 XXX  2      oc4     O  -1.350
O119    15.820569775  161.556952882    9.921795209 XXX  2      oc4     O  -1.350
O120    15.688911416  161.339130010   12.966056723 XXX  2      oc4     O  -1.350
CA61     5.872991695  152.003431110    9.793242048 XXX  2      ca+a    Ca  1.500
CA62     5.488126369  151.588248255   13.740247398 XXX  2      ca+a    Ca  1.500
AL41     0.293680294  153.138672866   11.740229625 XXX  2      ac1     Al  1.200
AL42     3.671255138  153.490537282   11.361352674 XXX  2      ac1     Al  1.200
O121     2.026464588  153.163098904   11.935544569 XXX  2      oc3     O  -0.750
O122     1.635580561  149.426535139   -0.008864647 XXX  2      oc3     O  -0.750
O123     4.519897983  151.997159683   11.612884839 XXX  2      oc4     O  -1.350
O124     5.927343324  148.914386714   11.515789878 XXX  2      oc4     O  -1.350
O125    -0.281226956  153.431689303   13.339714933 XXX  2      oc4     O  -1.350
O126    -0.154086342  153.831678388   10.152501412 XXX  2      oc4     O  -1.350
CA63     1.845416993  155.989753974    2.219612805 XXX  2      ca+a    Ca  1.500
CA64     1.641743164  155.172806747    6.042683590 XXX  2      ca+a    Ca  1.500
AL43     7.231195629  153.548444602    4.145754988 XXX  2      ac1     Al  1.200
AL44     3.859053725  153.455109794    3.790414228 XXX  2      ac1     Al  1.200
O127     5.496692952  153.448230206    4.402575028 XXX  2      oc3     O  -0.750
O128     5.583094409  157.117023534    7.562849433 XXX  2      oc3     O  -0.750
O129     3.039426373  154.976853746    4.217935009 XXX  2      oc4     O  -1.350
O130    16.768432471  157.801628179    3.713134067 XXX  2      oc4     O  -1.350
O131     7.919931182  152.731120361    5.622481588 XXX  2      oc4     O  -1.350
O132     7.435535709  152.908261490    2.585331487 XXX  2      oc4     O  -1.350
CA65    13.125968583  148.210194175    5.838446969 XXX  2      ca+a    Ca  1.500
CA66    13.077851635  147.509174187    2.150151517 XXX  2      ca+a    Ca  1.500
AL45     7.829338578  145.845590383    3.951752794 XXX  2      ac1     Al  1.200
AL46    11.169736616  145.696604468    4.257016500 XXX  2      ac1     Al  1.200
O133     9.533776970  145.799508838    3.653918619 XXX  2      oc3     O  -0.750
O134     9.242303740  149.673188413   15.843474075 XXX  2      oc3     O  -0.750
O135    11.913848875  147.245316935    4.099666439 XXX  2      oc4     O  -1.350
O136    -1.572089115  149.909407865    4.512689704 XXX  2      oc4     O  -1.350
O137     7.203210567  145.057205538    2.495089844 XXX  2      oc4     O  -1.350
O138     7.647417185  145.060642457    5.545183051 XXX  2      oc4     O  -1.350
end
CA1     15.078990867  145.650654519    0.266514252 XXX  1      ca+a    Ca  1.500
CA2     22.554867772  145.955794819    0.326327038 XXX  1      ca+a    Ca  1.500
CA3     18.918651066  149.787504726    4.269488986 XXX  1      ca+a    Ca  1.500
CA4     21.201277692  151.795877560    6.314010795 XXX  1      ca+a    Ca  1.500
CA5     17.251581153  151.627704331    2.198366950 XXX  1      ca+a    Ca  1.500
CA6     20.928681184  151.499290766    2.137520214 XXX  1      ca+a    Ca  1.500
AL1     19.012333892  145.979032099    0.496408150 XXX  1      ac1     Al  1.200
AL2     18.737804976  149.399856615    0.226578966 XXX  1      ac1     Al  1.200
O1      19.304867882  147.681085534    0.333757891 XXX  1      oc3     O  -0.750
O2      22.567309190  147.561692486    4.072799929 XXX  1      oc3     O  -0.750
O3      19.141489951  150.059800496    1.819159656 XXX  1      oc4     O  -1.350
O4      18.411427325  151.847772886    4.277818968 XXX  1      oc4     O  -1.350
O5      20.437039701  145.065380848   -0.024276187 XXX  1      oc4     O  -1.350
O6      17.456326632  145.613927354   -0.181444104 XXX  1      oc4     O  -1.350
CA1     22.761253485  145.827521258    7.868418221 XXX  2      ca+a    Ca  1.500
CA2     15.003832184  145.870818023    7.915083462 XXX  2      ca+a    Ca  1.500
CA3     17.418005061  162.681038871   13.072148850 XXX  2      ca+a    Ca  1.500
CA4     17.559086819  155.893340323   13.072240109 XXX  2      ca+a    Ca  1.500
CA5     20.376711040  155.563020825   10.259291509 XXX  2      ca+a    Ca  1.500
CA6     17.027469109  155.232238655    9.702559626 XXX  2      ca+a    Ca  1.500
AL1     19.030299696  160.814394191    7.644557199 XXX  2      ac1     Al  1.200
AL2     19.115981209  157.379458052    7.768701806 XXX  2      ac1     Al  1.200
O1      18.652654201  159.073898210    7.608485462 XXX  2      oc3     O  -0.750
O2      30.790995233  159.112277936   11.442179241 XXX  2      oc3     O  -0.750
O3      18.566274565  156.760915130    9.258268653 XXX  2      oc4     O  -1.350
O4      19.405177008  154.731372976   12.188185234 XXX  2      oc4     O  -1.350
O5      17.565041146  161.722001407    7.322487772 XXX  2      oc4     O  -1.350
O6      20.542107058  160.993638823    6.818089388 XXX  2      oc4     O  -1.350
CA7     15.070711340  153.493661351    7.856939744 XXX  2      ca+a    Ca  1.500
CA8     22.924563970  153.821690090    8.119297895 XXX  2      ca+a    Ca  1.500
CA9     26.659491652  157.125667899    4.218496368 XXX  2      ca+a    Ca  1.500
CA10    23.229709279  160.859096514    0.242571419 XXX  2      ca+a    Ca  1.500
CA11    28.702864317  159.338540687    2.210400756 XXX  2      ca+a    Ca  1.500
CA12    24.573853000  158.921291986    6.441241724 XXX  2      ca+a    Ca  1.500
AL3     26.407690237  153.786401988    7.863537430 XXX  2      ac1     Al  1.200
AL4     26.681284418  157.193710321    7.955241659 XXX  2      ac1     Al  1.200
O7      26.238327380  155.504358717    8.199514936 XXX  2      oc3     O  -0.750
O8      22.949576547  155.310742705    4.056861669 XXX  2      oc3     O  -0.750
O9      26.221247705  157.483246045    6.367642383 XXX  2      oc4     O  -1.350
O10     27.026765808  144.240673640    3.896278960 XXX  2      oc4     O  -1.350
O11     24.978216976  152.905362647    8.324828927 XXX  2      oc4     O  -1.350
O12     27.873365923  153.357058315    8.581074940 XXX  2      oc4     O  -1.350
CA13    22.638833755  153.455455189    0.468361153 XXX  2      ca+a    Ca  1.500
CA14    15.287831139  153.966750456    0.297628842 XXX  2      ca+a    Ca  1.500
CA15    26.611128412  149.807701949   11.850767499 XXX  2      ca+a    Ca  1.500
CA16    28.091355769  148.046781016   10.096651391 XXX  2      ca+a    Ca  1.500
CA17    24.874671973  147.717108286   13.161045985 XXX  2      ca+a    Ca  1.500
CA18    28.635889557  147.797213375   13.782127449 XXX  2      ca+a    Ca  1.500
AL5     26.498703125  153.148427698   15.408282542 XXX  2      ac1     Al  1.200
AL6     26.225604574  149.722620432   15.550365775 XXX  2      ac1     Al  1.200
O13     26.743555576  151.417292695   15.359817846 XXX  2      oc3     O  -0.750
O14     14.855525801  151.471797106   11.714468751 XXX  2      oc3     O  -0.750
O15     26.542929038  148.935978561   14.011661054 XXX  2      oc4     O  -1.350
O16     25.991954385  161.787531252   11.738914833 XXX  2      oc4     O  -1.350
O17     28.030518079  153.573146039   16.060347634 XXX  2      oc4     O  -1.350
O18     25.022245384  153.426375302   16.203944131 XXX  2      oc4     O  -1.350
CA19    17.323439297  147.844706076    6.013875455 XXX  2      ca+a    Ca  1.500
CA20    16.917823634  151.549093398    5.947698160 XXX  2      ca+a    Ca  1.500
AL7     15.303433732  149.507018113    0.580786175 XXX  2      ac1     Al  1.200
AL8     15.114320259  149.260668166    3.933410041 XXX  2      ac1     Al  1.200
O19     15.156222549  149.796766337    2.260149828 XXX  2      oc3     O  -0.750
O20     19.246100839  153.261665832    2.087959636 XXX  2      oc3     O  -0.750
O21     16.692688283  149.463025089    4.655061587 XXX  2      oc4     O  -1.350
O22     19.264788884  148.987427153    6.422281101 XXX  2      oc4     O  -1.350
O23     14.686393029  150.933238289   -0.114578650 XXX  2      oc4     O  -1.350
O24     14.647633915  147.900478126    0.251732021 XXX  2      oc4     O  -1.350
CA21    25.117516869  151.426769486   10.008334661 XXX  2      ca+a    Ca  1.500
CA22    24.336849574  147.600212865    9.780282748 XXX  2      ca+a    Ca  1.500
AL9     22.944010779  149.436587615   15.276288004 XXX  2      ac1     Al  1.200
AL10    22.811925866  149.761270468   11.936385012 XXX  2      ac1     Al  1.200
O25     22.921907626  149.256267728   13.574543247 XXX  2      oc3     O  -0.750
O26     27.288878839  160.899316700   13.961364389 XXX  2      oc3     O  -0.750
O27     24.367245739  149.426077768   11.212793448 XXX  2      oc4     O  -1.350
O28     27.004171813  149.985319012    9.455548204 XXX  2      oc4     O  -1.350
O29     22.151015450  147.989115985   15.856842088 XXX  2      oc4     O  -1.350
O30     22.341052586  151.005174161   15.560893875 XXX  2      oc4     O  -1.350
CA23    19.840215149  158.465934037   12.681173819 XXX  2      ca+a    Ca  1.500
CA24    21.028027543  155.240949160   13.536181242 XXX  2      ca+a    Ca  1.500
AL11    22.488146995  157.434035930    8.222543454 XXX  2      ac1     Al  1.200
AL12    22.667534608  157.565328678   11.612606375 XXX  2      ac1     Al  1.200
O31     22.953464829  157.495324949    9.883517033 XXX  2      oc3     O  -0.750
O32     18.938285781  153.576375749    9.801027412 XXX  2      oc3     O  -0.750
O33     21.151488175  156.872229001   11.990601636 XXX  2      oc4     O  -1.350
O34     18.463691752  158.065813229   -1.033559616 XXX  2      oc4     O  -1.350
O35     23.336549722  156.064849015    7.489029284 XXX  2      oc4     O  -1.350
O36     22.717527230  159.046863831    7.538120000 XXX  2      oc4     O  -1.350
CA25    28.453497623  155.525302814    2.110451484 XXX  2      ca+a    Ca  1.500
CA26    29.525863056  160.873402871   -0.627624337 XXX  2      ca+a    Ca  1.500
AL13    30.076668534  157.354569811    7.689236761 XXX  2      ac1     Al  1.200
AL14    30.401089173  157.183283011    4.244644977 XXX  2      ac1     Al  1.200
O37     30.392315357  157.724404706    5.945988040 XXX  2      oc3     O  -0.750
O38     26.529095624  145.431024816    6.113724426 XXX  2      oc3     O  -0.750
O39     28.807688043  157.499927370    3.531778266 XXX  2      oc4     O  -1.350
O40     26.571167348  156.802596328   17.294382032 XXX  2      oc4     O  -1.350
O41     30.810485133  158.690624062    8.596481867 XXX  2      oc4     O  -1.350
O42     30.624998241  155.660819941    7.985698739 XXX  2      oc4     O  -1.350
CA27    20.640682382  148.224233827    2.427125715 XXX  2      ca+a    Ca  1.500
CA28    20.850575237  147.430327049    6.021563315 XXX  2      ca+a    Ca  1.500
AL15    15.391025660  145.768247880    4.196863596 XXX  2      ac1     Al  1.200
AL16    18.737242244  145.663810239    3.930588881 XXX  2      ac1     Al  1.200
O43     17.093724619  145.679102934    4.518752612 XXX  2      oc3     O  -0.750
O44     17.042798028  149.579099302    7.708431735 XXX  2      oc3     O  -0.750
O45     19.456139636  147.260494871    4.138679325 XXX  2      oc4     O  -1.350
O46     21.225532593  149.914600092    3.811593402 XXX  2      oc4     O  -1.350
O47     14.899951409  145.032215643    5.680348435 XXX  2      oc4     O  -1.350
O48     15.241691717  145.084682546    2.631057685 XXX  2      oc4     O  -1.350
CA29    24.654050429  155.716181561    5.754921055 XXX  2      ca+a    Ca  1.500
CA30    24.859656396  155.397146347    2.205787499 XXX  2      ca+a    Ca  1.500
AL17    30.071060382  153.653347631    4.061076591 XXX  2      ac1     Al  1.200
AL18    26.696632799  153.448171196    4.424141749 XXX  2      ac1     Al  1.200
O49     28.370479267  153.518616065    3.807560218 XXX  2      oc3     O  -0.750
O50     28.297106899  157.266230629   15.201196119 XXX  2      oc3     O  -0.750
O51     25.926261461  154.943333082    4.103793991 XXX  2      oc4     O  -1.350
O52     24.156485307  157.671497762    4.704075791 XXX  2      oc4     O  -1.350
O53     30.621586060  152.840299293    2.601959760 XXX  2      oc4     O  -1.350
O54     30.418936823  152.978229305    5.595895925 XXX  2      oc4     O  -1.350
CA31    28.614947422  152.010091188   13.579356810 XXX  2      ca+a    Ca  1.500
CA32    28.475740579  151.816741628    9.807585507 XXX  2      ca+a    Ca  1.500
AL19    22.937722187  153.212620657   11.681418243 XXX  2      ac1     Al  1.200
AL20    26.322574589  153.551142259   12.037397597 XXX  2      ac1     Al  1.200
O55     24.691960391  153.382927930   11.457290832 XXX  2      oc3     O  -0.750
O56     24.630982739  149.599230053    8.287946483 XXX  2      oc3     O  -0.750
O57     27.098818561  152.004593689   11.689774975 XXX  2      oc4     O  -1.350
O58     13.685693873  148.928742851   12.082424267 XXX  2      oc4     O  -1.350
O59     22.068952752  153.740977560   10.207073900 XXX  2      oc4     O  -1.350
O60     22.674713011  153.827973404   13.270995946 XXX  2      oc4     O  -1.350
CA33    17.391233281  158.548806363   10.073024067 XXX  2      ca+a    Ca  1.500
CA34    17.363331688  162.906121237    9.193490363 XXX  2      ca+a    Ca  1.500
AL21    22.470585186  161.030376373   12.079305706 XXX  2      ac1     Al  1.200
AL22    19.317381775  161.387780611   10.922043970 XXX  2      ac1     Al  1.200
O61     20.826201640  161.533532854   11.775975307 XXX  2      oc3     O  -0.750
O62     20.808995516  157.419579648    0.108195211 XXX  2      oc3     O  -0.750
O63     18.736423866  159.778593470   11.326724894 XXX  2      oc4     O  -1.350
O64     32.085394555  156.704803907   11.226728322 XXX  2      oc4     O  -1.350
O65     23.039916630  161.715261582   13.598611795 XXX  2      oc4     O  -1.350
O66     23.239196280  161.164450579   10.481839604 XXX  2      oc4     O  -1.350
CA35    24.945088185  159.833656518   10.493498176 XXX  2      ca+a    Ca  1.500
CA36    25.057905690  156.200574865   10.293702288 XXX  2      ca+a    Ca  1.500
CA37    27.327162339  156.801430099   12.760850092 XXX  2      ca+a    Ca  1.500
CA38    24.309950769  155.280523875   13.933756108 XXX  2      ca+a    Ca  1.500
AL23    26.704794177  160.860923628   15.570002770 XXX  2      ac1     Al  1.200
AL24    26.639224870  157.506427836   15.727754213 XXX  2      ac1     Al  1.200
O67     26.238862212  159.238388755   15.889927264 XXX  2      oc3     O  -0.750
O68     22.643865104  159.225355410   12.256896903 XXX  2      oc3     O  -0.750
O69     25.857330129  156.874074782   14.380877457 XXX  2      oc4     O  -1.350
O70     26.750753476  155.026239583   11.292682813 XXX  2      oc4     O  -1.350
O71     25.305388058  161.933913159   15.536215054 XXX  2      oc4     O  -1.350
O72     28.169845824  161.123029967   16.515382849 XXX  2      oc4     O  -1.350
CA39    26.591081915  149.701630589    3.985121663 XXX  2      ca+a    Ca  1.500
CA40    28.852176953  151.740920881    1.937417447 XXX  2      ca+a    Ca  1.500
CA41    24.953386829  151.631755235    5.967941962 XXX  2      ca+a    Ca  1.500
CA42    28.638363781  151.578428775    6.134565310 XXX  2      ca+a    Ca  1.500
AL25    26.616082274  145.985667051    7.783908699 XXX  2      ac1     Al  1.200
AL26    26.338383578  149.422985224    7.986052405 XXX  2      ac1     Al  1.200
O73     26.922749360  147.747387620    7.925893777 XXX  2      oc3     O  -0.750
O74     14.829736312  147.471594814    4.053790111 XXX  2      oc3     O  -0.750
O75     26.695243506  150.067215858    6.406926900 XXX  2      oc4     O  -1.350
O76     26.104209823  151.894996616    3.938573145 XXX  2      oc4     O  -1.350
O77     27.994788325  145.185535856    8.411237320 XXX  2      oc4     O  -1.350
O78     24.988813780  145.661765501    8.348479976 XXX  2      oc4     O  -1.350
CA43    17.521685095  151.332126415   13.534292283 XXX  2      ca+a    Ca  1.500
CA44    19.127272670  149.546945803   11.679179337 XXX  2      ca+a    Ca  1.500
CA45    17.187177364  147.716846855   10.340711744 XXX  2      ca+a    Ca  1.500
CA46    21.004881657  147.778259771    9.641164087 XXX  2      ca+a    Ca  1.500
AL27    19.040305426  153.071792377    8.058979358 XXX  2      ac1     Al  1.200
AL28    18.751586753  149.658388343    7.946734238 XXX  2      ac1     Al  1.200
O79     19.337560371  151.331428020    8.025181129 XXX  2      oc3     O  -0.750
O80     22.495679482  151.457585832   11.720469087 XXX  2      oc3     O  -0.750
O81     19.053999831  148.807994548    9.488827097 XXX  2      oc4     O  -1.350
O82     18.396247025  162.871305930   11.215298475 XXX  2      oc4     O  -1.350
O83     20.492785928  153.782972776    7.489859180 XXX  2      oc4     O  -1.350
O84     17.452298240  153.286877252    7.289586097 XXX  2      oc4     O  -1.350
CA47    18.966171574  157.415521777    4.229486228 XXX  2      ca+a    Ca  1.500
CA48    15.705215422  160.594672651    7.945397981 XXX  2      ca+a    Ca  1.500
CA49    21.245709397  159.235278527    5.867029384 XXX  2      ca+a    Ca  1.500
CA50    17.015491648  159.090416001    2.026335815 XXX  2      ca+a    Ca  1.500
AL29    18.914141902  153.777252902    0.453726243 XXX  2      ac1     Al  1.200
AL30    19.110912046  157.269403368    0.394426991 XXX  2      ac1     Al  1.200
O85     18.606707224  155.558886751    0.337150730 XXX  2      oc3     O  -0.750
O86     30.670980621  155.374978949    4.053822988 XXX  2      oc3     O  -0.750
O87     18.739685686  157.793265201    1.948224245 XXX  2      oc4     O  -1.350
O88     19.428773275  144.188870805    4.423474209 XXX  2      oc4     O  -1.350
O89     17.423099333  152.973783341    0.230068138 XXX  2      oc4     O  -1.350
O90     20.436964499  153.464297967   -0.354737824 XXX  2      oc4     O  -1.350
CA51    28.090603664  158.719100233   10.188485590 XXX  2      ca+a    Ca  1.500
CA52    28.611181142  155.251498586    9.863516247 XXX  2      ca+a    Ca  1.500
AL31    30.055271558  157.369876210   15.291381471 XXX  2      ac1     Al  1.200
AL32    30.626694725  157.416348629   11.853693111 XXX  2      ac1     Al  1.200
O91     30.731060726  157.194904039   13.661499174 XXX  2      oc3     O  -0.750
O92     26.412559204  153.749453739   13.779842489 XXX  2      oc3     O  -0.750
O93     29.043907180  156.977020313   11.259795069 XXX  2      oc4     O  -1.350
O94     26.023194934  158.055836537    9.334737203 XXX  2      oc4     O  -1.350
O95     30.509912463  155.952397534   16.253962699 XXX  2      oc4     O  -1.350
O96     30.375001499  159.028695604   15.900567884 XXX  2      oc4     O  -1.350
CA53    20.774213369  155.518519367    6.077785148 XXX  2      ca+a    Ca  1.500
CA54    21.891977584  161.040318603    8.710879163 XXX  2      ca+a    Ca  1.500
AL33    22.477929742  157.316876909    0.530859013 XXX  2      ac1     Al  1.200
AL34    22.713393322  157.070375856    3.896926413 XXX  2      ac1     Al  1.200
O97     22.682376174  157.662604384    2.245715332 XXX  2      oc3     O  -0.750
O98     18.814114443  145.491070546    2.155740837 XXX  2      oc3     O  -0.750
O99     21.188748922  157.448308313    4.670224983 XXX  2      oc4     O  -1.350
O100    18.861878049  156.575428416    6.248172150 XXX  2      oc4     O  -1.350
O101    23.166023809  158.716266474   -0.283653415 XXX  2      oc4     O  -1.350
O102    22.889336231  155.652595226    0.310148296 XXX  2      oc4     O  -1.350
CA55    24.755518746  147.848400884    2.096942010 XXX  2      ca+a    Ca  1.500
CA56    24.523981290  151.658395947    2.447257687 XXX  2      ca+a    Ca  1.500
AL35    22.961165549  149.594527094    7.674796097 XXX  2      ac1     Al  1.200
AL36    22.793833450  149.306822920    4.318321920 XXX  2      ac1     Al  1.200
O103    22.910999689  149.804909426    5.959197399 XXX  2      oc3     O  -0.750
O104    26.681216795  153.283717820    6.135691388 XXX  2      oc3     O  -0.750
O105    24.261900066  149.616580758    3.478651434 XXX  2      oc4     O  -1.350
O106    26.847859391  149.050721464   16.987146005 XXX  2      oc4     O  -1.350
O107    22.094184527  150.940181087    8.303614346 XXX  2      oc4     O  -1.350
O108    22.479077236  147.945996902    7.919001888 XXX  2      oc4     O  -1.350
CA57    15.343022103  153.600444963   15.486986992 XXX  2      ca+a    Ca  1.500
CA58    16.863953730  147.528667842   13.664963909 XXX  2      ca+a    Ca  1.500
AL37    15.362594200  149.423090961    8.203477174 XXX  2      ac1     Al  1.200
AL38    15.107037789  149.751129598   11.559656985 XXX  2      ac1     Al  1.200
O109    15.203090717  149.173115674    9.927289951 XXX  2      oc3     O  -0.750
O110    19.523181723  161.341675210    9.230710775 XXX  2      oc3     O  -0.750
O111    16.680815327  149.348650695   12.331202026 XXX  2      oc4     O  -1.350
O112    19.364412607  149.907146423   -1.263164052 XXX  2      oc4     O  -1.350
O113    14.836033820  147.936834317    7.461623511 XXX  2      oc4     O  -1.350
O114    14.554235448  150.954316422    7.969838325 XXX  2      oc4     O  -1.350
CA59    24.661151951  158.570395989   13.568789523 XXX  2      ca+a    Ca  1.500
CA60    24.982107587  162.564821249   13.438182292 XXX  2      ca+a    Ca  1.500
AL39    30.305713849  160.798305594   11.487704067 XXX  2      ac1     Al  1.200
AL40    27.114051029  160.648505257   12.261641138 XXX  2      ac1     Al  1.200
O115    28.581402341  160.903386966   11.388985335 XXX  2      oc3     O  -0.750
O116    28.391656264  157.462093231    8.126382864 XXX  2      oc3     O  -0.750
O117    26.536516411  159.014156580   12.062336054 XXX  2      oc4     O  -1.350
O118    24.094191250  156.850643152   12.231293805 XXX  2      oc4     O  -1.350
O119    30.854134476  161.521691260    9.977014688 XXX  2      oc4     O  -1.350
O120    30.810227988  161.199763425   13.121573107 XXX  2      oc4     O  -1.350
CA61    21.022052403  151.800461304    9.929627729 XXX  2      ca+a    Ca  1.500
CA62    20.992557678  151.664175797   13.754959575 XXX  2      ca+a    Ca  1.500
AL41    15.458982680  153.162815831   11.771611219 XXX  2      ac1     Al  1.200
AL42    18.856714728  153.291223247   11.570202602 XXX  2      ac1     Al  1.200
O121    17.233660112  153.218068887   12.059812430 XXX  2      oc3     O  -0.750
O122    17.027171736  149.532586866    0.057068753 XXX  2      oc3     O  -0.750
O123    19.560853741  151.697166278   11.818989884 XXX  2      oc4     O  -1.350
O124    21.383568770  148.817031576   11.511159854 XXX  2      oc4     O  -1.350
O125    14.684286659  153.764650846   13.171207082 XXX  2      oc4     O  -1.350
O126    15.227364493  153.810289594   10.168921979 XXX  2      oc4     O  -1.350
CA63    17.216469261  155.853313264    2.387707689 XXX  2      ca+a    Ca  1.500
CA64    17.195496723  155.199480083    6.070317672 XXX  2      ca+a    Ca  1.500
AL43    22.403489683  153.641946563    4.200492259 XXX  2      ac1     Al  1.200
AL44    19.058194754  153.410039284    3.792305695 XXX  2      ac1     Al  1.200
O127    20.695455036  153.553153649    4.505038956 XXX  2      oc3     O  -0.750
O128    20.776721550  157.047657123    7.962774407 XXX  2      oc3     O  -0.750
O129    18.295291040  154.931625978    4.003870357 XXX  2      oc4     O  -1.350
O130    31.820275931  157.776282662    3.488173000 XXX  2      oc4     O  -1.350
O131    23.122579744  153.093949379    5.681628008 XXX  2      oc4     O  -1.350
O132    22.642857848  152.816260031    2.740160704 XXX  2      oc4     O  -1.350
CA65    28.310196558  148.335175060    5.848456460 XXX  2      ca+a    Ca  1.500
CA66    28.405873547  147.580736346    2.192732560 XXX  2      ca+a    Ca  1.500
AL45    23.095331392  145.834309669    4.056764479 XXX  2      ac1     Al  1.200
AL46    26.421541990  145.761915163    4.412332012 XXX  2      ac1     Al  1.200
O133    24.792568164  145.716491689    3.771489839 XXX  2      oc3     O  -0.750
O134    24.532996426  149.532487050   15.821509979 XXX  2      oc3     O  -0.750
O135    27.147183541  147.320045889    4.128248869 XXX  2      oc4     O  -1.350
O136    13.654833538  149.912132046    4.613375847 XXX  2      oc4     O  -1.350
O137    22.497107740  145.042491416    2.600037440 XXX  2      oc4     O  -1.350
O138    22.807150591  145.269665141    5.659975385 XXX  2      oc4     O  -1.350
end
CA1      0.753182424   -0.064217277   15.912300689 XXX  1      ca+a    Ca  1.500
CA2      5.329635112   -1.604692518   17.301902558 XXX  1      ca+a    Ca  1.500
CA3      3.910646382    4.100606605   19.015826814 XXX  1      ca+a    Ca  1.500
CA4      6.209663090    5.908803212   20.859305135 XXX  1      ca+a    Ca  1.500
CA5      2.278929856    5.657045457   17.131863309 XXX  1      ca+a    Ca  1.500
CA6      5.992794132    5.580365103   16.643608022 XXX  1      ca+a    Ca  1.500
AL1      3.631555779    0.134838117   15.130755053 XXX  1      ac1     Al  1.200
AL2      3.702869342    3.629344020   14.736184364 XXX  1      ac1     Al  1.200
O1       4.072173113    1.856545087   14.661843310 XXX  1      oc3     O  -0.750
O2       7.123197441    2.251431257   18.572602896 XXX  1      oc3     O  -0.750
O3       3.939016826    4.134853997   16.443927667 XXX  1      oc4     O  -1.350
O4       3.367009128    6.314653114   19.145005656 XXX  1      oc4     O  -1.350
O5       5.037534885   -0.905647735   15.059849234 XXX  1      oc4     O  -1.350
O6       2.156000257   -0.255973431   14.283042546 XXX  1      oc4     O  -1.350
CA1      8.280599588    0.267820485   21.651179994 XXX  2      ca+a    Ca  1.500
CA2     -2.362437353   -1.617193972   20.410067320 XXX  2      ca+a    Ca  1.500
CA3      4.204992095   11.515593082   26.372771357 XXX  2      ca+a    Ca  1.500
CA4      2.471081285   10.013677162   28.222046090 XXX  2      ca+a    Ca  1.500
CA5      6.009187845    9.756785418   24.876669135 XXX  2      ca+a    Ca  1.500
CA6      2.251489723    9.672396165   24.228892240 XXX  2      ca+a    Ca  1.500
AL1      4.271701939   15.061434452   22.855574355 XXX  2      ac1     Al  1.200
AL2      4.465408004   11.674018169   22.639779597 XXX  2      ac1     Al  1.200
O1       3.994797811   13.340777387   22.781026156 XXX  2      oc3     O  -0.750
O2      15.971859935   13.466107682   26.359647909 XXX  2      oc3     O  -0.750
O3       4.241527154   10.875283927   24.182932931 XXX  2      oc4     O  -1.350
O4       4.495329153    9.262574482   26.971506677 XXX  2      oc4     O  -1.350
O5       2.721402707   15.556569885   22.215845316 XXX  2      oc4     O  -1.350
O6       5.817841086   15.348722054   22.055937342 XXX  2      oc4     O  -1.350
CA7      0.253430421    7.780659956   22.614904449 XXX  2      ca+a    Ca  1.500
CA8      5.667728262    9.890511631   20.397854123 XXX  2      ca+a    Ca  1.500
CA9     11.860954327   11.595750530   18.794244114 XXX  2      ca+a    Ca  1.500
CA10     9.822374107   13.608287584   16.608543309 XXX  2      ca+a    Ca  1.500
CA11    13.613732221   13.473128093   20.807533338 XXX  2      ca+a    Ca  1.500
CA12     9.905196184   13.366229622   20.836574234 XXX  2      ca+a    Ca  1.500
AL3     11.684160017    7.810498567   22.301801496 XXX  2      ac1     Al  1.200
AL4     12.141395565   11.248463674   22.708022580 XXX  2      ac1     Al  1.200
O7      11.720788474    9.508997439   22.857520447 XXX  2      oc3     O  -0.750
O8       8.169983406    9.470451229   18.770921505 XXX  2      oc3     O  -0.750
O9      11.654563245   11.730137549   21.097406146 XXX  2      oc4     O  -1.350
O10     11.598310474   -0.787471025   18.396251115 XXX  2      oc4     O  -1.350
O11     10.226135554    7.079375213   22.846449598 XXX  2      oc4     O  -1.350
O12     13.242492619    7.135536289   22.607357365 XXX  2      oc4     O  -1.350
CA13     7.758029873    7.871707727   15.046470253 XXX  2      ca+a    Ca  1.500
CA14     0.322900773    7.917846167   15.157641407 XXX  2      ca+a    Ca  1.500
CA15    11.829042266    3.711834661   26.191839299 XXX  2      ca+a    Ca  1.500
CA16    14.483795018   -0.004198138   22.403800237 XXX  2      ca+a    Ca  1.500
CA17     9.794507485    1.851453643   27.991864317 XXX  2      ca+a    Ca  1.500
CA18    13.636249470    2.590108545   28.863380248 XXX  2      ca+a    Ca  1.500
AL5     11.669530408    7.170777274   30.103998129 XXX  2      ac1     Al  1.200
AL6     11.254285518    3.702230567   30.159855587 XXX  2      ac1     Al  1.200
O13     11.903294776    5.379108484   30.165737791 XXX  2      oc3     O  -0.750
O14      0.610992960    5.477862312   26.464729858 XXX  2      oc3     O  -0.750
O15     11.599338119    2.964215326   28.609029005 XXX  2      oc4     O  -1.350
O16     11.628572903   16.841403991   26.037170543 XXX  2      oc4     O  -1.350
O17     13.150232741    7.774443489   30.839530861 XXX  2      oc4     O  -1.350
O18     10.091847861    7.466244272   30.816906269 XXX  2      oc4     O  -1.350
CA19     2.112940876    2.298015864   20.547757317 XXX  2      ca+a    Ca  1.500
CA20     1.910963249    5.907779311   20.675671806 XXX  2      ca+a    Ca  1.500
AL7      0.395168695    3.611430199   15.219821556 XXX  2      ac1     Al  1.200
AL8     -0.054780196    3.671729528   18.553820696 XXX  2      ac1     Al  1.200
O19      0.230012609    3.941621348   16.887189623 XXX  2      oc3     O  -0.750
O20      3.770429782    7.633184578   16.847080109 XXX  2      oc3     O  -0.750
O21      1.463738926    4.164266255   19.324188889 XXX  2      oc4     O  -1.350
O22      4.020231161    3.284601135   21.217644089 XXX  2      oc4     O  -1.350
O23     -0.596065450    4.758735359   14.527146120 XXX  2      oc4     O  -1.350
O24      0.122315109    1.873153803   14.836418981 XXX  2      oc4     O  -1.350
CA21    10.012080268    5.717048266   24.514591421 XXX  2      ca+a    Ca  1.500
CA22     8.193426268    1.731031129   24.415754048 XXX  2      ca+a    Ca  1.500
AL9      7.867248590    3.610635919   29.943922824 XXX  2      ac1     Al  1.200
AL10     7.968670837    3.615670253   26.538973723 XXX  2      ac1     Al  1.200
O25      7.790353707    3.236811577   28.282425982 XXX  2      oc3     O  -0.750
O26     11.843358132   15.528045772   28.408545620 XXX  2      oc3     O  -0.750
O27      9.608192369    3.060273732   26.098997021 XXX  2      oc4     O  -1.350
O28     11.811426732    4.475656862   24.208917849 XXX  2      oc4     O  -1.350
O29      7.289772314    2.202981494   30.815400373 XXX  2      oc4     O  -1.350
O30      7.377902615    5.233732695   30.223131021 XXX  2      oc4     O  -1.350
CA23     5.811342971   13.261050158   28.274976771 XXX  2      ca+a    Ca  1.500
CA24     6.346456180    9.485585487   28.312920207 XXX  2      ca+a    Ca  1.500
AL11     7.875090969   11.404909589   22.755592791 XXX  2      ac1     Al  1.200
AL12     8.068854121   11.520241629   26.217422653 XXX  2      ac1     Al  1.200
O31      8.003784976   11.105589744   24.500731825 XXX  2      oc3     O  -0.750
O32      4.286439813    7.966400048   24.535857186 XXX  2      oc3     O  -0.750
O33      6.436807017   11.197333292   26.839901424 XXX  2      oc4     O  -1.350
O34      3.703277125   11.900443734   13.386330402 XXX  2      oc4     O  -1.350
O35      8.500115364    9.983020734   22.133714654 XXX  2      oc4     O  -1.350
O36      8.535669232   13.015304077   22.504176288 XXX  2      oc4     O  -1.350
CA25    13.283068247    9.737510567   16.886384514 XXX  2      ca+a    Ca  1.500
CA26    13.985545721   13.490216921   16.990011094 XXX  2      ca+a    Ca  1.500
AL13    15.529178650   11.521997367   22.347495444 XXX  2      ac1     Al  1.200
AL14    15.615840623   11.179761064   18.870524954 XXX  2      ac1     Al  1.200
O37     15.496869169   11.733303486   20.548931472 XXX  2      oc3     O  -0.750
O38     10.666893644    0.040211945   20.874586364 XXX  2      oc3     O  -0.750
O39     14.069069270   11.457696936   18.013012001 XXX  2      oc4     O  -1.350
O40     11.318714402   10.961749220   31.736176009 XXX  2      oc4     O  -1.350
O41     16.390613857   12.963227648   22.921942488 XXX  2      oc4     O  -1.350
O42     16.120696210    9.899876513   22.548538266 XXX  2      oc4     O  -1.350
CA27     5.342056953    2.240672243   17.029455992 XXX  2      ca+a    Ca  1.500
CA28     5.465474034    1.598599318   20.801834280 XXX  2      ca+a    Ca  1.500
AL15    -0.091314049    0.324746279   19.131360354 XXX  2      ac1     Al  1.200
AL16     3.239161317    0.199871293   18.586745735 XXX  2      ac1     Al  1.200
O43      1.644770820    0.175245376   19.292129630 XXX  2      oc3     O  -0.750
O44      1.809289049    3.994183274   22.499142353 XXX  2      oc3     O  -0.750
O45      3.942385510    1.733293423   19.013058311 XXX  2      oc4     O  -1.350
O46      6.133096888    4.727427397   18.768158040 XXX  2      oc4     O  -1.350
O47     -0.920392147   -0.133566735   20.576895880 XXX  2      oc4     O  -1.350
O48     -0.565050935   -0.164192135   17.582043375 XXX  2      oc4     O  -1.350
CA29     9.967531370    9.952264150   20.459947878 XXX  2      ca+a    Ca  1.500
CA30     9.855632073    9.611457493   16.782821892 XXX  2      ca+a    Ca  1.500
AL17    15.205093333    7.750084824   18.767096396 XXX  2      ac1     Al  1.200
AL18    11.864622788    7.783863282   18.928507816 XXX  2      ac1     Al  1.200
O49     13.556309529    7.797306689   18.475310569 XXX  2      oc3     O  -0.750
O50     13.691964170   11.424561310   30.502035116 XXX  2      oc3     O  -0.750
O51     11.197712339    9.370361295   18.553215305 XXX  2      oc4     O  -1.350
O52      9.477375693   11.812849206   19.216730972 XXX  2      oc4     O  -1.350
O53     15.725653305    7.001658814   17.250131395 XXX  2      oc4     O  -1.350
O54     15.383556392    7.116445537   20.338784466 XXX  2      oc4     O  -1.350
CA31    13.679620444    5.744803396   28.088176776 XXX  2      ca+a    Ca  1.500
CA32    13.343352358    5.989398775   24.431289840 XXX  2      ca+a    Ca  1.500
AL19     8.042993261    7.161292689   26.305572264 XXX  2      ac1     Al  1.200
AL20    11.437893229    7.662464489   26.738854513 XXX  2      ac1     Al  1.200
O55      9.748784992    7.525295067   26.166831123 XXX  2      oc3     O  -0.750
O56      9.560435590    3.773794160   22.923281394 XXX  2      oc3     O  -0.750
O57     12.178628477    6.129703364   26.373158825 XXX  2      oc4     O  -1.350
O58     -1.395948674    3.740658674   26.893848852 XXX  2      oc4     O  -1.350
O59      7.358401889    7.746963159   24.801710137 XXX  2      oc4     O  -1.350
O60      7.537866198    7.684487194   27.921185899 XXX  2      oc4     O  -1.350
CA33     2.306739096   13.749060453   24.734502548 XXX  2      ca+a    Ca  1.500
CA34     2.305875306   13.671367728   28.497437879 XXX  2      ca+a    Ca  1.500
AL21     7.866397804   14.942846152   26.482137914 XXX  2      ac1     Al  1.200
AL22     4.487044346   15.368637466   26.343237157 XXX  2      ac1     Al  1.200
O61      6.124916007   15.150816762   26.763500797 XXX  2      oc3     O  -0.750
O62      6.136840581   11.795488994   14.678019844 XXX  2      oc3     O  -0.750
O63      3.717480799   13.787245734   26.571409992 XXX  2      oc4     O  -1.350
O64     17.092204031   10.916380281   26.030271583 XXX  2      oc4     O  -1.350
O65      8.686405067   15.544296978   27.922611388 XXX  2      oc4     O  -1.350
O66      8.306847346   15.480945604   24.925333669 XXX  2      oc4     O  -1.350
CA35    10.013218960   13.352002979   28.272425621 XXX  2      ca+a    Ca  1.500
CA36    10.208811272    9.921118057   24.853583427 XXX  2      ca+a    Ca  1.500
CA37    12.059940024   11.473919113   26.701253382 XXX  2      ca+a    Ca  1.500
CA38    10.090202545    9.674099311   28.633380660 XXX  2      ca+a    Ca  1.500
AL23    11.797295297   15.110090193   30.147449514 XXX  2      ac1     Al  1.200
AL24    12.032687596   11.679927226   30.339733756 XXX  2      ac1     Al  1.200
O67     11.616517443   13.442898716   30.475295134 XXX  2      oc3     O  -0.750
O68      8.311149346   13.235814161   26.440904669 XXX  2      oc3     O  -0.750
O69     11.525829001   11.297180704   28.723844078 XXX  2      oc4     O  -1.350
O70     11.981717172    9.168230550   25.968251004 XXX  2      oc4     O  -1.350
O71     10.263614140   15.752820309   30.725522393 XXX  2      oc4     O  -1.350
O72     13.433939202   15.454803758   30.761446209 XXX  2      oc4     O  -1.350
CA39    11.342999538    4.249646999   18.819056232 XXX  2      ca+a    Ca  1.500
CA40    13.691095472    5.888268650   17.013961923 XXX  2      ca+a    Ca  1.500
CA41     9.887817356    5.868489346   20.778965022 XXX  2      ca+a    Ca  1.500
CA42    13.682271465    5.654207518   20.985092448 XXX  2      ca+a    Ca  1.500
AL25    11.164934777    0.271089697   22.586362837 XXX  2      ac1     Al  1.200
AL26    11.325793491    3.726572764   22.735352445 XXX  2      ac1     Al  1.200
O73     11.774116235    1.941643291   22.736307960 XXX  2      oc3     O  -0.750
O74     -0.390395273    1.997888164   19.042717396 XXX  2      oc3     O  -0.750
O75     11.604185171    4.408674692   21.113273615 XXX  2      oc4     O  -1.350
O76     11.336458366    6.340869324   18.144368386 XXX  2      oc4     O  -1.350
O77     12.510004538   -0.844980679   22.602913793 XXX  2      oc4     O  -1.350
O78      9.621384241    0.169708529   23.438864228 XXX  2      oc4     O  -1.350
CA43     4.826958347    3.805771069   26.404320497 XXX  2      ca+a    Ca  1.500
CA44     6.784453116    0.142226448   30.390996651 XXX  2      ca+a    Ca  1.500
CA45     2.394692967    2.011648175   24.585841622 XXX  2      ca+a    Ca  1.500
CA46     5.991918573    5.901851720   24.539132511 XXX  2      ca+a    Ca  1.500
AL27     4.112703990    7.505768665   22.777130890 XXX  2      ac1     Al  1.200
AL28     3.583254599    4.095417895   22.695077122 XXX  2      ac1     Al  1.200
O79      4.254347347    5.735826797   22.545954558 XXX  2      oc3     O  -0.750
O80      7.769538690    5.368169083   26.166291147 XXX  2      oc3     O  -0.750
O81      3.871975088    3.512196098   24.286113311 XXX  2      oc4     O  -1.350
O82      3.944691268   16.805410800   27.103133798 XXX  2      oc4     O  -1.350
O83      5.552868778    8.103283367   21.926239445 XXX  2      oc4     O  -1.350
O84      2.497322890    7.946917600   22.312944197 XXX  2      oc4     O  -1.350
CA47     2.101956711   13.628002304   21.025547189 XXX  2      ca+a    Ca  1.500
CA48     0.309264579   15.527210962   22.731645008 XXX  2      ca+a    Ca  1.500
CA49     5.976645321   13.493157401   17.141671713 XXX  2      ca+a    Ca  1.500
CA50     2.114228308   13.448525595   16.694472493 XXX  2      ca+a    Ca  1.500
AL29     4.067223571    7.984936304   15.214867777 XXX  2      ac1     Al  1.200
AL30     4.485073919   11.444182029   14.880713935 XXX  2      ac1     Al  1.200
O85      4.337685271    9.652188213   14.736044130 XXX  2      oc3     O  -0.750
O86     15.832846255    9.414965862   18.740427984 XXX  2      oc3     O  -0.750
O87      4.048358243   11.944302323   16.479889708 XXX  2      oc4     O  -1.350
O88      4.010830403   -1.330250717   18.968284819 XXX  2      oc4     O  -1.350
O89      2.568231661    7.566678224   14.411320138 XXX  2      oc4     O  -1.350
O90      5.511732836    7.079929675   14.810749400 XXX  2      oc4     O  -1.350
CA51    13.249065871   13.387867946   24.638812341 XXX  2      ca+a    Ca  1.500
CA52    13.910195413    9.432138536   24.764561443 XXX  2      ca+a    Ca  1.500
AL31    15.346424866   11.403698616   29.902247614 XXX  2      ac1     Al  1.200
AL32    15.643187624   11.762728300   26.525512949 XXX  2      ac1     Al  1.200
O91     15.395896548   11.185914741   28.160065745 XXX  2      oc3     O  -0.750
O92     11.659822951    7.871686830   28.535502503 XXX  2      oc3     O  -0.750
O93     14.106279331   11.454873554   25.739725225 XXX  2      oc4     O  -1.350
O94     11.379759329   11.863416185   24.156934419 XXX  2      oc4     O  -1.350
O95     16.156729278    9.952929012   30.540957798 XXX  2      oc4     O  -1.350
O96     16.067809370   12.986958877   30.168348784 XXX  2      oc4     O  -1.350
CA53     4.105615523   11.754065793   18.859227179 XXX  2      ca+a    Ca  1.500
CA54     6.382452106   13.655719385   20.619683772 XXX  2      ca+a    Ca  1.500
AL33     7.725372726   11.562587371   15.161799857 XXX  2      ac1     Al  1.200
AL34     7.993091787   11.201855890   18.567583372 XXX  2      ac1     Al  1.200
O97      8.149165636   11.657687224   16.851944641 XXX  2      oc3     O  -0.750
O98      3.060969605    0.106531883   16.822771259 XXX  2      oc3     O  -0.750
O99      6.369703931   11.596155964   19.120766333 XXX  2      oc4     O  -1.350
O100     3.730940216   11.140761769   21.153647125 XXX  2      oc4     O  -1.350
O101     8.569511266   12.968834372   14.536844059 XXX  2      oc4     O  -1.350
O102     8.196863842    9.943425379   14.648528113 XXX  2      oc4     O  -1.350
CA55     9.620701240    2.277715023   17.014256188 XXX  2      ca+a    Ca  1.500
CA56     9.649497985    6.122579962   16.881758458 XXX  2      ca+a    Ca  1.500
AL35     7.915749503    3.849643765   22.280115632 XXX  2      ac1     Al  1.200
AL36     7.627070155    3.938010468   18.901504022 XXX  2      ac1     Al  1.200
O103     8.081439608    4.175329771   20.563731587 XXX  2      oc3     O  -0.750
O104    11.485787121    7.586635002   20.579405204 XXX  2      oc3     O  -0.750
O105     9.095174554    4.298290864   17.966925628 XXX  2      oc4     O  -1.350
O106    11.774183077    2.940166385   31.584917664 XXX  2      oc4     O  -1.350
O107     7.161595026    5.278792145   22.851742856 XXX  2      oc4     O  -1.350
O108     7.257485756    2.219659435   22.412736510 XXX  2      oc4     O  -1.350
CA57     2.841891732    5.776599232   28.145943515 XXX  2      ca+a    Ca  1.500
CA58     1.734522423    1.715666091   28.427525102 XXX  2      ca+a    Ca  1.500
AL37     0.322229035    3.153749860   22.845969455 XXX  2      ac1     Al  1.200
AL38     0.118092337    3.859912445   26.089305061 XXX  2      ac1     Al  1.200
O109    -0.200903704    3.594486743   24.462768098 XXX  2      oc3     O  -0.750
O110     4.304749645   15.662170417   24.563995528 XXX  2      oc3     O  -0.750
O111     1.366640236    2.724319553   26.521003044 XXX  2      oc4     O  -1.350
O112     4.259077653    4.536775500   13.369154030 XXX  2      oc4     O  -1.350
O113     0.965126703    1.544992049   22.969715268 XXX  2      oc4     O  -1.350
O114    -0.755656726    3.676470465   21.627324782 XXX  2      oc4     O  -1.350
CA59     8.006693638   15.557183805   30.188120304 XXX  2      ca+a    Ca  1.500
CA60     9.928251160   13.600873752   24.393000503 XXX  2      ca+a    Ca  1.500
AL39    15.582322337   15.171544854   26.390291874 XXX  2      ac1     Al  1.200
AL40    12.098494458   15.319131640   26.671711948 XXX  2      ac1     Al  1.200
O115    13.789500797   15.348100706   26.131827346 XXX  2      oc3     O  -0.750
O116    13.866144630   11.491631782   22.932367197 XXX  2      oc3     O  -0.750
O117    11.343335337   13.789573631   26.282929410 XXX  2      oc4     O  -1.350
O118     9.482993118   10.753552166   26.735359170 XXX  2      oc4     O  -1.350
O119    16.385772446   15.782245656   25.002192616 XXX  2      oc4     O  -1.350
O120    15.864786666   15.651313713   28.001074732 XXX  2      oc4     O  -1.350
CA61     8.034918447    7.844946813   22.520654416 XXX  2      ca+a    Ca  1.500
CA62     6.080514324    6.022388008   28.462083328 XXX  2      ca+a    Ca  1.500
AL41     0.578002805    7.218202148   26.484176003 XXX  2      ac1     Al  1.200
AL42     3.954416398    7.777333286   26.262968079 XXX  2      ac1     Al  1.200
O121     2.259206073    7.793490406   26.683598313 XXX  2      oc3     O  -0.750
O122     2.024337464    3.962734425   14.636087137 XXX  2      oc3     O  -0.750
O123     4.661742678    6.129723483   26.545282123 XXX  2      oc4     O  -1.350
O124     6.646718847    2.890757634   25.738845181 XXX  2      oc4     O  -1.350
O125    -0.323725973    7.668029597   27.947003954 XXX  2      oc4     O  -1.350
O126    -0.069184833    7.695949478   24.893846259 XXX  2      oc4     O  -1.350
CA63     2.493987213   10.126638127   17.031358112 XXX  2      ca+a    Ca  1.500
CA64     2.310341027    9.489069428   20.760375902 XXX  2      ca+a    Ca  1.500
AL43     7.540017362    7.828568410   18.811741270 XXX  2      ac1     Al  1.200
AL44     4.111563158    7.754462743   18.526003540 XXX  2      ac1     Al  1.200
O127     5.777678835    7.802194628   19.033596101 XXX  2      oc3     O  -0.750
O128     6.201033072   11.457895949   22.258547429 XXX  2      oc3     O  -0.750
O129     3.539162647    9.329650760   18.878796252 XXX  2      oc4     O  -1.350
O130    17.120114075   11.881586354   18.280580993 XXX  2      oc4     O  -1.350
O131     8.229530818    7.173326540   20.287822665 XXX  2      oc4     O  -1.350
O132     7.757777638    7.186491653   17.156023553 XXX  2      oc4     O  -1.350
CA65    12.928198510    2.484953899   20.484831400 XXX  2      ca+a    Ca  1.500
CA66    12.666774885    1.142448611   17.208916418 XXX  2      ca+a    Ca  1.500
AL45     7.446138999    0.553585682   18.484554194 XXX  2      ac1     Al  1.200
AL46    10.690912096    0.404244797   19.174890015 XXX  2      ac1     Al  1.200
O133     9.154582396    0.385324239   18.356252186 XXX  2      oc3     O  -0.750
O134     9.496988151    3.596216290   30.485075142 XXX  2      oc3     O  -0.750
O135    11.421472864    2.006652742   18.901275600 XXX  2      oc4     O  -1.350
O136    -1.555224810    4.528246957   18.787772940 XXX  2      oc4     O  -1.350
O137     6.763572298    0.033399635   17.042807766 XXX  2      oc4     O  -1.350
O138     6.941058715    0.038123682   20.048742094 XXX  2      oc4     O  -1.350
end
CA1     16.003655367    0.047709346   15.771605558 XXX  1      ca+a    Ca  1.500
CA2     20.461000035   -1.776934732   17.261207527 XXX  1      ca+a    Ca  1.500
CA3     19.107342262    3.973268115   18.918102008 XXX  1      ca+a    Ca  1.500
CA4     21.443589656    5.840988674   20.826500645 XXX  1      ca+a    Ca  1.500
CA5     17.354904836    5.669195900   17.255585593 XXX  1      ca+a    Ca  1.500
CA6     21.184593156    5.554459985   16.737220476 XXX  1      ca+a    Ca  1.500
AL1     19.030715370    0.025970782   15.031640258 XXX  1      ac1     Al  1.200
AL2     19.025766726    3.491986043   14.874192592 XXX  1      ac1     Al  1.200
O1      19.494028426    1.761752267   14.920921617 XXX  1      oc3     O  -0.750
O2      22.455332049    1.997558524   18.643557345 XXX  1      oc3     O  -0.750
O3      19.202411661    4.158607023   16.486108893 XXX  1      oc4     O  -1.350
O4      18.666147660    6.053298788   19.162988664 XXX  1      oc4     O  -1.350
O5      20.332878675   -1.090606749   14.923288841 XXX  1      oc4     O  -1.350
O6      17.550259767   -0.058375830   14.176833987 XXX  1      oc4     O  -1.350
CA1     23.716290592   -0.024668582   21.784896629 XXX  2      ca+a    Ca  1.500
CA2     12.531768139   -1.603591160   20.216440216 XXX  2      ca+a    Ca  1.500
CA3     19.469024168   11.667093078   26.265901332 XXX  2      ca+a    Ca  1.500
CA4     17.483666296   10.004103152   28.186589178 XXX  2      ca+a    Ca  1.500
CA5     21.287274351    9.584485920   24.889374221 XXX  2      ca+a    Ca  1.500
CA6     17.616965016    9.886527299   24.277507427 XXX  2      ca+a    Ca  1.500
AL1     19.520414419   15.043661003   22.794675798 XXX  2      ac1     Al  1.200
AL2     19.710663395   11.615787834   22.579814769 XXX  2      ac1     Al  1.200
O1      19.255917941   13.328300961   22.692049881 XXX  2      oc3     O  -0.750
O2      31.095869759   13.376818529   26.491047147 XXX  2      oc3     O  -0.750
O3      19.579248498   10.886736808   24.130775415 XXX  2      oc4     O  -1.350
O4      19.841940851    9.149279144   26.734159548 XXX  2      oc4     O  -1.350
O5      18.044031080   15.627095989   22.124778243 XXX  2      oc4     O  -1.350
O6      21.131149909   15.353654326   22.201891094 XXX  2      oc4     O  -1.350
CA7     15.379952033    7.866830440   22.458239121 XXX  2      ca+a    Ca  1.500
CA8     23.306514637    7.847055843   22.412093309 XXX  2      ca+a    Ca  1.500
CA9     26.974440391   11.656061848   18.753701211 XXX  2      ca+a    Ca  1.500
CA10    24.995811307   13.556846814   16.697193231 XXX  2      ca+a    Ca  1.500
CA11    28.886398059   13.589840697   20.556412169 XXX  2      ca+a    Ca  1.500
CA12    25.089653654   13.369594249   20.752136991 XXX  2      ca+a    Ca  1.500
AL3     27.115319362    7.851087794   22.374605159 XXX  2      ac1     Al  1.200
AL4     27.376799110   11.252935020   22.720336144 XXX  2      ac1     Al  1.200
O7      27.334336496    9.488056926   22.910986962 XXX  2      oc3     O  -0.750
O8      23.397769787    9.343501143   18.700640144 XXX  2      oc3     O  -0.750
O9      26.773726906   11.627704067   21.103305932 XXX  2      oc4     O  -1.350
O10     27.069915258   -1.038122743   18.598442993 XXX  2      oc4     O  -1.350
O11     25.575682686    7.354317511   23.094768763 XXX  2      oc4     O  -1.350
O12     28.608968196    6.962547084   22.748000713 XXX  2      oc4     O  -1.350
CA13    23.074207839    7.704831425   15.110761300 XXX  2      ca+a    Ca  1.500
CA14    15.549181733    7.868459413   15.015251257 XXX  2      ca+a    Ca  1.500
CA15    26.992962225    3.788999347   26.464182636 XXX  2      ca+a    Ca  1.500
CA16    30.003518174   -0.102647743   22.702062660 XXX  2      ca+a    Ca  1.500
CA17    25.137810213    1.809350456   28.054309175 XXX  2      ca+a    Ca  1.500
CA18    28.955175605    2.690686877   28.694488287 XXX  2      ca+a    Ca  1.500
AL5     26.939751011    7.209388778   30.225859140 XXX  2      ac1     Al  1.200
AL6     26.541213360    3.668760282   30.247776847 XXX  2      ac1     Al  1.200
O13     27.139380515    5.404908587   30.394809391 XXX  2      oc3     O  -0.750
O14     16.056366722    5.244958765   26.271968260 XXX  2      oc3     O  -0.750
O15     26.803060147    3.063100102   28.630043806 XXX  2      oc4     O  -1.350
O16     26.721566650   16.838445742   26.020868801 XXX  2      oc4     O  -1.350
O17     28.403573589    7.797792749   31.018296832 XXX  2      oc4     O  -1.350
O18     25.253273645    7.502894344   30.708430211 XXX  2      oc4     O  -1.350
CA19    17.200005064    2.056038914   20.412157134 XXX  2      ca+a    Ca  1.500
CA20    17.080883390    5.783524516   20.586757435 XXX  2      ca+a    Ca  1.500
AL7     15.665767798    3.716048969   15.285090220 XXX  2      ac1     Al  1.200
AL8     15.074643267    3.647929319   18.614212548 XXX  2      ac1     Al  1.200
O19     15.515746835    3.978574147   17.015323773 XXX  2      oc3     O  -0.750
O20     18.993195884    7.594830957   16.936667207 XXX  2      oc3     O  -0.750
O21     16.625766436    3.966915551   19.406228639 XXX  2      oc4     O  -1.350
O22     19.487080755    2.883785902   21.200638255 XXX  2      oc4     O  -1.350
O23     14.792001421    4.902214807   14.465364999 XXX  2      oc4     O  -1.350
O24     15.205295702    2.034439903   14.943149063 XXX  2      oc4     O  -1.350
CA21    25.441670927    5.808804752   24.693552117 XXX  2      ca+a    Ca  1.500
CA22    24.421223790    1.873776142   24.286256456 XXX  2      ca+a    Ca  1.500
AL9     23.250434627    3.023849571   29.880641301 XXX  2      ac1     Al  1.200
AL10    23.129529298    3.910937714   26.514808331 XXX  2      ac1     Al  1.200
O25     22.790172389    3.596202305   28.264152970 XXX  2      oc3     O  -0.750
O26     27.168638078   15.589002237   28.487308062 XXX  2      oc3     O  -0.750
O27     24.600818039    3.033378768   26.195693577 XXX  2      oc4     O  -1.350
O28     27.129513621    4.294075653   24.325610729 XXX  2      oc4     O  -1.350
O29     23.676805197    1.357527414   29.636642291 XXX  2      oc4     O  -1.350
O30     22.142861333    3.513511800   31.069252146 XXX  2      oc4     O  -1.350
CA23    20.877789773   13.305528852   28.308472359 XXX  2      ca+a    Ca  1.500
CA24    21.495384001    9.380361989   28.156723185 XXX  2      ca+a    Ca  1.500
AL11    23.183503586   11.463447915   22.713229948 XXX  2      ac1     Al  1.200
AL12    23.314273857   11.588420347   26.129970230 XXX  2      ac1     Al  1.200
O31     23.254513050   11.184010688   24.409459163 XXX  2      oc3     O  -0.750
O32     19.578382555    7.718679170   24.310521775 XXX  2      oc3     O  -0.750
O33     21.775598770   11.049075434   26.743938133 XXX  2      oc4     O  -1.350
O34     19.048259458   11.967355756   13.438243919 XXX  2      oc4     O  -1.350
O35     23.941019184   10.003641396   22.131128609 XXX  2      oc4     O  -1.350
O36     23.754282465   13.066035477   22.549365383 XXX  2      oc4     O  -1.350
CA25    28.523926089    9.658245211   17.073374055 XXX  2      ca+a    Ca  1.500
CA26    29.251733363   13.443936053   17.113958579 XXX  2      ca+a    Ca  1.500
AL13    30.695477140   11.674682673   22.417011937 XXX  2      ac1     Al  1.200
AL14    30.755718801   11.192482177   18.986489556 XXX  2      ac1     Al  1.200
O37     31.035135551   11.638516465   20.681188543 XXX  2      oc3     O  -0.750
O38     25.973734345   -0.049265080   20.962348965 XXX  2      oc3     O  -0.750
O39     29.167328009   11.539336784   18.354330237 XXX  2      oc4     O  -1.350
O40     26.533285642   11.021224558   31.678488084 XXX  2      oc4     O  -1.350
O41     31.538982466   13.066562398   23.000212701 XXX  2      oc4     O  -1.350
O42     31.097851334   10.066583700   22.918411859 XXX  2      oc4     O  -1.350
CA27    20.717525970    2.494091800   16.972304259 XXX  2      ca+a    Ca  1.500
CA28    20.386803345    1.074338563   20.330482000 XXX  2      ca+a    Ca  1.500
AL15    15.007740537    0.262612719   18.862991715 XXX  2      ac1     Al  1.200
AL16    18.401531743   -0.032855217   18.426740797 XXX  2      ac1     Al  1.200
O43     16.712066928   -0.077195949   19.019017653 XXX  2      oc3     O  -0.750
O44     17.075152864    3.769050951   22.302979068 XXX  2      oc3     O  -0.750
O45     18.868147927    1.635739826   18.782235094 XXX  2      oc4     O  -1.350
O46     21.400766892    4.455831816   18.713011088 XXX  2      oc4     O  -1.350
O47     14.263880833   -0.288409710   20.256005239 XXX  2      oc4     O  -1.350
O48     14.465040625   -0.160308053   17.229706924 XXX  2      oc4     O  -1.350
CA29    25.437368226    9.982256904   20.572672022 XXX  2      ca+a    Ca  1.500
CA30    25.085918928    9.364386561   16.856950302 XXX  2      ca+a    Ca  1.500
AL17    30.496796613    7.802552336   18.809571879 XXX  2      ac1     Al  1.200
AL18    27.096588794    7.644205609   18.968932108 XXX  2      ac1     Al  1.200
O49     28.819366301    7.646342131   18.550543459 XXX  2      oc3     O  -0.750
O50     28.996853819   11.439462882   30.544878046 XXX  2      oc3     O  -0.750
O51     26.531257155    9.192938326   18.440119210 XXX  2      oc4     O  -1.350
O52     24.757186819   11.727653576   19.237580473 XXX  2      oc4     O  -1.350
O53     31.149968673    7.056124356   17.319237585 XXX  2      oc4     O  -1.350
O54     30.771681484    7.235799410   20.481520724 XXX  2      oc4     O  -1.350
CA31    28.842591292    5.697914340   28.077068607 XXX  2      ca+a    Ca  1.500
CA32    28.777152438    5.847469034   24.626002769 XXX  2      ca+a    Ca  1.500
AL19    23.409878123    7.316483301   26.426196673 XXX  2      ac1     Al  1.200
AL20    26.788238540    7.671803739   26.766432214 XXX  2      ac1     Al  1.200
O55     25.110051022    7.895283383   26.440954203 XXX  2      oc3     O  -0.750
O56     24.941911567    3.911592873   22.975788540 XXX  2      oc3     O  -0.750
O57     27.259524174    6.057168822   26.359586207 XXX  2      oc4     O  -1.350
O58     13.985808073    3.467954232   26.935742031 XXX  2      oc4     O  -1.350
O59     22.608425524    7.766485328   25.027597505 XXX  2      oc4     O  -1.350
O60     22.763991742    7.460987156   28.033364586 XXX  2      oc4     O  -1.350
CA33    17.524063639   13.867219313   24.557718863 XXX  2      ca+a    Ca  1.500
CA34    17.356574768   13.744543495   28.419614775 XXX  2      ca+a    Ca  1.500
AL21    23.030756441   15.026011898   26.531084518 XXX  2      ac1     Al  1.200
AL22    19.683379858   15.393582047   26.285002266 XXX  2      ac1     Al  1.200
O61     21.289542684   15.304046465   26.845526325 XXX  2      oc3     O  -0.750
O62     21.423665123   11.671917020   14.753704330 XXX  2      oc3     O  -0.750
O63     18.963746166   13.840901788   26.641418271 XXX  2      oc4     O  -1.350
O64     32.189898345   10.769596800   26.168704673 XXX  2      oc4     O  -1.350
O65     23.904324351   15.673704381   27.915249780 XXX  2      oc4     O  -1.350
O66     23.399664186   15.555125846   24.915107625 XXX  2      oc4     O  -1.350
CA35    26.962315218   11.571018487   26.488021314 XXX  2      ca+a    Ca  1.500
CA36    25.556476931    9.741592599   24.737569679 XXX  2      ca+a    Ca  1.500
CA37    28.773667410    9.582347193   27.936051738 XXX  2      ca+a    Ca  1.500
CA38    25.066196189    9.795849077   28.647512215 XXX  2      ca+a    Ca  1.500
AL23    27.086400438   15.000035425   30.207236806 XXX  2      ac1     Al  1.200
AL24    27.315067344   11.627308120   30.212166411 XXX  2      ac1     Al  1.200
O67     26.808115755   13.283102732   30.233216027 XXX  2      oc3     O  -0.750
O68     23.440727219   13.285824370   26.527572991 XXX  2      oc3     O  -0.750
O69     27.043435662   10.821309688   28.688113753 XXX  2      oc4     O  -1.350
O70     27.543314555    9.052911339   26.044696996 XXX  2      oc4     O  -1.350
O71     25.610535684   15.604288425   30.921431567 XXX  2      oc4     O  -1.350
O72     28.637644388   15.186048642   30.924584330 XXX  2      oc4     O  -1.350
CA39    26.763093158    3.945400861   18.544326373 XXX  2      ca+a    Ca  1.500
CA40    29.045340373    5.885674455   16.887240819 XXX  2      ca+a    Ca  1.500
CA41    25.293145376    5.750932208   20.621778597 XXX  2      ca+a    Ca  1.500
CA42    28.827168064    5.591793251   20.876811665 XXX  2      ca+a    Ca  1.500
AL25    26.557727132    0.216548407   22.532993463 XXX  2      ac1     Al  1.200
AL26    26.639948763    3.642828070   22.777268092 XXX  2      ac1     Al  1.200
O73     27.025003924    1.910040086   22.698654127 XXX  2      oc3     O  -0.750
O74     14.698142025    1.969152777   18.903281148 XXX  2      oc3     O  -0.750
O75     26.944848438    4.330655594   21.131039553 XXX  2      oc4     O  -1.350
O76     26.425362694    6.119083979   18.351351622 XXX  2      oc4     O  -1.350
O77     27.949280002   -0.857690724   22.644189822 XXX  2      oc4     O  -1.350
O78     25.097654535    0.053130309   23.496966449 XXX  2      oc4     O  -1.350
CA43    19.265657478    3.926650184   26.242233119 XXX  2      ca+a    Ca  1.500
CA44    22.288470325   -0.116176630   30.164407561 XXX  2      ca+a    Ca  1.500
CA45    17.314851541    1.571977555   24.467514090 XXX  2      ca+a    Ca  1.500
CA46    21.158168520    2.749425192   23.838746515 XXX  2      ca+a    Ca  1.500
AL27    19.373390520    7.192145215   22.623624165 XXX  2      ac1     Al  1.200
AL28    18.785467401    3.801645204   22.516955755 XXX  2      ac1     Al  1.200
O79     19.536666073    5.398552721   22.490528113 XXX  2      oc3     O  -0.750
O80     23.504214374    5.631086464   26.159122720 XXX  2      oc3     O  -0.750
O81     18.971287075    3.070349919   24.088806421 XXX  2      oc4     O  -1.350
O82     19.099288419   16.940983994   26.888842129 XXX  2      oc4     O  -1.350
O83     20.895585541    7.741507980   21.917444382 XXX  2      oc4     O  -1.350
O84     17.752606105    7.494620300   22.029011718 XXX  2      oc4     O  -1.350
CA47    19.447869678   11.772238298   18.948025423 XXX  2      ca+a    Ca  1.500
CA48    17.361084009   13.805061908   21.112920603 XXX  2      ca+a    Ca  1.500
CA49    21.279032221   13.533761695   17.148850055 XXX  2      ca+a    Ca  1.500
CA50    17.447053638   13.508047198   16.624754995 XXX  2      ca+a    Ca  1.500
AL29    19.269506112    7.856673994   15.275317064 XXX  2      ac1     Al  1.200
AL30    19.752881086   11.326526952   14.873122542 XXX  2      ac1     Al  1.200
O85     19.409277857    9.538239728   14.761790270 XXX  2      oc3     O  -0.750
O86     30.970435541    9.479342338   18.725581190 XXX  2      oc3     O  -0.750
O87     19.418612883   11.804466742   16.504753853 XXX  2      oc4     O  -1.350
O88     19.404921445   -1.274068632   19.105780984 XXX  2      oc4     O  -1.350
O89     17.790973817    7.259677504   14.596157335 XXX  2      oc4     O  -1.350
O90     20.850636705    7.098073315   14.970639903 XXX  2      oc4     O  -1.350
CA51    28.489779879   13.299937621   24.679341926 XXX  2      ca+a    Ca  1.500
CA52    29.337494233    9.565059020   24.691564752 XXX  2      ca+a    Ca  1.500
AL31    30.676351986   11.398262226   30.000585025 XXX  2      ac1     Al  1.200
AL32    30.797792998   11.640612574   26.681192544 XXX  2      ac1     Al  1.200
O91     30.625210213   11.158252010   28.307089667 XXX  2      oc3     O  -0.750
O92     27.060989563    7.773517734   28.490418053 XXX  2      oc3     O  -0.750
O93     29.227006614   11.337846078   25.929580772 XXX  2      oc4     O  -1.350
O94     26.678074179   11.753041706   24.232244959 XXX  2      oc4     O  -1.350
O95     31.363572614    9.890569400   30.516159888 XXX  2      oc4     O  -1.350
O96     31.486984951   12.905567668   30.252997529 XXX  2      oc4     O  -1.350
CA53    20.746061874    9.675955350   20.473691824 XXX  2      ca+a    Ca  1.500
CA54    21.702591067   13.597544263   20.727773500 XXX  2      ca+a    Ca  1.500
AL33    23.099583371   11.523886623   15.256750904 XXX  2      ac1     Al  1.200
AL34    23.193367020   11.107741653   18.621809331 XXX  2      ac1     Al  1.200
O97     23.271388665   11.699169452   16.977362133 XXX  2      oc3     O  -0.750
O98     18.477728531   -0.282350894   16.641122657 XXX  2      oc3     O  -0.750
O99     21.588755684   11.444201435   19.365656662 XXX  2      oc4     O  -1.350
O100    18.940185879   10.990820301   21.239736283 XXX  2      oc4     O  -1.350
O101    24.017195274   12.846402336   14.663615207 XXX  2      oc4     O  -1.350
O102    23.478284173    9.825040352   14.777767745 XXX  2      oc4     O  -1.350
CA55    24.894792350    2.154996410   17.111136437 XXX  2      ca+a    Ca  1.500
CA56    24.720045335    5.865142394   16.986918195 XXX  2      ca+a    Ca  1.500
AL35    23.367967616    3.745389579   22.345198140 XXX  2      ac1     Al  1.200
AL36    22.834225976    3.673523212   19.002989676 XXX  2      ac1     Al  1.200
O103    23.209502025    4.055968701   20.666677051 XXX  2      oc3     O  -0.750
O104    26.771659805    7.590312593   20.677640844 XXX  2      oc3     O  -0.750
O105    24.264834780    4.013592662   18.066493508 XXX  2      oc4     O  -1.350
O106    27.097294352    2.796646708   31.638663659 XXX  2      oc4     O  -1.350
O107    22.522589684    5.021556441   23.013000609 XXX  2      oc4     O  -1.350
O108    22.860843980    2.123173328   22.712144012 XXX  2      oc4     O  -1.350
CA57    17.387590697    5.759073768   28.389498978 XXX  2      ca+a    Ca  1.500
CA58    16.986388896    1.413891840   28.349676438 XXX  2      ca+a    Ca  1.500
AL37    15.543075665    3.033178269   22.734885173 XXX  2      ac1     Al  1.200
AL38    15.455438703    3.565221874   26.067138104 XXX  2      ac1     Al  1.200
O109    15.071960793    3.223489155   24.445294693 XXX  2      oc3     O  -0.750
O110    19.490648522   15.563381001   24.523883838 XXX  2      oc3     O  -0.750
O111    16.785154528    2.397015308   26.415419174 XXX  2      oc4     O  -1.350
O112    19.692848981    4.240851071   13.424232023 XXX  2      oc4     O  -1.350
O113    16.101925469    1.407007940   22.639771901 XXX  2      oc4     O  -1.350
O114    14.346170032    3.655042502   21.700394563 XXX  2      oc4     O  -1.350
CA59    25.148665433   13.729192115   28.273560796 XXX  2      ca+a    Ca  1.500
CA60    25.021289841   13.544219185   24.369062299 XXX  2      ca+a    Ca  1.500
AL39    30.734306572   15.028903722   26.396968859 XXX  2      ac1     Al  1.200
AL40    27.341904001   15.354750556   26.714856177 XXX  2      ac1     Al  1.200
O115    29.023162354   15.218989711   26.142981162 XXX  2      oc3     O  -0.750
O116    28.984068166   11.924229592   22.726070668 XXX  2      oc3     O  -0.750
O117    26.672831019   13.783187714   26.407793032 XXX  2      oc4     O  -1.350
O118    24.805035721   10.945432161   26.659527886 XXX  2      oc4     O  -1.350
O119    31.574976248   15.632113814   25.003353261 XXX  2      oc4     O  -1.350
O120    31.074430602   15.575482346   27.995369473 XXX  2      oc4     O  -1.350
CA61    21.355761991    5.909821269   24.692362664 XXX  2      ca+a    Ca  1.500
CA62    21.150844960    5.665975890   28.470083308 XXX  2      ca+a    Ca  1.500
AL41    15.863519951    7.033651669   26.342142217 XXX  2      ac1     Al  1.200
AL42    19.202402724    7.668340531   26.047383390 XXX  2      ac1     Al  1.200
O121    17.499187793    7.714797156   26.276257370 XXX  2      oc3     O  -0.750
O122    17.320638757    3.779601995   14.701348676 XXX  2      oc3     O  -0.750
O123    19.855190811    6.068861874   26.510643013 XXX  2      oc4     O  -1.350
O124    21.577343672    3.620188791   25.712967199 XXX  2      oc4     O  -1.350
O125    15.389616073    7.249787723   28.031483957 XXX  2      oc4     O  -1.350
O126    14.961333053    7.517833916   24.885209765 XXX  2      oc4     O  -1.350
CA63    17.706230994   10.136671091   17.067429187 XXX  2      ca+a    Ca  1.500
CA64    17.402666399    9.399079964   20.730162699 XXX  2      ca+a    Ca  1.500
AL43    22.842019832    7.673280647   18.796961477 XXX  2      ac1     Al  1.200
AL44    19.442627010    7.562767341   18.601013478 XXX  2      ac1     Al  1.200
O127    21.136506229    7.508008237   19.040474666 XXX  2      oc3     O  -0.750
O128    21.461821835   11.426423239   22.239523078 XXX  2      oc3     O  -0.750
O129    18.912135995    9.156232145   19.061879459 XXX  2      oc4     O  -1.350
O130    32.135156195   11.789333873   18.185434938 XXX  2      oc4     O  -1.350
O131    23.418966508    6.978937095   20.259000454 XXX  2      oc4     O  -1.350
O132    23.001717166    6.955677741   17.224987884 XXX  2      oc4     O  -1.350
CA65    28.375223079    2.393437352   20.595717058 XXX  2      ca+a    Ca  1.500
CA66    27.946314157    0.775723332   17.341990514 XXX  2      ca+a    Ca  1.500
AL45    22.794457596    0.269457230   18.633839303 XXX  2      ac1     Al  1.200
AL46    26.026827356    0.120825061   19.247234571 XXX  2      ac1     Al  1.200
O133    24.497667198    0.110290553   18.415639669 XXX  2      oc3     O  -0.750
O134    24.836712020    3.606841240   30.464720386 XXX  2      oc3     O  -0.750
O135    26.560453048    1.722155130   18.934362930 XXX  2      oc4     O  -1.350
O136    13.600030811    4.533255537   18.955867205 XXX  2      oc4     O  -1.350
O137    22.042648979   -0.249562206   17.178514633 XXX  2      oc4     O  -1.350
O138    22.232017527   -0.029075582   20.288344192 XXX  2      oc4     O  -1.350
end
CA1      0.394135042   15.297942991   15.006591518 XXX  1      ca+a    Ca  1.500
CA2      7.969045125   15.620954530   15.039389366 XXX  1      ca+a    Ca  1.500
CA3      6.425799695   21.380736064   20.951720804 XXX  1      ca+a    Ca  1.500
CA4      8.285129388   23.230792775   22.674831434 XXX  1      ca+a    Ca  1.500
CA5      2.571142424   21.122882516   16.825289141 XXX  1      ca+a    Ca  1.500
CA6      6.140104382   21.039977557   16.736781483 XXX  1      ca+a    Ca  1.500
AL1      4.288894559   15.579162954   15.188034364 XXX  1      ac1     Al  1.200
AL2      4.089544152   18.949013855   15.032612053 XXX  1      ac1     Al  1.200
O1       4.565130772   17.287654141   15.111020831 XXX  1      oc3     O  -0.750
O2       7.940063088   17.094691056   18.774105060 XXX  1      oc3     O  -0.750
O3       4.438890555   19.572542589   16.562919899 XXX  1      oc4     O  -1.350
O4       3.736609749   21.467914811   19.051235914 XXX  1      oc4     O  -1.350
O5       5.742554962   14.825689486   14.544074598 XXX  1      oc4     O  -1.350
O6       2.746928933   15.336273626   14.513756535 XXX  1      oc4     O  -1.350
CA1      8.094559184   15.343517637   22.647058189 XXX  2      ca+a    Ca  1.500
CA2      2.572690750   17.458628454   20.840732861 XXX  2      ca+a    Ca  1.500
CA3      4.026007905   26.519225036   26.636108182 XXX  2      ca+a    Ca  1.500
CA4      2.251755475   24.664743996   28.259156522 XXX  2      ca+a    Ca  1.500
CA5      5.877273210   25.082046298   24.862280037 XXX  2      ca+a    Ca  1.500
CA6      2.030641592   24.840221536   24.278415891 XXX  2      ca+a    Ca  1.500
AL1      3.993982263   30.397156800   22.642389385 XXX  2      ac1     Al  1.200
AL2      4.448121552   27.010350236   22.615562928 XXX  2      ac1     Al  1.200
O1       3.903156813   28.632394357   22.639475669 XXX  2      oc3     O  -0.750
O2      15.763777592   28.695212090   26.204269562 XXX  2      oc3     O  -0.750
O3       3.994447880   26.202435746   24.125887164 XXX  2      oc4     O  -1.350
O4       4.343962007   24.347136260   27.060455652 XXX  2      oc4     O  -1.350
O5       2.457101716   30.515796715   21.751264474 XXX  2      oc4     O  -1.350
O6       5.553654568   30.676123045   22.026433140 XXX  2      oc4     O  -1.350
CA7      0.243838436   23.003737142   22.543274382 XXX  2      ca+a    Ca  1.500
CA8     10.050709352   25.179099111   24.693643986 XXX  2      ca+a    Ca  1.500
CA9     11.876164085   26.819966143   18.956226494 XXX  2      ca+a    Ca  1.500
CA10     8.393618060   30.592341258   14.841723914 XXX  2      ca+a    Ca  1.500
CA11    16.742583855   32.679149801   26.562911815 XXX  2      ca+a    Ca  1.500
CA12     9.989476544   29.182923058   24.524691338 XXX  2      ca+a    Ca  1.500
AL3     11.755035026   23.321000741   22.454023114 XXX  2      ac1     Al  1.200
AL4     11.799669050   26.708358465   22.627531180 XXX  2      ac1     Al  1.200
O7      11.355640906   24.986298337   22.577072125 XXX  2      oc3     O  -0.750
O8       8.258561568   24.894800938   18.414312712 XXX  2      oc3     O  -0.750
O9      11.369737477   27.463075235   21.087988484 XXX  2      oc4     O  -1.350
O10     12.506031161   13.742010496   18.709947520 XXX  2      oc4     O  -1.350
O11     10.324977491   22.596430653   23.231671536 XXX  2      oc4     O  -1.350
O12     13.357689103   23.177220794   23.120546596 XXX  2      oc4     O  -1.350
CA13     7.886018579   23.145004347   14.951967094 XXX  2      ca+a    Ca  1.500
CA14     0.524068467   23.302279151   15.101408630 XXX  2      ca+a    Ca  1.500
CA15    11.933496510   19.321418649   26.602873459 XXX  2      ca+a    Ca  1.500
CA16    13.518817428   17.710482047   24.869545958 XXX  2      ca+a    Ca  1.500
CA17    10.108930063   17.300607838   27.849363207 XXX  2      ca+a    Ca  1.500
CA18    13.714085871   17.307912586   28.612797744 XXX  2      ca+a    Ca  1.500
AL5     11.795656305   22.743420440   30.119203016 XXX  2      ac1     Al  1.200
AL6     11.566702611   19.358450620   30.178946262 XXX  2      ac1     Al  1.200
O13     12.094659391   20.992902864   30.116005333 XXX  2      oc3     O  -0.750
O14      0.140297990   20.951325465   26.423879013 XXX  2      oc3     O  -0.750
O15     11.840744506   18.565750184   28.688728115 XXX  2      oc4     O  -1.350
O16     11.321635082   32.139553518   26.553167945 XXX  2      oc4     O  -1.350
O17     13.242274106   23.364466444   30.867227273 XXX  2      oc4     O  -1.350
O18     10.189707087   22.982915705   30.823181117 XXX  2      oc4     O  -1.350
CA19     4.255780151   19.182009797   18.976493044 XXX  2      ca+a    Ca  1.500
CA20     2.151190650   21.228276764   20.674741861 XXX  2      ca+a    Ca  1.500
AL7      0.687184213   19.233357154   15.339207439 XXX  2      ac1     Al  1.200
AL8      0.417502540   18.888880943   18.734287404 XXX  2      ac1     Al  1.200
O19      0.604137554   19.471892109   17.080629597 XXX  2      oc3     O  -0.750
O20      4.235389988   22.846726452   16.825432915 XXX  2      oc3     O  -0.750
O21      1.912944736   19.266720478   19.582578820 XXX  2      oc4     O  -1.350
O22      4.521412289   18.517489386   21.235728348 XXX  2      oc4     O  -1.350
O23      0.039149858   20.637802577   14.643650183 XXX  2      oc4     O  -1.350
O24     -0.021406771   17.606685149   15.103882336 XXX  2      oc4     O  -1.350
CA21    10.238628765   20.880601072   24.584052325 XXX  2      ca+a    Ca  1.500
CA22     9.800022099   17.106022831   24.691414276 XXX  2      ca+a    Ca  1.500
AL9      8.173048947   19.176695747   29.995511334 XXX  2      ac1     Al  1.200
AL10     8.089722784   19.308766075   26.636944821 XXX  2      ac1     Al  1.200
O25      8.065470370   18.901896567   28.272690852 XXX  2      oc3     O  -0.750
O26     12.218881882   30.647456296   28.621755974 XXX  2      oc3     O  -0.750
O27      9.677853471   18.902732272   26.051073091 XXX  2      oc4     O  -1.350
O28     12.275718886   19.551459203   24.248085034 XXX  2      oc4     O  -1.350
O29      7.581551148   17.694155351   30.676928771 XXX  2      oc4     O  -1.350
O30      7.419442992   20.703469375   30.289919718 XXX  2      oc4     O  -1.350
CA23     5.875656946   28.400947710   28.107191836 XXX  2      ca+a    Ca  1.500
CA24     6.147375580   24.741602813   28.513806946 XXX  2      ca+a    Ca  1.500
AL11     7.864340909   26.890199614   22.941434980 XXX  2      ac1     Al  1.200
AL12     7.892929725   26.882417017   26.293627698 XXX  2      ac1     Al  1.200
O31      7.911597881   26.572379754   24.613619506 XXX  2      oc3     O  -0.750
O32      4.307281075   23.270324581   24.494003314 XXX  2      oc3     O  -0.750
O33      6.373066180   26.290210942   26.900863946 XXX  2      oc4     O  -1.350
O34      3.385331413   27.401651909   13.497524321 XXX  2      oc4     O  -1.350
O35      8.620444211   25.429175264   22.343427140 XXX  2      oc4     O  -1.350
O36      8.581810371   28.539194186   22.722983066 XXX  2      oc4     O  -1.350
CA25    13.624212652   25.170762784   16.740757870 XXX  2      ca+a    Ca  1.500
CA26    14.483997712   30.374768047   14.163637955 XXX  2      ca+a    Ca  1.500
AL13    15.158105626   27.019972943   22.434130426 XXX  2      ac1     Al  1.200
AL14    15.661778864   26.843279952   19.115578938 XXX  2      ac1     Al  1.200
O37     15.345024137   27.364779227   20.751221626 XXX  2      oc3     O  -0.750
O38     11.744721725   15.019755886   20.804571159 XXX  2      oc3     O  -0.750
O39     14.171618415   27.173557416   18.188674517 XXX  2      oc4     O  -1.350
O40     11.502948588   26.256369947   31.694036465 XXX  2      oc4     O  -1.350
O41     15.550190143   28.454808067   23.336295416 XXX  2      oc4     O  -1.350
O42     15.946376588   25.479408190   22.611706825 XXX  2      oc4     O  -1.350
CA27     5.994654288   17.861341833   17.123712010 XXX  2      ca+a    Ca  1.500
CA28     6.204368796   17.191397288   20.824214509 XXX  2      ca+a    Ca  1.500
AL15     0.765833926   15.448962663   18.962164541 XXX  2      ac1     Al  1.200
AL16     4.167514016   15.343004123   18.610069547 XXX  2      ac1     Al  1.200
O43      2.499902590   15.347495587   19.167322513 XXX  2      oc3     O  -0.750
O44      2.203395825   19.204585313   22.430485619 XXX  2      oc3     O  -0.750
O45      4.806601444   16.954304802   18.936476495 XXX  2      oc4     O  -1.350
O46      6.677216889   19.423564031   18.398584267 XXX  2      oc4     O  -1.350
O47      0.208710119   14.688888350   20.438278822 XXX  2      oc4     O  -1.350
O48      0.475523892   14.748294041   17.368751593 XXX  2      oc4     O  -1.350
CA29     9.857571012   25.236444055   20.518966929 XXX  2      ca+a    Ca  1.500
CA30    10.090922853   24.912221144   16.954015451 XXX  2      ca+a    Ca  1.500
AL17    15.326460246   23.346460399   18.772567443 XXX  2      ac1     Al  1.200
AL18    11.989861434   22.995371245   19.065190581 XXX  2      ac1     Al  1.200
O49     13.661013168   23.167650318   18.526156426 XXX  2      oc3     O  -0.750
O50     13.861691600   26.825219610   30.401252458 XXX  2      oc3     O  -0.750
O51     11.188668457   24.497279119   18.806215098 XXX  2      oc4     O  -1.350
O52      9.465661830   27.097408391   19.199801750 XXX  2      oc4     O  -1.350
O53     15.862739151   22.606126678   17.241868393 XXX  2      oc4     O  -1.350
O54     15.549149282   22.529461818   20.327242250 XXX  2      oc4     O  -1.350
CA31    13.799264218   21.415185129   28.278953195 XXX  2      ca+a    Ca  1.500
CA32    13.670836912   21.457883018   24.410050150 XXX  2      ca+a    Ca  1.500
AL19     8.278366920   22.699056107   26.369317127 XXX  2      ac1     Al  1.200
AL20    11.648660270   23.052267842   26.680467658 XXX  2      ac1     Al  1.200
O55      9.996058117   22.972599170   26.107892837 XXX  2      oc3     O  -0.750
O56      9.952198882   18.988578863   22.976264070 XXX  2      oc3     O  -0.750
O57     12.416924497   21.450297471   26.421931676 XXX  2      oc4     O  -1.350
O58     -1.182171644   18.478338344   26.775215671 XXX  2      oc4     O  -1.350
O59      7.440741361   23.392223684   24.906409710 XXX  2      oc4     O  -1.350
O60      7.950543696   23.108974671   28.030488311 XXX  2      oc4     O  -1.350
CA33     2.540998908   28.312081001   24.588221702 XXX  2      ca+a    Ca  1.500
CA34     2.052842194   32.493110195   26.467893251 XXX  2      ca+a    Ca  1.500
AL21     7.756843461   30.294498695   26.509815041 XXX  2      ac1     Al  1.200
AL22     4.397111272   30.303105843   26.057319582 XXX  2      ac1     Al  1.200
O61      6.019612681   30.636761979   26.476964510 XXX  2      oc3     O  -0.750
O62      5.731409495   27.139123205   14.704612210 XXX  2      oc3     O  -0.750
O63      4.181480278   28.593051149   26.203319854 XXX  2      oc4     O  -1.350
O64     17.030690585   26.270184490   25.960408155 XXX  2      oc4     O  -1.350
O65      8.301913010   30.840926847   28.085349093 XXX  2      oc4     O  -1.350
O66      8.462066861   30.669895766   24.989979861 XXX  2      oc4     O  -1.350
CA35    13.364456931   28.349266330   24.663732964 XXX  2      ca+a    Ca  1.500
CA36    11.580844247   26.940541148   26.561952241 XXX  2      ca+a    Ca  1.500
CA37    13.528410321   25.200755772   27.909550614 XXX  2      ca+a    Ca  1.500
CA38     9.800034950   25.076431814   28.631762309 XXX  2      ca+a    Ca  1.500
AL23    11.685294285   30.376381297   30.229643011 XXX  2      ac1     Al  1.200
AL24    12.119497117   27.028416019   30.279382376 XXX  2      ac1     Al  1.200
O67     11.526608151   28.651436191   30.414913271 XXX  2      oc3     O  -0.750
O68      8.025529257   28.562392535   26.684938100 XXX  2      oc3     O  -0.750
O69     11.672721969   26.437711495   28.660525493 XXX  2      oc4     O  -1.350
O70     12.216152503   24.570123897   25.903007748 XXX  2      oc4     O  -1.350
O71     10.079386301   30.998374732   30.116302789 XXX  2      oc4     O  -1.350
O72     13.037473922   30.970449530   31.107761076 XXX  2      oc4     O  -1.350
CA39    12.033616031   19.376383292   18.529418863 XXX  2      ca+a    Ca  1.500
CA40    13.980904796   21.473275832   16.448133870 XXX  2      ca+a    Ca  1.500
CA41    10.102586758   21.050312574   20.217843219 XXX  2      ca+a    Ca  1.500
CA42    13.839984528   21.014428254   20.812247882 XXX  2      ca+a    Ca  1.500
AL25    11.934012245   15.560994087   22.453337380 XXX  2      ac1     Al  1.200
AL26    11.635990750   18.954086885   22.706475010 XXX  2      ac1     Al  1.200
O73     12.254624359   17.260858047   22.709860248 XXX  2      oc3     O  -0.750
O74      0.192272327   17.157425870   19.000260104 XXX  2      oc3     O  -0.750
O75     11.978082516   19.513529405   21.045501957 XXX  2      oc4     O  -1.350
O76     11.398164774   21.466089225   18.403306922 XXX  2      oc4     O  -1.350
O77     13.327445598   14.618399748   22.927144628 XXX  2      oc4     O  -1.350
O78     10.359041255   15.308530521   23.154508083 XXX  2      oc4     O  -1.350
CA43     4.306493571   19.425308026   26.418405044 XXX  2      ca+a    Ca  1.500
CA44     5.894942345   17.615659097   28.202978536 XXX  2      ca+a    Ca  1.500
CA45     2.576414725   17.399709295   25.027604406 XXX  2      ca+a    Ca  1.500
CA46     6.226504571   17.481136707   24.386521106 XXX  2      ca+a    Ca  1.500
AL27     4.262704269   22.719015178   22.797106977 XXX  2      ac1     Al  1.200
AL28     3.962771976   19.317814875   22.689994860 XXX  2      ac1     Al  1.200
O79      4.552990653   20.981747118   22.689658600 XXX  2      oc3     O  -0.750
O80      7.892639408   20.966817339   26.216437029 XXX  2      oc3     O  -0.750
O81      4.265979910   18.609053137   24.284892824 XXX  2      oc4     O  -1.350
O82      3.516273326   31.187195504   27.171672881 XXX  2      oc4     O  -1.350
O83      5.746370062   23.299246499   22.088460686 XXX  2      oc4     O  -1.350
O84      2.622838382   22.973843759   22.134053014 XXX  2      oc4     O  -1.350
CA47     4.386316236   26.920055744   18.601137429 XXX  2      ca+a    Ca  1.500
CA48     2.368745742   28.565466750   20.676659065 XXX  2      ca+a    Ca  1.500
CA49     9.848732956   32.305901203   11.646292347 XXX  2      ca+a    Ca  1.500
CA50     2.202867706   29.406554269   13.053656371 XXX  2      ca+a    Ca  1.500
AL29     4.084308662   23.292319065   15.152098194 XXX  2      ac1     Al  1.200
AL30     4.083407688   26.765320590   14.940470365 XXX  2      ac1     Al  1.200
O85      3.806181861   24.971001342   14.793045957 XXX  2      oc3     O  -0.750
O86     15.958165652   25.081076427   18.912107426 XXX  2      oc3     O  -0.750
O87      3.616264245   27.195785135   16.524780783 XXX  2      oc4     O  -1.350
O88      4.755043221   13.814261960   19.150681405 XXX  2      oc4     O  -1.350
O89      2.615884976   22.459186719   14.732050489 XXX  2      oc4     O  -1.350
O90      5.616240047   22.970725214   14.478809177 XXX  2      oc4     O  -1.350
CA51    15.625399791   30.583494681   22.797995679 XXX  2      ca+a    Ca  1.500
CA52    13.911750584   24.827970375   24.541693590 XXX  2      ca+a    Ca  1.500
AL31    15.461591843   26.963081607   29.802851420 XXX  2      ac1     Al  1.200
AL32    15.593043083   27.011333375   26.537132110 XXX  2      ac1     Al  1.200
O91     15.601509831   26.598502528   28.163516996 XXX  2      oc3     O  -0.750
O92     11.851104723   23.335537606   28.444690078 XXX  2      oc3     O  -0.750
O93     14.001228945   26.548499716   26.007979081 XXX  2      oc4     O  -1.350
O94     11.305649756   27.312796143   24.190129673 XXX  2      oc4     O  -1.350
O95     16.411831362   25.596421810   30.399336999 XXX  2      oc4     O  -1.350
O96     16.069725279   28.650088643   29.877012855 XXX  2      oc4     O  -1.350
CA53     5.712898725   25.119233453   20.723913391 XXX  2      ca+a    Ca  1.500
CA54     9.451797014   28.626527952   20.769550697 XXX  2      ca+a    Ca  1.500
AL33     7.417339269   27.113032786   15.124205736 XXX  2      ac1     Al  1.200
AL34     7.935824226   26.615044549   18.429485071 XXX  2      ac1     Al  1.200
O97      7.756056030   27.355363484   16.823082932 XXX  2      oc3     O  -0.750
O98      4.118838212   15.114508011   16.888492897 XXX  2      oc3     O  -0.750
O99      6.463881841   26.632913049   19.274167275 XXX  2      oc4     O  -1.350
O100     3.826456502   26.423303870   21.097202753 XXX  2      oc4     O  -1.350
O101     7.944726139   28.497167154   14.229868266 XXX  2      oc4     O  -1.350
O102     7.859792843   25.416279645   14.749387160 XXX  2      oc4     O  -1.350
CA55    10.365103695   17.468886229   16.996216954 XXX  2      ca+a    Ca  1.500
CA56     9.827905370   21.281008160   16.865333585 XXX  2      ca+a    Ca  1.500
AL35     8.300264258   19.125291305   22.388293913 XXX  2      ac1     Al  1.200
AL36     8.185986701   18.814567173   19.049571838 XXX  2      ac1     Al  1.200
O103     8.145903162   19.355904398   20.741339528 XXX  2      oc3     O  -0.750
O104    11.860150191   22.747595373   20.798355418 XXX  2      oc3     O  -0.750
O105     9.777093404   19.192089964   18.343410426 XXX  2      oc4     O  -1.350
O106    12.158290192   18.693564957   31.655972160 XXX  2      oc4     O  -1.350
O107     7.618484541   20.572428358   22.994458564 XXX  2      oc4     O  -1.350
O108     7.541087535   17.572631720   22.657825551 XXX  2      oc4     O  -1.350
CA57     2.314194794   20.927397773   28.522056188 XXX  2      ca+a    Ca  1.500
CA58     2.105815891   17.075965220   28.392243354 XXX  2      ca+a    Ca  1.500
AL37     0.537175890   19.147057575   22.918254893 XXX  2      ac1     Al  1.200
AL38     0.305214558   19.178128716   26.279048282 XXX  2      ac1     Al  1.200
O109     0.397806390   18.748739279   24.586976717 XXX  2      oc3     O  -0.750
O110     3.923284051   30.717773090   24.406838473 XXX  2      oc3     O  -0.750
O111     1.920059833   18.705811018   26.820962373 XXX  2      oc4     O  -1.350
O112     4.625450872   19.524727462   13.494558137 XXX  2      oc4     O  -1.350
O113    -0.057597466   17.653884246   22.157990961 XXX  2      oc4     O  -1.350
O114    -0.218070615   20.685656573   22.605252623 XXX  2      oc4     O  -1.350
CA59     9.910160078   28.861189430   28.361491474 XXX  2      ca+a    Ca  1.500
CA60     9.929831718   32.303126024   28.268276631 XXX  2      ca+a    Ca  1.500
AL39    15.234320545   30.389285675   26.238672544 XXX  2      ac1     Al  1.200
AL40    12.012658552   30.661256687   26.898519744 XXX  2      ac1     Al  1.200
O115    13.514359316   30.492704870   26.076790955 XXX  2      oc3     O  -0.750
O116    13.543750966   26.700094293   22.862792041 XXX  2      oc3     O  -0.750
O117    11.283916583   29.134370281   26.481167672 XXX  2      oc4     O  -1.350
O118     9.433633394   26.191605194   26.708158354 XXX  2      oc4     O  -1.350
O119    16.029093292   31.132322076   24.906920280 XXX  2      oc4     O  -1.350
O120    15.700009755   30.909478855   27.793395000 XXX  2      oc4     O  -1.350
CA61     6.247422897   21.504295286   24.521853773 XXX  2      ca+a    Ca  1.500
CA62     6.052125759   21.363758202   28.464952324 XXX  2      ca+a    Ca  1.500
AL41     0.825070790   22.543396100   26.373738739 XXX  2      ac1     Al  1.200
AL42     4.138201844   22.914425648   26.147644935 XXX  2      ac1     Al  1.200
O121     2.517795164   22.428966729   26.518599375 XXX  2      oc3     O  -0.750
O122     2.368109581   19.129157397   14.807556042 XXX  2      oc3     O  -0.750
O123     5.066670044   21.471637461   26.423622037 XXX  2      oc4     O  -1.350
O124     6.610875442   18.605553194   26.139434263 XXX  2      oc4     O  -1.350
O125     0.364894635   23.071930235   27.960464696 XXX  2      oc4     O  -1.350
O126     0.409660593   23.295880314   24.876746097 XXX  2      oc4     O  -1.350
CA63     2.248417747   25.298831701   17.108308527 XXX  2      ca+a    Ca  1.500
CA64     2.273030504   24.788800817   20.802589624 XXX  2      ca+a    Ca  1.500
AL43     7.812986291   23.205642804   18.824269776 XXX  2      ac1     Al  1.200
AL44     4.354244128   23.081522003   18.535126867 XXX  2      ac1     Al  1.200
O127     6.063849296   23.088417079   19.075732983 XXX  2      oc3     O  -0.750
O128     6.229630584   26.801763639   22.425979075 XXX  2      oc3     O  -0.750
O129     3.582469663   24.612206389   18.932441660 XXX  2      oc4     O  -1.350
O130    17.185230488   27.604538621   18.734270683 XXX  2      oc4     O  -1.350
O131     8.459002770   22.629446283   20.331845081 XXX  2      oc4     O  -1.350
O132     8.013696879   22.325256333   17.343059192 XXX  2      oc4     O  -1.350
CA65    13.513961389   17.727676909   20.578873222 XXX  2      ca+a    Ca  1.500
CA66    13.839560037   17.257549831   16.882065966 XXX  2      ca+a    Ca  1.500
AL45     8.440162651   15.420587761   18.722894195 XXX  2      ac1     Al  1.200
AL46    11.801901348   15.306860514   19.079783652 XXX  2      ac1     Al  1.200
O133    10.211223619   15.277803431   18.434100946 XXX  2      oc3     O  -0.750
O134     9.845095619   19.339770560   30.516798874 XXX  2      oc3     O  -0.750
O135    12.421474580   16.952358631   18.750482835 XXX  2      oc4     O  -1.350
O136    -1.198626790   19.603679455   19.162883956 XXX  2      oc4     O  -1.350
O137     7.814611862   14.634452823   17.323475376 XXX  2      oc4     O  -1.350
O138     8.273341452   14.874684506   20.373270657 XXX  2      oc4     O  -1.350
end
CA1     15.611040747   15.343740972   14.951834659 XXX  1      ca+a    Ca  1.500
CA2     23.274517438   15.436607692   15.064096471 XXX  1      ca+a    Ca  1.500
CA3     19.628107980   19.389549879   18.968040848 XXX  1      ca+a    Ca  1.500
CA4     21.876118984   21.358137909   21.074121024 XXX  1      ca+a    Ca  1.500
CA5     17.700471372   21.456671268   17.142580773 XXX  1      ca+a    Ca  1.500
CA6     21.541550461   21.177541802   16.940288185 XXX  1      ca+a    Ca  1.500
AL1     19.559877409   15.580711724   15.180265462 XXX  1      ac1     Al  1.200
AL2     19.255130789   19.016416272   14.984518256 XXX  1      ac1     Al  1.200
O1      19.819339226   17.315410511   15.003303099 XXX  1      oc3     O  -0.750
O2      23.033828493   17.191942049   18.759658414 XXX  1      oc3     O  -0.750
O3      19.704272094   19.638108497   16.600280796 XXX  1      oc4     O  -1.350
O4      18.984506127   21.629092391   19.152703886 XXX  1      oc4     O  -1.350
O5      21.045473692   14.824600894   14.660087166 XXX  1      oc4     O  -1.350
O6      17.953715865   15.261507922   14.572365828 XXX  1      oc4     O  -1.350
CA1     23.406012371   15.430241625   22.603098150 XXX  2      ca+a    Ca  1.500
CA2     15.406649806   15.663818283   22.675245310 XXX  2      ca+a    Ca  1.500
CA3     20.899590524   28.522026963   27.914010377 XXX  2      ca+a    Ca  1.500
CA4     19.224431736   26.862189414   26.214835906 XXX  2      ca+a    Ca  1.500
CA5     21.221222305   25.040002579   24.772875354 XXX  2      ca+a    Ca  1.500
CA6     17.368795569   24.871260223   24.164762510 XXX  2      ca+a    Ca  1.500
AL1     19.152459592   30.477813914   22.695187824 XXX  2      ac1     Al  1.200
AL2     19.768208475   27.119630467   22.664947981 XXX  2      ac1     Al  1.200
O1      19.384342129   28.775948186   22.995266309 XXX  2      oc3     O  -0.750
O2      31.263397057   28.575791225   26.243496450 XXX  2      oc3     O  -0.750
O3      19.381521283   26.202904537   24.113593798 XXX  2      oc4     O  -1.350
O4      19.722017824   24.581694467   26.968628056 XXX  2      oc4     O  -1.350
O5      17.552181922   30.419067526   21.913634340 XXX  2      oc4     O  -1.350
O6      20.571099115   31.011131287   21.890603680 XXX  2      oc4     O  -1.350
CA7     15.556120296   23.185546657   22.537041335 XXX  2      ca+a    Ca  1.500
CA8     23.600017381   23.374581982   22.650504268 XXX  2      ca+a    Ca  1.500
CA9     27.163914335   26.996841363   18.792244872 XXX  2      ca+a    Ca  1.500
CA10    25.017960822   28.498581254   16.664616532 XXX  2      ca+a    Ca  1.500
CA11    29.860156019   30.085610253   29.538444910 XXX  2      ca+a    Ca  1.500
CA12    24.887344824   28.444479181   20.837088512 XXX  2      ca+a    Ca  1.500
AL3     27.056029254   23.302659124   22.436415052 XXX  2      ac1     Al  1.200
AL4     27.124663634   26.733481809   22.595677519 XXX  2      ac1     Al  1.200
O7      26.755280568   25.017916190   22.722086591 XXX  2      oc3     O  -0.750
O8      23.536540025   24.891226850   18.704918761 XXX  2      oc3     O  -0.750
O9      26.668001117   27.277809425   21.000160850 XXX  2      oc4     O  -1.350
O10     27.536557990   13.839840091   18.618038530 XXX  2      oc4     O  -1.350
O11     25.672527883   22.376562323   22.937019325 XXX  2      oc4     O  -1.350
O12     28.584902158   22.999459613   23.155196825 XXX  2      oc4     O  -1.350
CA13    23.099188618   23.166103232   15.176636841 XXX  2      ca+a    Ca  1.500
CA14    15.929831280   23.586260125   15.033114175 XXX  2      ca+a    Ca  1.500
CA15    27.203339368   19.307904895   26.554491524 XXX  2      ca+a    Ca  1.500
CA16    28.781824022   17.490479775   24.770399578 XXX  2      ca+a    Ca  1.500
CA17    25.313361114   17.342953850   28.000308073 XXX  2      ca+a    Ca  1.500
CA18    29.008041819   17.498233231   28.665584279 XXX  2      ca+a    Ca  1.500
AL5     27.081124832   22.728271976   30.161591740 XXX  2      ac1     Al  1.200
AL6     26.767646588   19.294758863   30.312099461 XXX  2      ac1     Al  1.200
O13     27.310642055   20.968524197   30.199177006 XXX  2      oc3     O  -0.750
O14     15.287552267   21.234403289   26.440262932 XXX  2      oc3     O  -0.750
O15     27.050783365   18.578569600   28.710935055 XXX  2      oc4     O  -1.350
O16     26.294546305   30.936177521   25.525378000 XXX  2      oc4     O  -1.350
O17     28.689897239   23.168364274   30.781398098 XXX  2      oc4     O  -1.350
O18     25.548900108   23.093031249   30.992915702 XXX  2      oc4     O  -1.350
CA19    18.075542102   17.412704290   20.607098008 XXX  2      ca+a    Ca  1.500
CA20    17.336470885   21.292639943   20.648428936 XXX  2      ca+a    Ca  1.500
AL7     15.896459400   19.106680665   15.342169076 XXX  2      ac1     Al  1.200
AL8     15.706878075   18.773219163   18.745715356 XXX  2      ac1     Al  1.200
O19     15.718471496   19.333971497   17.044118942 XXX  2      oc3     O  -0.750
O20     19.742482271   22.970943900   16.898962940 XXX  2      oc3     O  -0.750
O21     17.307457197   19.174716235   19.480897999 XXX  2      oc4     O  -1.350
O22     19.883127660   18.679776651   21.141206055 XXX  2      oc4     O  -1.350
O23     15.193409394   20.550354571   14.603554677 XXX  2      oc4     O  -1.350
O24     15.231089792   17.527151596   15.087943392 XXX  2      oc4     O  -1.350
CA21    25.470287164   20.943668379   24.638218473 XXX  2      ca+a    Ca  1.500
CA22    25.060902394   17.152128738   24.595014724 XXX  2      ca+a    Ca  1.500
AL9     23.356594305   19.128826603   30.051086769 XXX  2      ac1     Al  1.200
AL10    23.320255915   19.279585650   26.655412233 XXX  2      ac1     Al  1.200
O25     23.457632090   18.808445069   28.332022160 XXX  2      oc3     O  -0.750
O26     26.659077747   30.704406746   28.321057842 XXX  2      oc3     O  -0.750
O27     24.911401441   19.065413660   25.960730047 XXX  2      oc4     O  -1.350
O28     27.519666122   19.431586460   24.322759996 XXX  2      oc4     O  -1.350
O29     22.592853959   17.630914293   30.578714812 XXX  2      oc4     O  -1.350
O30     22.693923136   20.777935379   30.269476087 XXX  2      oc4     O  -1.350
CA23    23.544006336   30.709941772   29.653962089 XXX  2      ca+a    Ca  1.500
CA24    21.526817933   24.902095481   28.387744099 XXX  2      ca+a    Ca  1.500
AL11    23.218425989   26.914505994   22.852897664 XXX  2      ac1     Al  1.200
AL12    23.300980988   27.026835631   26.300632616 XXX  2      ac1     Al  1.200
O31     23.379612145   26.531191941   24.550707083 XXX  2      oc3     O  -0.750
O32     19.239316965   23.258713549   24.508872880 XXX  2      oc3     O  -0.750
O33     21.649209052   26.677757559   26.843290424 XXX  2      oc4     O  -1.350
O34     18.824987807   27.439589327   13.501682303 XXX  2      oc4     O  -1.350
O35     23.792240427   25.532509167   22.027278426 XXX  2      oc4     O  -1.350
O36     23.802279669   28.619479279   22.689120369 XXX  2      oc4     O  -1.350
CA25    28.584524758   25.073755599   17.006352595 XXX  2      ca+a    Ca  1.500
CA26    32.363094708   28.473595359   16.691772332 XXX  2      ca+a    Ca  1.500
AL13    30.571446872   26.960424915   22.351983378 XXX  2      ac1     Al  1.200
AL14    30.850683415   26.534302562   19.010462629 XXX  2      ac1     Al  1.200
O37     30.787938339   27.141544972   20.671049307 XXX  2      oc3     O  -0.750
O38     26.914084508   15.129608531   20.815573080 XXX  2      oc3     O  -0.750
O39     29.304628283   26.773013963   18.264624747 XXX  2      oc4     O  -1.350
O40     26.825327132   26.665972574   32.080437189 XXX  2      oc4     O  -1.350
O41     31.419261790   28.298788303   23.091476893 XXX  2      oc4     O  -1.350
O42     30.965197594   25.268454907   22.738395720 XXX  2      oc4     O  -1.350
CA27    21.260850393   17.884858639   16.961701083 XXX  2      ca+a    Ca  1.500
CA28    21.491023327   17.225067481   20.786420615 XXX  2      ca+a    Ca  1.500
AL15    16.025115748   15.367188352   18.916864780 XXX  2      ac1     Al  1.200
AL16    19.417263276   15.349616743   18.580211982 XXX  2      ac1     Al  1.200
O43     17.761988025   15.238750202   19.152667553 XXX  2      oc3     O  -0.750
O44     17.430497893   19.167563028   22.397535843 XXX  2      oc3     O  -0.750
O45     20.071836990   16.994198844   18.952092171 XXX  2      oc4     O  -1.350
O46     21.859656375   19.755844577   18.667690815 XXX  2      oc4     O  -1.350
O47     15.380084319   14.689184431   20.365215844 XXX  2      oc4     O  -1.350
O48     15.722022837   14.731855052   17.290615182 XXX  2      oc4     O  -1.350
CA29    25.196138483   25.481618792   20.437930373 XXX  2      ca+a    Ca  1.500
CA30    25.260687450   24.850606418   16.835035730 XXX  2      ca+a    Ca  1.500
AL17    30.645721922   23.132154310   18.774358161 XXX  2      ac1     Al  1.200
AL18    27.269000464   23.043807475   19.053665325 XXX  2      ac1     Al  1.200
O49     28.942260858   23.166794125   18.477207115 XXX  2      oc3     O  -0.750
O50     29.025797969   26.878685284   30.553283267 XXX  2      oc3     O  -0.750
O51     26.487340265   24.548032718   18.654889526 XXX  2      oc4     O  -1.350
O52     24.852961878   27.192219686   19.036144945 XXX  2      oc4     O  -1.350
O53     31.290831903   22.484560161   17.324041428 XXX  2      oc4     O  -1.350
O54     30.880548948   22.383773584   20.288495833 XXX  2      oc4     O  -1.350
CA31    29.152191717   21.572583295   28.281943083 XXX  2      ca+a    Ca  1.500
CA32    28.916544084   21.266635080   24.407740071 XXX  2      ca+a    Ca  1.500
AL19    23.487253890   22.704992420   26.389298702 XXX  2      ac1     Al  1.200
AL20    26.883462213   23.009736170   26.664670995 XXX  2      ac1     Al  1.200
O55     25.234626842   22.915311494   26.139469902 XXX  2      oc3     O  -0.750
O56     25.179658753   19.019918946   22.949786228 XXX  2      oc3     O  -0.750
O57     27.636920468   21.475534353   26.398174214 XXX  2      oc4     O  -1.350
O58     14.156973097   18.673778463   26.845006167 XXX  2      oc4     O  -1.350
O59     22.692440075   23.276794179   24.943410833 XXX  2      oc4     O  -1.350
O60     23.158063979   23.366900115   27.938873833 XXX  2      oc4     O  -1.350
CA33    17.441606871   29.028152320   24.575203058 XXX  2      ca+a    Ca  1.500
CA34    17.493065820   29.439118658   28.156694531 XXX  2      ca+a    Ca  1.500
AL21    22.907236262   30.427184124   26.336720074 XXX  2      ac1     Al  1.200
AL22    19.436871789   30.752304970   26.095684688 XXX  2      ac1     Al  1.200
O61     21.198316483   30.734425133   26.542400359 XXX  2      oc3     O  -0.750
O62     21.244675117   26.881116273   14.657326364 XXX  2      oc3     O  -0.750
O63     18.951069553   29.099564679   26.288222213 XXX  2      oc4     O  -1.350
O64     32.546947464   26.125160851   26.095072064 XXX  2      oc4     O  -1.350
O65     23.638167480   31.243797977   27.660255303 XXX  2      oc4     O  -1.350
O66     23.499413695   30.930616424   24.779146501 XXX  2      oc4     O  -1.350
CA35    28.532694553   28.264890559   24.913406804 XXX  2      ca+a    Ca  1.500
CA36    25.724352726   25.674439280   25.048841271 XXX  2      ca+a    Ca  1.500
CA37    28.133298848   26.070037380   27.448417577 XXX  2      ca+a    Ca  1.500
CA38    25.030700042   24.918006848   28.510363951 XXX  2      ca+a    Ca  1.500
AL23    26.691180420   30.424285220   30.119986619 XXX  2      ac1     Al  1.200
AL24    27.317628262   27.108830666   30.535856967 XXX  2      ac1     Al  1.200
O67     26.688688770   28.665374840   30.356973039 XXX  2      oc3     O  -0.750
O68     23.483877079   28.809734084   26.529769802 XXX  2      oc3     O  -0.750
O69     26.730867616   26.149148922   29.165437213 XXX  2      oc4     O  -1.350
O70     27.451762519   24.485604572   25.977678846 XXX  2      oc4     O  -1.350
O71     25.201131679   30.793776471   30.902856070 XXX  2      oc4     O  -1.350
O72     28.280013395   30.999020551   30.655579941 XXX  2      oc4     O  -1.350
CA39    27.108588008   19.287945420   18.630610087 XXX  2      ca+a    Ca  1.500
CA40    29.350632682   21.304226089   16.806804002 XXX  2      ca+a    Ca  1.500
CA41    25.479598019   21.133547157   20.615661960 XXX  2      ca+a    Ca  1.500
CA42    29.072197185   21.082259565   20.872502303 XXX  2      ca+a    Ca  1.500
AL25    27.161866263   15.555986625   22.471075031 XXX  2      ac1     Al  1.200
AL26    26.936737626   18.905172933   22.754912691 XXX  2      ac1     Al  1.200
O73     27.429709149   17.240150726   22.649427632 XXX  2      oc3     O  -0.750
O74     15.518381732   17.040137960   18.997649155 XXX  2      oc3     O  -0.750
O75     27.337954574   19.626150428   21.192046824 XXX  2      oc4     O  -1.350
O76     26.702764603   21.533342646   18.569086234 XXX  2      oc4     O  -1.350
O77     28.589301796   14.786168171   22.956750672 XXX  2      oc4     O  -1.350
O78     25.640017486   15.284499593   23.179805709 XXX  2      oc4     O  -1.350
CA43    19.653691059   19.184135826   26.338657427 XXX  2      ca+a    Ca  1.500
CA44    21.239014649   17.676690112   28.253863806 XXX  2      ca+a    Ca  1.500
CA45    17.682084276   17.525059517   24.999480476 XXX  2      ca+a    Ca  1.500
CA46    21.490356393   17.332503505   24.230341366 XXX  2      ca+a    Ca  1.500
AL27    19.473451409   22.726453527   22.813719440 XXX  2      ac1     Al  1.200
AL28    19.214568198   19.303672273   22.664612114 XXX  2      ac1     Al  1.200
O79     19.755122719   20.994846324   22.757121693 XXX  2      oc3     O  -0.750
O80     23.031444723   20.999042277   26.467914488 XXX  2      oc3     O  -0.750
O81     19.500766342   18.526735268   24.233578624 XXX  2      oc4     O  -1.350
O82     18.587172793   31.760807339   27.113865728 XXX  2      oc4     O  -1.350
O83     21.073309130   23.333601014   22.286750360 XXX  2      oc4     O  -1.350
O84     17.970184635   23.008726426   21.975858850 XXX  2      oc4     O  -1.350
CA47    19.708751498   26.855931624   18.552790337 XXX  2      ca+a    Ca  1.500
CA48    17.942715775   28.602860790   20.577336312 XXX  2      ca+a    Ca  1.500
CA49    23.636107745   30.493307326   14.378738820 XXX  2      ca+a    Ca  1.500
CA50    13.944641545   28.984582744   16.925793274 XXX  2      ca+a    Ca  1.500
AL29    19.365286314   23.423310279   15.289874410 XXX  2      ac1     Al  1.200
AL30    19.563874944   26.831814461   14.959238351 XXX  2      ac1     Al  1.200
O85     19.078450706   25.141884048   15.054624189 XXX  2      oc3     O  -0.750
O86     31.210376524   24.783399334   18.906538332 XXX  2      oc3     O  -0.750
O87     19.224880357   27.521837728   16.515318642 XXX  2      oc4     O  -1.350
O88     20.216871537   13.881468518   19.074366115 XXX  2      oc4     O  -1.350
O89     17.884585563   22.491588850   14.981425834 XXX  2      oc4     O  -1.350
O90     20.856775707   23.060283969   14.343592720 XXX  2      oc4     O  -1.350
CA51    31.307607346   30.558085836   23.063837808 XXX  2      ca+a    Ca  1.500
CA52    29.228974223   24.719334340   24.538830444 XXX  2      ca+a    Ca  1.500
AL31    30.692732995   26.789581287   29.918408123 XXX  2      ac1     Al  1.200
AL32    31.049188932   26.870865806   26.582531037 XXX  2      ac1     Al  1.200
O91     30.797285102   26.456546785   28.249772612 XXX  2      oc3     O  -0.750
O92     26.992368024   23.231619488   28.417559088 XXX  2      oc3     O  -0.750
O93     29.508701417   26.554329862   25.824076418 XXX  2      oc4     O  -1.350
O94     26.423141860   27.523949773   23.982840928 XXX  2      oc4     O  -1.350
O95     31.431765744   25.423990115   30.720247308 XXX  2      oc4     O  -1.350
O96     31.330732649   28.422613491   30.021455572 XXX  2      oc4     O  -1.350
CA53    21.149458353   25.167462978   20.770021111 XXX  2      ca+a    Ca  1.500
CA54    22.286210268   30.438169455   22.955462719 XXX  2      ca+a    Ca  1.500
AL33    22.941879865   26.886031452   15.198596907 XXX  2      ac1     Al  1.200
AL34    23.201718089   26.637560258   18.536162320 XXX  2      ac1     Al  1.200
O97     22.996736498   27.131673336   16.862099508 XXX  2      oc3     O  -0.750
O98     19.495073865   15.071435096   16.853128247 XXX  2      oc3     O  -0.750
O99     21.779950310   26.965455496   19.435063113 XXX  2      oc4     O  -1.350
O100    19.161374445   26.642670801   21.109531118 XXX  2      oc4     O  -1.350
O101    23.778961234   28.216380991   14.558928223 XXX  2      oc4     O  -1.350
O102    23.585834695   25.316437259   14.977433054 XXX  2      oc4     O  -1.350
CA55    25.393791921   17.465197841   16.914221986 XXX  2      ca+a    Ca  1.500
CA56    25.164086188   21.387234466   16.995814079 XXX  2      ca+a    Ca  1.500
AL35    23.622717776   19.179125204   22.342995905 XXX  2      ac1     Al  1.200
AL36    23.382020124   18.946540111   18.942108052 XXX  2      ac1     Al  1.200
O103    23.623907844   19.388610159   20.635505931 XXX  2      oc3     O  -0.750
O104    27.193381648   22.851639450   20.781707832 XXX  2      oc3     O  -0.750
O105    24.912279146   19.253354841   18.124941814 XXX  2      oc4     O  -1.350
O106    27.497793614   18.742215428   31.783823066 XXX  2      oc4     O  -1.350
O107    22.888794923   20.634722267   23.028728017 XXX  2      oc4     O  -1.350
O108    22.869374895   17.629501233   22.574332944 XXX  2      oc4     O  -1.350
CA57    17.973686904   21.066195273   28.300571685 XXX  2      ca+a    Ca  1.500
CA58    17.431342853   17.291582447   28.345607360 XXX  2      ca+a    Ca  1.500
AL37    15.730591236   19.208728774   22.914637026 XXX  2      ac1     Al  1.200
AL38    15.608602427   19.514966959   26.311696653 XXX  2      ac1     Al  1.200
O109    15.625583264   18.950939933   24.640506725 XXX  2      oc3     O  -0.750
O110    19.059512023   31.121569517   24.352126376 XXX  2      oc3     O  -0.750
O111    17.182706075   19.035092503   26.875493072 XXX  2      oc4     O  -1.350
O112    19.897819018   19.560498655   13.437035257 XXX  2      oc4     O  -1.350
O113    14.912649779   17.752804428   22.339338631 XXX  2      oc4     O  -1.350
O114    14.979581131   20.689067385   22.630318179 XXX  2      oc4     O  -1.350
CA59    25.425898601   28.023324062   28.179337511 XXX  2      ca+a    Ca  1.500
CA60    25.173896157   29.385464683   24.439515257 XXX  2      ca+a    Ca  1.500
AL39    30.703573712   30.273873063   26.455427313 XXX  2      ac1     Al  1.200
AL40    27.248383142   30.175388572   26.728362705 XXX  2      ac1     Al  1.200
O115    28.955141117   30.567678245   26.351692436 XXX  2      oc3     O  -0.750
O116    28.870589186   27.117789920   22.783475255 XXX  2      oc3     O  -0.750
O117    27.193448461   28.428684556   26.822826526 XXX  2      oc4     O  -1.350
O118    24.779227509   26.348876312   26.926192196 XXX  2      oc4     O  -1.350
O119    31.360041402   31.120861991   25.114308936 XXX  2      oc4     O  -1.350
O120    31.268331730   30.633901077   28.045236711 XXX  2      oc4     O  -1.350
CA61    21.448425545   21.391919609   24.492464236 XXX  2      ca+a    Ca  1.500
CA62    21.446221944   21.374412218   28.421245229 XXX  2      ca+a    Ca  1.500
AL41    15.805779706   22.849516103   26.520257790 XXX  2      ac1     Al  1.200
AL42    19.168258299   23.057938554   26.279824625 XXX  2      ac1     Al  1.200
O121    17.539303801   22.930741429   26.848262644 XXX  2      oc3     O  -0.750
O122    17.552807938   19.044111658   14.763816156 XXX  2      oc3     O  -0.750
O123    19.895319468   21.473567496   26.554584958 XXX  2      oc4     O  -1.350
O124    21.916880726   18.457293490   26.125448272 XXX  2      oc4     O  -1.350
O125    14.963998678   23.479311737   27.925836720 XXX  2      oc4     O  -1.350
O126    15.625358088   23.449393636   24.914020819 XXX  2      oc4     O  -1.350
CA63    17.080096798   27.074916841   16.620424664 XXX  2      ca+a    Ca  1.500
CA64    17.750253089   24.935481212   20.686668657 XXX  2      ca+a    Ca  1.500
AL43    23.090932494   23.191049082   19.019389607 XXX  2      ac1     Al  1.200
AL44    19.750034136   23.080717567   18.689752209 XXX  2      ac1     Al  1.200
O127    21.426126773   22.972716575   19.277361011 XXX  2      oc3     O  -0.750
O128    21.545452370   26.824406708   22.462099592 XXX  2      oc3     O  -0.750
O129    19.354097319   24.663497243   19.210558357 XXX  2      oc4     O  -1.350
O130    32.370925408   27.374926587   18.508588975 XXX  2      oc4     O  -1.350
O131    23.795423646   22.515778177   20.464372855 XXX  2      oc4     O  -1.350
O132    23.349004044   22.410404674   17.443167289 XXX  2      oc4     O  -1.350
CA65    28.913443841   17.742620105   20.569568240 XXX  2      ca+a    Ca  1.500
CA66    29.020056340   17.081898304   16.953355851 XXX  2      ca+a    Ca  1.500
AL45    23.562642088   15.538422307   18.676894111 XXX  2      ac1     Al  1.200
AL46    26.928557730   15.416728369   19.098579106 XXX  2      ac1     Al  1.200
O133    25.263482906   15.441781476   18.443341438 XXX  2      oc3     O  -0.750
O134    25.007406876   19.158617519   30.618527810 XXX  2      oc3     O  -0.750
O135    27.719287319   16.983613625   18.814282505 XXX  2      oc4     O  -1.350
O136    14.216856255   19.393464467   19.334697159 XXX  2      oc4     O  -1.350
O137    23.167705797   14.710775261   17.152558084 XXX  2      oc4     O  -1.350
O138    23.417903521   14.806086469   20.204423250 XXX  2      oc4     O  -1.350
end
CA1     -0.088801733  130.365822754   16.283687435 XXX  1      ca+a    Ca  1.500
CA2      4.375248261  128.656708535   17.470004567 XXX  1      ca+a    Ca  1.500
CA3      3.115399881  134.348895104   19.409337126 XXX  1      ca+a    Ca  1.500
CA4      5.253168050  136.216205897   21.053890879 XXX  1      ca+a    Ca  1.500
CA5      1.743247259  136.115191162   17.260707016 XXX  1      ca+a    Ca  1.500
CA6      5.389719423  135.870839156   17.181407282 XXX  1      ca+a    Ca  1.500
AL1      2.770297877  130.521358492   15.467035312 XXX  1      ac1     Al  1.200
AL2      3.074215699  133.931766833   15.301276255 XXX  1      ac1     Al  1.200
O1       3.386106781  132.170687439   15.339682723 XXX  1      oc3     O  -0.750
O2       6.598846173  132.384694400   19.030046784 XXX  1      oc3     O  -0.750
O3       3.384278204  134.507561710   16.935197597 XXX  1      oc4     O  -1.350
O4       3.086898512  136.476574987   19.734545377 XXX  1      oc4     O  -1.350
O5       4.141307473  129.489716481   15.319836683 XXX  1      oc4     O  -1.350
O6       1.304648284  130.504242950   14.522950271 XXX  1      oc4     O  -1.350
CA1      7.713866334  130.286519170   22.389551811 XXX  2      ca+a    Ca  1.500
CA2     -2.998844973  128.580383778   20.926344537 XXX  2      ca+a    Ca  1.500
CA3      3.488760769  141.869008256   26.926520431 XXX  2      ca+a    Ca  1.500
CA4      1.874661738  140.139315480   28.696860722 XXX  2      ca+a    Ca  1.500
CA5      5.277420406  139.907255625   25.399328068 XXX  2      ca+a    Ca  1.500
CA6      1.610053027  140.198670349   24.785361183 XXX  2      ca+a    Ca  1.500
AL1      3.634225028  145.383327541   23.320223622 XXX  2      ac1     Al  1.200
AL2      3.933142554  141.958074653   23.170540077 XXX  2      ac1     Al  1.200
O1       3.407180458  143.660553144   23.257863841 XXX  2      oc3     O  -0.750
O2      15.369276059  143.721405070   26.837857019 XXX  2      oc3     O  -0.750
O3       3.689010502  141.206745007   24.764572265 XXX  2      oc4     O  -1.350
O4       3.890646883  139.443462895   27.381673701 XXX  2      oc4     O  -1.350
O5       2.128217662  145.941895279   22.719951327 XXX  2      oc4     O  -1.350
O6       5.217523517  145.646746499   22.565745784 XXX  2      oc4     O  -1.350
CA7     -0.470796281  138.063673760   23.103461952 XXX  2      ca+a    Ca  1.500
CA8      7.420919145  138.049472775   23.106045042 XXX  2      ca+a    Ca  1.500
CA9     11.152282815  142.022062113   19.103664577 XXX  2      ca+a    Ca  1.500
CA10     9.055801103  143.970444456   17.285684839 XXX  2      ca+a    Ca  1.500
CA11    13.004026699  143.925179377   21.228467509 XXX  2      ca+a    Ca  1.500
CA12     9.256924264  143.554261829   21.605325951 XXX  2      ca+a    Ca  1.500
AL3     11.033755999  138.243709432   22.984898304 XXX  2      ac1     Al  1.200
AL4     11.540493940  141.626261304   23.290194057 XXX  2      ac1     Al  1.200
O7      11.278949602  139.872581101   23.472870969 XXX  2      oc3     O  -0.750
O8       7.594694475  139.810128635   19.325111229 XXX  2      oc3     O  -0.750
O9      11.042262274  142.039065964   21.652464943 XXX  2      oc4     O  -1.350
O10     11.238329454  129.435014735   19.096084480 XXX  2      oc4     O  -1.350
O11      9.620822845  137.794608569   23.837224291 XXX  2      oc4     O  -1.350
O12     12.642929901  137.466426756   23.277581674 XXX  2      oc4     O  -1.350
CA13     7.245630959  138.178766954   15.648508597 XXX  2      ca+a    Ca  1.500
CA14    -2.640952513  140.142970629   17.667279943 XXX  2      ca+a    Ca  1.500
CA15    11.083754719  134.240446491   26.987716111 XXX  2      ca+a    Ca  1.500
CA16    13.924896430  130.313591846   23.170641669 XXX  2      ca+a    Ca  1.500
CA17     9.275096043  132.119856200   28.745374125 XXX  2      ca+a    Ca  1.500
CA18    12.906786345  133.161898601   29.613662744 XXX  2      ca+a    Ca  1.500
AL5     11.165311951  137.550670531   30.717234449 XXX  2      ac1     Al  1.200
AL6     10.617050118  134.189815527   30.868947937 XXX  2      ac1     Al  1.200
O13     11.355506765  135.810015856   30.888803875 XXX  2      oc3     O  -0.750
O14     -0.176330544  135.720471772   27.397972343 XXX  2      oc3     O  -0.750
O15     10.875668072  133.543132484   29.216669270 XXX  2      oc4     O  -1.350
O16     10.951155021  147.127220464   26.572848611 XXX  2      oc4     O  -1.350
O17     12.685720300  138.184611565   31.447836927 XXX  2      oc4     O  -1.350
O18      9.518090624  137.864404639   31.214938988 XXX  2      oc4     O  -1.350
CA19     1.506401195  132.500281179   21.207068464 XXX  2      ca+a    Ca  1.500
CA20     1.390417476  136.267779310   21.294094667 XXX  2      ca+a    Ca  1.500
AL7     -0.271216070  134.088759930   15.980616972 XXX  2      ac1     Al  1.200
AL8     -0.510687587  134.103379814   19.344083924 XXX  2      ac1     Al  1.200
O19     -0.054348252  134.333629118   17.690748188 XXX  2      oc3     O  -0.750
O20      3.240638870  137.980836982   17.438142190 XXX  2      oc3     O  -0.750
O21      0.925909073  134.370270508   20.325641994 XXX  2      oc4     O  -1.350
O22      3.621225608  133.213382219   22.003476657 XXX  2      oc4     O  -1.350
O23     -1.132233370  135.527883433   15.456249323 XXX  2      oc4     O  -1.350
O24     -0.784867685  132.400064489   15.838707132 XXX  2      oc4     O  -1.350
CA21     9.678421568  136.155536527   25.187726265 XXX  2      ca+a    Ca  1.500
CA22     8.555166123  132.077161157   24.944743581 XXX  2      ca+a    Ca  1.500
AL9      7.364093550  133.441266567   30.533838767 XXX  2      ac1     Al  1.200
AL10     7.237546635  134.179981087   27.198745831 XXX  2      ac1     Al  1.200
O25      6.877601837  133.966479553   28.867425222 XXX  2      oc3     O  -0.750
O26     11.441986321  145.879374157   28.964108526 XXX  2      oc3     O  -0.750
O27      8.690693586  133.198864123   26.863796732 XXX  2      oc4     O  -1.350
O28     11.272714904  134.635165849   24.780425739 XXX  2      oc4     O  -1.350
O29      8.031738111  131.842905029   30.428582413 XXX  2      oc4     O  -1.350
O30      6.245153314  133.869040523   31.731848110 XXX  2      oc4     O  -1.350
CA23     5.167184809  143.703162445   28.788974390 XXX  2      ca+a    Ca  1.500
CA24     5.573819774  139.803673266   28.843270780 XXX  2      ca+a    Ca  1.500
AL11     7.253237463  141.698534983   23.374943662 XXX  2      ac1     Al  1.200
AL12     7.415975971  141.898731686   26.750203273 XXX  2      ac1     Al  1.200
O31      7.222303477  141.456277890   25.102448961 XXX  2      oc3     O  -0.750
O32      3.515651266  138.110907087   24.967488328 XXX  2      oc3     O  -0.750
O33      5.835762877  141.577619218   27.523594646 XXX  2      oc4     O  -1.350
O34      3.216285627  142.170670001   13.946076788 XXX  2      oc4     O  -1.350
O35      8.076389920  140.246520241   22.869596235 XXX  2      oc4     O  -1.350
O36      7.937534400  143.280035558   23.270886986 XXX  2      oc4     O  -1.350
CA25    12.578302542  139.928033277   17.679911662 XXX  2      ca+a    Ca  1.500
CA26    13.393881643  144.000252878   17.580522312 XXX  2      ca+a    Ca  1.500
AL13    14.824405323  141.903219611   22.947534105 XXX  2      ac1     Al  1.200
AL14    15.031631893  141.515823477   19.532111387 XXX  2      ac1     Al  1.200
O37     14.978069938  142.131944497   21.165686680 XXX  2      oc3     O  -0.750
O38     10.064586729  130.291685729   21.428793453 XXX  2      oc3     O  -0.750
O39     13.460497830  141.782585408   18.856375342 XXX  2      oc4     O  -1.350
O40     10.802492936  141.248228392   32.203338920 XXX  2      oc4     O  -1.350
O41     15.672288168  143.267341106   23.527852103 XXX  2      oc4     O  -1.350
O42     15.341352654  140.244199929   23.195747134 XXX  2      oc4     O  -1.350
CA27     4.726096273  132.804181770   17.606647998 XXX  2      ca+a    Ca  1.500
CA28     4.606670973  131.464667322   20.789563891 XXX  2      ca+a    Ca  1.500
AL15    -0.721368455  130.783508248   19.613867199 XXX  2      ac1     Al  1.200
AL16     2.485816138  130.473380595   18.911405230 XXX  2      ac1     Al  1.200
O43      0.981071394  130.399838115   19.740396337 XXX  2      oc3     O  -0.750
O44      1.235751454  134.017103660   23.136234736 XXX  2      oc3     O  -0.750
O45      3.137140345  132.079866227   19.289858384 XXX  2      oc4     O  -1.350
O46      5.398401734  134.763165562   19.177743548 XXX  2      oc4     O  -1.350
O47     -1.457560231  130.290292197   21.063671415 XXX  2      oc4     O  -1.350
O48     -1.292872128  130.433765302   18.007520509 XXX  2      oc4     O  -1.350
CA29     9.508139590  140.382091257   21.098705424 XXX  2      ca+a    Ca  1.500
CA30     9.245167641  139.913890344   17.370770627 XXX  2      ca+a    Ca  1.500
AL17    14.596364073  138.151097209   19.395173272 XXX  2      ac1     Al  1.200
AL18    11.133780152  138.060868905   19.571318392 XXX  2      ac1     Al  1.200
O49     12.829645682  138.085564402   19.167458999 XXX  2      oc3     O  -0.750
O50     13.233908889  141.806286523   31.008185366 XXX  2      oc3     O  -0.750
O51     10.658892755  139.642074408   19.076949384 XXX  2      oc4     O  -1.350
O52      8.868096298  142.202096274   19.789755485 XXX  2      oc4     O  -1.350
O53     15.133266724  137.451771175   17.835819784 XXX  2      oc4     O  -1.350
O54     14.791258247  137.319449895   20.979451231 XXX  2      oc4     O  -1.350
CA31    13.090911893  136.333711740   28.879143110 XXX  2      ca+a    Ca  1.500
CA32    12.854871688  136.198420196   25.067780932 XXX  2      ca+a    Ca  1.500
AL19     7.515744214  137.611751300   27.088452326 XXX  2      ac1     Al  1.200
AL20    10.868556624  138.079213567   27.314587235 XXX  2      ac1     Al  1.200
O55      9.105794967  138.259850196   26.998731570 XXX  2      oc3     O  -0.750
O56      9.021048963  134.146368624   23.439755709 XXX  2      oc3     O  -0.750
O57     11.269586936  136.462708907   26.820457816 XXX  2      oc4     O  -1.350
O58     -2.009653480  133.719006004   27.663770692 XXX  2      oc4     O  -1.350
O59      6.658480427  138.065647508   25.633091674 XXX  2      oc4     O  -1.350
O60      6.824851774  137.806099665   28.662905748 XXX  2      oc4     O  -1.350
CA33     1.680914777  144.042034037   25.114162034 XXX  2      ca+a    Ca  1.500
CA34     1.656823919  143.963262506   29.036560588 XXX  2      ca+a    Ca  1.500
AL21     7.241029638  145.355111433   27.029635853 XXX  2      ac1     Al  1.200
AL22     3.841081871  145.622443088   26.717090938 XXX  2      ac1     Al  1.200
O61      5.467437002  145.565576736   27.276893314 XXX  2      oc3     O  -0.750
O62      5.595361377  141.938892626   15.211977160 XXX  2      oc3     O  -0.750
O63      3.140330341  144.103326715   27.150193313 XXX  2      oc4     O  -1.350
O64     16.512117652  141.111519063   26.569920549 XXX  2      oc4     O  -1.350
O65      8.123701992  145.846133065   28.476935432 XXX  2      oc4     O  -1.350
O66      7.658067663  145.886283871   25.455550545 XXX  2      oc4     O  -1.350
CA35    11.079174503  141.882773043   26.990661635 XXX  2      ca+a    Ca  1.500
CA36     9.472835393  140.120055529   25.071440741 XXX  2      ca+a    Ca  1.500
CA37    12.970433629  140.022680664   28.395590677 XXX  2      ca+a    Ca  1.500
CA38     9.186068597  140.181209826   29.111598188 XXX  2      ca+a    Ca  1.500
AL23    11.237931411  145.369825925   30.645675069 XXX  2      ac1     Al  1.200
AL24    11.492579077  141.949850862   30.738887595 XXX  2      ac1     Al  1.200
O67     10.944414440  143.657656875   30.774545727 XXX  2      oc3     O  -0.750
O68      7.690272291  143.641810695   26.906587657 XXX  2      oc3     O  -0.750
O69     11.113793680  141.333883163   29.180367276 XXX  2      oc4     O  -1.350
O70     11.656973563  139.435025388   26.539678470 XXX  2      oc4     O  -1.350
O71      9.656462060  145.944722197   31.204895732 XXX  2      oc4     O  -1.350
O72     12.757172025  145.599229459   31.472192263 XXX  2      oc4     O  -1.350
CA39    10.930296111  134.369116552   19.078529343 XXX  2      ca+a    Ca  1.500
CA40    13.151402701  136.306258597   17.585562503 XXX  2      ca+a    Ca  1.500
CA41     9.237735132  135.967676370   20.814820305 XXX  2      ca+a    Ca  1.500
CA42    13.060552640  136.050815281   21.503546912 XXX  2      ca+a    Ca  1.500
AL25    10.715402620  130.470260299   23.022492353 XXX  2      ac1     Al  1.200
AL26    10.724673311  133.930473929   23.280419045 XXX  2      ac1     Al  1.200
O73     11.225178141  132.196422111   23.183982245 XXX  2      oc3     O  -0.750
O74     -0.914030458  132.512258494   19.723538030 XXX  2      oc3     O  -0.750
O75     11.036507579  134.658909887   21.660021041 XXX  2      oc4     O  -1.350
O76     10.443817962  136.578882906   18.886440111 XXX  2      oc4     O  -1.350
O77     11.978788729  129.253498181   22.971780502 XXX  2      oc4     O  -1.350
O78      9.231922660  130.330648777   23.975416514 XXX  2      oc4     O  -1.350
CA43     3.659493251  134.176084889   27.064508840 XXX  2      ca+a    Ca  1.500
CA44     6.536474482  130.279643366   30.752026146 XXX  2      ca+a    Ca  1.500
CA45     1.491277515  132.054130530   25.508785449 XXX  2      ca+a    Ca  1.500
CA46     5.319964391  133.021232821   24.381640395 XXX  2      ca+a    Ca  1.500
AL27     3.392307811  137.519578912   23.283233669 XXX  2      ac1     Al  1.200
AL28     2.934359937  134.102966763   23.321323959 XXX  2      ac1     Al  1.200
O79      3.560914281  135.740641605   23.182766902 XXX  2      oc3     O  -0.750
O80      7.566903346  135.864559609   26.794007124 XXX  2      oc3     O  -0.750
O81      3.184626876  133.525658935   24.988444929 XXX  2      oc4     O  -1.350
O82      3.208816000  147.026913849   27.442379832 XXX  2      oc4     O  -1.350
O83      4.871800498  138.123919835   22.519397041 XXX  2      oc4     O  -1.350
O84      1.836845399  138.025318315   22.689796164 XXX  2      oc4     O  -1.350
CA47     3.388794520  142.107721401   19.500557860 XXX  2      ca+a    Ca  1.500
CA48     1.476636047  144.090351823   21.646452237 XXX  2      ca+a    Ca  1.500
CA49     5.364213940  143.954693368   17.523201230 XXX  2      ca+a    Ca  1.500
CA50     1.655257829  143.646496697   17.454727266 XXX  2      ca+a    Ca  1.500
AL29     3.565884133  138.196052896   15.760335164 XXX  2      ac1     Al  1.200
AL30     3.890941592  141.587575024   15.439774334 XXX  2      ac1     Al  1.200
O85      3.725851915  139.882681442   15.169943874 XXX  2      oc3     O  -0.750
O86     15.203516792  139.778990048   19.494725587 XXX  2      oc3     O  -0.750
O87      3.407355854  142.040470312   17.075549621 XXX  2      oc4     O  -1.350
O88      3.363815747  129.083331816   19.362241716 XXX  2      oc4     O  -1.350
O89      2.057664156  137.600442742   15.075838367 XXX  2      oc4     O  -1.350
O90      5.083965841  137.421017366   15.454360462 XXX  2      oc4     O  -1.350
CA51    12.393871771  143.752391436   25.139759145 XXX  2      ca+a    Ca  1.500
CA52    13.300950286  139.765576225   25.073147719 XXX  2      ca+a    Ca  1.500
AL31    14.932643911  141.735271170   30.470102265 XXX  2      ac1     Al  1.200
AL32    15.106610424  141.949413460   27.068309033 XXX  2      ac1     Al  1.200
O91     15.118262073  141.510366564   28.733891182 XXX  2      oc3     O  -0.750
O92     11.262989303  138.105223213   29.036577304 XXX  2      oc3     O  -0.750
O93     13.453124212  141.547573326   26.561538283 XXX  2      oc4     O  -1.350
O94     10.775679551  142.218490501   24.742135435 XXX  2      oc4     O  -1.350
O95     15.602384964  140.296014255   31.146990953 XXX  2      oc4     O  -1.350
O96     15.633253609  143.289590917   30.770072232 XXX  2      oc4     O  -1.350
CA53     4.934926955  140.017479970   21.108290672 XXX  2      ca+a    Ca  1.500
CA54     5.695054178  143.969342128   21.067281124 XXX  2      ca+a    Ca  1.500
AL33     7.210642326  141.940276743   15.910775808 XXX  2      ac1     Al  1.200
AL34     7.327454816  141.543762375   19.285012493 XXX  2      ac1     Al  1.200
O97      7.283132789  142.137609741   17.618716371 XXX  2      oc3     O  -0.750
O98      2.251479678  130.304661351   17.164065698 XXX  2      oc3     O  -0.750
O99      5.764607379  141.800096665   20.064951869 XXX  2      oc4     O  -1.350
O100     3.158964503  141.367360880   21.771796193 XXX  2      oc4     O  -1.350
O101     8.063015346  143.316506055   15.293428933 XXX  2      oc4     O  -1.350
O102     7.786699265  140.345507161   15.565564457 XXX  2      oc4     O  -1.350
CA55     9.143937520  132.648300937   17.761344832 XXX  2      ca+a    Ca  1.500
CA56     8.884925749  136.178004478   17.408155300 XXX  2      ca+a    Ca  1.500
AL35     7.410742386  133.959786444   22.912260541 XXX  2      ac1     Al  1.200
AL36     6.969026386  134.006329769   19.548171738 XXX  2      ac1     Al  1.200
O103     7.081599803  134.328623099   21.246980005 XXX  2      oc3     O  -0.750
O104    10.730830169  138.002042140   21.281563675 XXX  2      oc3     O  -0.750
O105     8.509309675  134.437323490   18.796654476 XXX  2      oc4     O  -1.350
O106    11.141044603  133.161380735   32.139627419 XXX  2      oc4     O  -1.350
O107     6.485609429  135.143728201   23.739843934 XXX  2      oc4     O  -1.350
O108     7.040679678  132.249028117   23.276438877 XXX  2      oc4     O  -1.350
CA57     1.842845649  136.056265688   28.912028260 XXX  2      ca+a    Ca  1.500
CA58     0.965690663  131.902172878   29.156729396 XXX  2      ca+a    Ca  1.500
AL37    -0.329400536  133.300695768   23.595779710 XXX  2      ac1     Al  1.200
AL38    -0.489857509  134.081937947   26.978127262 XXX  2      ac1     Al  1.200
O109    -0.769094474  133.968621043   25.240625309 XXX  2      oc3     O  -0.750
O110     3.725742495  145.954510613   25.003322013 XXX  2      oc3     O  -0.750
O111     0.901545625  133.120191471   27.424711463 XXX  2      oc4     O  -1.350
O112     3.645750288  134.660903009   13.835946694 XXX  2      oc4     O  -1.350
O113     0.237928060  131.637114385   23.796364061 XXX  2      oc4     O  -1.350
O114    -1.428598564  133.837390662   22.473895142 XXX  2      oc4     O  -1.350
CA59     9.401040143  144.016027857   28.814461765 XXX  2      ca+a    Ca  1.500
CA60     9.105954371  144.054229986   25.007011491 XXX  2      ca+a    Ca  1.500
AL39    14.944679413  145.364789278   26.939368562 XXX  2      ac1     Al  1.200
AL40    11.582712445  145.635871072   27.269104952 XXX  2      ac1     Al  1.200
O115    13.231399236  145.548138193   26.692581150 XXX  2      oc3     O  -0.750
O116    13.230685588  142.001401158   23.453858047 XXX  2      oc3     O  -0.750
O117    10.776100959  144.148580184   26.859999293 XXX  2      oc4     O  -1.350
O118     8.910393325  141.079043746   27.200533606 XXX  2      oc4     O  -1.350
O119    15.768244625  145.992640477   25.493298316 XXX  2      oc4     O  -1.350
O120    15.327158300  145.813348311   28.562294839 XXX  2      oc4     O  -1.350
CA61     5.399032036  136.168924424   25.318464512 XXX  2      ca+a    Ca  1.500
CA62     5.162910042  136.280183317   28.902526384 XXX  2      ca+a    Ca  1.500
AL41    -0.134445625  137.483139226   27.079396992 XXX  2      ac1     Al  1.200
AL42     3.244775606  138.021998590   26.709279598 XXX  2      ac1     Al  1.200
O121     1.511780253  138.049311680   27.211207420 XXX  2      oc3     O  -0.750
O122     1.299575490  134.053216165   15.153163229 XXX  2      oc3     O  -0.750
O123     3.806632288  136.445673664   27.115032031 XXX  2      oc4     O  -1.350
O124     5.755569093  133.834586607   26.358050927 XXX  2      oc4     O  -1.350
O125    -0.921700679  138.023770272   28.532270582 XXX  2      oc4     O  -1.350
O126    -0.736733452  137.743270877   25.462196942 XXX  2      oc4     O  -1.350
CA63     1.815930047  140.286035349   17.655350602 XXX  2      ca+a    Ca  1.500
CA64     1.554834053  139.913593125   21.407545467 XXX  2      ca+a    Ca  1.500
AL43     6.997071295  138.112211094   19.323340057 XXX  2      ac1     Al  1.200
AL44     3.556210709  138.071716263   19.155885794 XXX  2      ac1     Al  1.200
O127     5.283845541  138.082240130   19.574617585 XXX  2      oc3     O  -0.750
O128     5.642229496  141.763224783   22.799623424 XXX  2      oc3     O  -0.750
O129     2.920380156  139.575521581   19.765512115 XXX  2      oc4     O  -1.350
O130    16.520332733  142.133155212   18.913859306 XXX  2      oc4     O  -1.350
O131     7.516249849  137.336832763   20.832427882 XXX  2      oc4     O  -1.350
O132     7.191094672  137.353831428   17.753559546 XXX  2      oc4     O  -1.350
CA65    12.381086967  132.903791519   21.078114556 XXX  2      ca+a    Ca  1.500
CA66    12.177704214  131.280471567   17.761294413 XXX  2      ca+a    Ca  1.500
AL45     6.916527714  130.648065002   18.969459260 XXX  2      ac1     Al  1.200
AL46    10.139760248  130.584582842   19.674999340 XXX  2      ac1     Al  1.200
O133     8.661178512  130.482653912   18.795770403 XXX  2      oc3     O  -0.750
O134     8.847610214  134.171188787   31.061939926 XXX  2      oc3     O  -0.750
O135    10.747737234  132.209723017   19.378632473 XXX  2      oc4     O  -1.350
O136    -2.049814504  134.971388940   19.378716879 XXX  2      oc4     O  -1.350
O137     6.040582892  130.126953467   17.601314173 XXX  2      oc4     O  -1.350
O138     6.545282355  130.354786994   20.576072816 XXX  2      oc4     O  -1.350
end
CA1     15.394335835  130.298876551   16.304970373 XXX  1      ca+a    Ca  1.500
CA2     20.006664867  128.673142156   17.611459033 XXX  1      ca+a    Ca  1.500
CA3     18.605027251  134.368358526   19.435823287 XXX  1      ca+a    Ca  1.500
CA4     20.901545685  136.177695752   21.354559168 XXX  1      ca+a    Ca  1.500
CA5     16.934648963  136.141773716   17.708784696 XXX  1      ca+a    Ca  1.500
CA6     20.613493106  135.882296652   17.195902768 XXX  1      ca+a    Ca  1.500
AL1     18.360977555  130.447351517   15.517019428 XXX  1      ac1     Al  1.200
AL2     18.377208960  133.951977160   15.333419485 XXX  1      ac1     Al  1.200
O1      18.776876716  132.197775952   15.241285298 XXX  1      oc3     O  -0.750
O2      21.815654276  132.438844801   19.084132310 XXX  1      oc3     O  -0.750
O3      18.717020014  134.520591559   16.986334262 XXX  1      oc4     O  -1.350
O4      18.262482525  136.577107090   19.764135746 XXX  1      oc4     O  -1.350
O5      19.799440843  129.447189819   15.328605176 XXX  1      oc4     O  -1.350
O6      16.834417004  130.151966018   14.665831405 XXX  1      oc4     O  -1.350
CA1     23.024976750  130.389607994   22.116635186 XXX  2      ca+a    Ca  1.500
CA2     12.358836573  128.738025841   20.838411195 XXX  2      ca+a    Ca  1.500
CA3     18.677625984  141.906079845   26.787000246 XXX  2      ca+a    Ca  1.500
CA4     17.171237428  140.113979378   28.823064208 XXX  2      ca+a    Ca  1.500
CA5     20.732461655  140.039532783   25.477607585 XXX  2      ca+a    Ca  1.500
CA6     16.918645366  140.090588403   24.685435768 XXX  2      ca+a    Ca  1.500
AL1     19.011737264  145.336072001   23.342104768 XXX  2      ac1     Al  1.200
AL2     19.311978188  141.914668536   23.169650982 XXX  2      ac1     Al  1.200
O1      18.862413761  143.586729250   23.364565482 XXX  2      oc3     O  -0.750
O2      30.561161358  143.663665888   26.900833255 XXX  2      oc3     O  -0.750
O3      18.886976919  141.100349656   24.689815284 XXX  2      oc4     O  -1.350
O4      19.146070359  139.462655503   27.451416679 XXX  2      oc4     O  -1.350
O5      17.489773019  145.776875076   22.674051171 XXX  2      oc4     O  -1.350
O6      20.475912919  145.676581277   22.530151115 XXX  2      oc4     O  -1.350
CA7     14.887769664  138.071011887   23.079817546 XXX  2      ca+a    Ca  1.500
CA8     22.769594159  138.164112737   23.109844485 XXX  2      ca+a    Ca  1.500
CA9     24.401422053  144.021832517   17.192431613 XXX  2      ca+a    Ca  1.500
CA10    22.615144748  145.831298325   15.585060840 XXX  2      ca+a    Ca  1.500
CA11    28.319134267  143.822313648   21.019303365 XXX  2      ca+a    Ca  1.500
CA12    24.438250587  143.920983946   21.527153402 XXX  2      ca+a    Ca  1.500
AL3     26.416157690  138.194279202   23.016083509 XXX  2      ac1     Al  1.200
AL4     26.762458615  141.628892060   23.321455265 XXX  2      ac1     Al  1.200
O7      26.614360142  139.884659045   23.544368488 XXX  2      oc3     O  -0.750
O8      22.896213326  139.679731158   19.368481763 XXX  2      oc3     O  -0.750
O9      26.291928628  142.030801086   21.670730723 XXX  2      oc4     O  -1.350
O10     26.287089192  128.941478528   19.192272765 XXX  2      oc4     O  -1.350
O11     24.943013681  137.579206663   23.733834191 XXX  2      oc4     O  -1.350
O12     27.976124129  137.338520800   23.256247896 XXX  2      oc4     O  -1.350
CA13    22.357184304  138.130990043   15.653587698 XXX  2      ca+a    Ca  1.500
CA14    14.984311124  138.245931180   15.477157612 XXX  2      ca+a    Ca  1.500
CA15    26.417976901  133.957228314   26.854742126 XXX  2      ca+a    Ca  1.500
CA16    29.298643237  130.184535073   23.242760043 XXX  2      ca+a    Ca  1.500
CA17    24.312216294  132.171291826   28.806320642 XXX  2      ca+a    Ca  1.500
CA18    28.126770147  132.931961258   29.627353643 XXX  2      ca+a    Ca  1.500
AL5     26.397967209  137.617642642   30.667888048 XXX  2      ac1     Al  1.200
AL6     25.868406264  134.174172482   30.693899749 XXX  2      ac1     Al  1.200
O13     26.551323553  135.782660713   30.819475642 XXX  2      oc3     O  -0.750
O14     15.156960051  135.837509798   27.177945237 XXX  2      oc3     O  -0.750
O15     26.027138567  133.557153385   29.088496436 XXX  2      oc4     O  -1.350
O16     26.062539913  146.999442470   26.549271998 XXX  2      oc4     O  -1.350
O17     27.850561174  138.096137887   31.523461278 XXX  2      oc4     O  -1.350
O18     24.781903124  138.052246714   31.241184525 XXX  2      oc4     O  -1.350
CA19    16.539047987  132.490636331   20.966538875 XXX  2      ca+a    Ca  1.500
CA20    16.647069962  136.305271844   21.171194227 XXX  2      ca+a    Ca  1.500
AL7     15.068215280  134.058531747   15.820184552 XXX  2      ac1     Al  1.200
AL8     14.617156334  134.037061865   19.141092287 XXX  2      ac1     Al  1.200
O19     15.018033048  134.397412222   17.501619914 XXX  2      oc3     O  -0.750
O20     18.526681434  137.996885651   17.549319553 XXX  2      oc3     O  -0.750
O21     16.178010216  134.441536649   19.943624085 XXX  2      oc4     O  -1.350
O22     18.623618491  133.177474725   21.869284971 XXX  2      oc4     O  -1.350
O23     14.184069700  135.283963006   15.034083587 XXX  2      oc4     O  -1.350
O24     14.623298008  132.323357563   15.518494627 XXX  2      oc4     O  -1.350
CA21    25.013864347  136.016050807   25.193115231 XXX  2      ca+a    Ca  1.500
CA22    23.906764377  131.945193931   24.958854515 XXX  2      ca+a    Ca  1.500
AL9     22.533830519  133.496921377   30.513590940 XXX  2      ac1     Al  1.200
AL10    22.495426016  134.087863633   27.176249215 XXX  2      ac1     Al  1.200
O25     22.090004485  133.661930778   28.839216815 XXX  2      oc3     O  -0.750
O26     26.689929542  146.032894501   29.036111008 XXX  2      oc3     O  -0.750
O27     24.010717336  133.105327276   26.801899136 XXX  2      oc4     O  -1.350
O28     26.624336087  134.525979795   24.789486696 XXX  2      oc4     O  -1.350
O29     23.051366434  131.829480911   30.637230007 XXX  2      oc4     O  -1.350
O30     21.407220575  134.071422289   31.603899849 XXX  2      oc4     O  -1.350
CA23    20.361591629  143.746389668   28.777192707 XXX  2      ca+a    Ca  1.500
CA24    20.896744837  139.951602731   28.839739197 XXX  2      ca+a    Ca  1.500
AL11    22.669909512  141.705161458   23.444847642 XXX  2      ac1     Al  1.200
AL12    22.719385396  141.969802849   26.857729957 XXX  2      ac1     Al  1.200
O31     22.721875883  141.483587097   25.151772994 XXX  2      oc3     O  -0.750
O32     18.855772198  138.187924879   24.917267415 XXX  2      oc3     O  -0.750
O33     21.131142155  141.586986303   27.441567589 XXX  2      oc4     O  -1.350
O34     18.429773705  142.186727186   13.961831806 XXX  2      oc4     O  -1.350
O35     23.474651218  140.237783458   22.999928535 XXX  2      oc4     O  -1.350
O36     23.256023139  143.266255899   23.245319064 XXX  2      oc4     O  -1.350
CA25    26.238760030  142.125632334   19.336572893 XXX  2      ca+a    Ca  1.500
CA26    28.663063538  143.822922722   17.601095469 XXX  2      ca+a    Ca  1.500
AL13    30.106105163  141.842660937   22.951807512 XXX  2      ac1     Al  1.200
AL14    30.265205020  141.461209871   19.567061787 XXX  2      ac1     Al  1.200
O37     30.466209708  141.929430322   21.237175499 XXX  2      oc3     O  -0.750
O38     25.405919794  130.309960292   21.329650318 XXX  2      oc3     O  -0.750
O39     28.592314326  141.918658594   19.013829911 XXX  2      oc4     O  -1.350
O40     26.068422840  141.334589082   32.285580198 XXX  2      oc4     O  -1.350
O41     31.023295553  143.172838844   23.598936381 XXX  2      oc4     O  -1.350
O42     30.538439587  140.178465701   23.355954345 XXX  2      oc4     O  -1.350
CA27    20.120635951  132.620346992   17.442955777 XXX  2      ca+a    Ca  1.500
CA28    19.891887438  131.422568640   20.866567108 XXX  2      ca+a    Ca  1.500
AL15    14.555179948  130.670082169   19.462439594 XXX  2      ac1     Al  1.200
AL16    17.867883469  130.418888408   18.926391701 XXX  2      ac1     Al  1.200
O43     16.269120285  130.432791987   19.632536954 XXX  2      oc3     O  -0.750
O44     16.358001867  134.157696571   23.042710818 XXX  2      oc3     O  -0.750
O45     18.458542626  132.045123295   19.290756350 XXX  2      oc4     O  -1.350
O46     20.811001268  134.889155470   19.425989344 XXX  2      oc4     O  -1.350
O47     13.889182384  130.226829554   20.986585608 XXX  2      oc4     O  -1.350
O48     13.988844589  130.151924357   17.903003893 XXX  2      oc4     O  -1.350
CA29    24.728915569  140.427521757   21.093620217 XXX  2      ca+a    Ca  1.500
CA30    24.542906765  139.903263125   17.354688650 XXX  2      ca+a    Ca  1.500
AL17    29.792849488  138.079288558   19.328965440 XXX  2      ac1     Al  1.200
AL18    26.429264040  138.090723846   19.549181584 XXX  2      ac1     Al  1.200
O49     28.076696660  138.064801604   19.054571817 XXX  2      oc3     O  -0.750
O50     28.523024051  141.778538498   31.178237165 XXX  2      oc3     O  -0.750
O51     25.875565723  139.705114818   19.151264037 XXX  2      oc4     O  -1.350
O52     24.074399351  142.245789796   19.833781262 XXX  2      oc4     O  -1.350
O53     30.510029753  137.425278813   17.888876991 XXX  2      oc4     O  -1.350
O54     30.032921198  137.351303735   20.911183901 XXX  2      oc4     O  -1.350
CA31    28.246955999  136.066983519   28.701266585 XXX  2      ca+a    Ca  1.500
CA32    28.157831258  136.122013689   25.123801083 XXX  2      ca+a    Ca  1.500
AL19    22.839486753  137.546028765   26.989453852 XXX  2      ac1     Al  1.200
AL20    26.199309995  138.109888654   27.276631251 XXX  2      ac1     Al  1.200
O55     24.462679026  138.200832112   26.892323869 XXX  2      oc3     O  -0.750
O56     24.232084611  133.970642520   23.553279630 XXX  2      oc3     O  -0.750
O57     26.648337645  136.420963050   26.911751576 XXX  2      oc4     O  -1.350
O58     13.200054517  133.956886733   27.660488790 XXX  2      oc4     O  -1.350
O59     21.985020223  138.029365090   25.538082498 XXX  2      oc4     O  -1.350
O60     22.067351879  137.948299564   28.591662352 XXX  2      oc4     O  -1.350
CA33    17.025690735  144.157639081   25.108585674 XXX  2      ca+a    Ca  1.500
CA34    17.007260893  143.993477471   28.936631106 XXX  2      ca+a    Ca  1.500
AL21    22.604515410  145.373880562   27.121591855 XXX  2      ac1     Al  1.200
AL22    19.178411866  145.754908826   26.776278338 XXX  2      ac1     Al  1.200
O61     20.829912904  145.634125040   27.410202827 XXX  2      oc3     O  -0.750
O62     20.825402857  142.070394979   15.290765945 XXX  2      oc3     O  -0.750
O63     18.491772140  144.136279767   26.976829805 XXX  2      oc4     O  -1.350
O64     31.731082899  141.203795052   26.672073933 XXX  2      oc4     O  -1.350
O65     23.458915887  145.894800764   28.510275386 XXX  2      oc4     O  -1.350
O66     23.110603735  145.894740057   25.552128413 XXX  2      oc4     O  -1.350
CA35    26.423546731  141.803482970   27.103810123 XXX  2      ca+a    Ca  1.500
CA36    24.786329230  140.158894685   25.212885916 XXX  2      ca+a    Ca  1.500
CA37    28.265178422  139.971608314   28.557563316 XXX  2      ca+a    Ca  1.500
CA38    24.683775308  140.305974041   29.294368376 XXX  2      ca+a    Ca  1.500
AL23    26.563113360  145.462526214   30.686647823 XXX  2      ac1     Al  1.200
AL24    26.848875038  141.955372568   30.847443089 XXX  2      ac1     Al  1.200
O67     26.338962337  143.667016721   30.787043660 XXX  2      oc3     O  -0.750
O68     23.039091996  143.701916150   27.052064056 XXX  2      oc3     O  -0.750
O69     26.604625347  141.201875019   29.286836629 XXX  2      oc4     O  -1.350
O70     26.943574074  139.542823278   26.623488571 XXX  2      oc4     O  -1.350
O71     25.007570124  146.079235051   31.315874727 XXX  2      oc4     O  -1.350
O72     28.107501388  145.664705651   31.390208084 XXX  2      oc4     O  -1.350
CA39    26.283474720  134.313065005   19.135693094 XXX  2      ca+a    Ca  1.500
CA40    28.537459204  136.200970142   17.474262116 XXX  2      ca+a    Ca  1.500
CA41    24.605827030  136.003160001   21.010923873 XXX  2      ca+a    Ca  1.500
CA42    28.272786871  135.780017738   21.461182776 XXX  2      ca+a    Ca  1.500
AL25    25.854612435  130.347959390   23.036710842 XXX  2      ac1     Al  1.200
AL26    25.974556372  133.808139956   23.312449394 XXX  2      ac1     Al  1.200
O73     26.286320835  132.031722548   23.444268814 XXX  2      oc3     O  -0.750
O74     14.241202337  132.325871728   19.472565485 XXX  2      oc3     O  -0.750
O75     26.321823745  134.459347617   21.672656494 XXX  2      oc4     O  -1.350
O76     25.752164981  136.570210135   18.927308996 XXX  2      oc4     O  -1.350
O77     27.311603873  129.336234876   23.230641131 XXX  2      oc4     O  -1.350
O78     24.304908929  130.116157601   23.848387810 XXX  2      oc4     O  -1.350
CA43    18.856455515  134.146173097   26.825270448 XXX  2      ca+a    Ca  1.500
CA44    21.611689233  130.294595992   30.848764834 XXX  2      ca+a    Ca  1.500
CA45    16.741798848  132.089880930   25.372142641 XXX  2      ca+a    Ca  1.500
CA46    20.521737275  133.018983795   24.420535902 XXX  2      ca+a    Ca  1.500
AL27    18.818266216  137.570843125   23.257701616 XXX  2      ac1     Al  1.200
AL28    18.055335433  134.166414082   23.209597753 XXX  2      ac1     Al  1.200
O79     18.799536251  135.803604502   23.089438567 XXX  2      oc3     O  -0.750
O80     22.845731604  135.814968211   26.831952540 XXX  2      oc3     O  -0.750
O81     18.396371044  133.449172827   24.754678419 XXX  2      oc4     O  -1.350
O82     18.526294266  147.142289286   27.534968963 XXX  2      oc4     O  -1.350
O83     20.358793081  138.160374556   22.541253744 XXX  2      oc4     O  -1.350
O84     17.229593697  138.040476396   22.651566775 XXX  2      oc4     O  -1.350
CA47    18.774491774  142.119137677   19.389580075 XXX  2      ca+a    Ca  1.500
CA48    16.652154134  144.064642033   21.592780916 XXX  2      ca+a    Ca  1.500
CA49    20.591813152  143.985929634   17.473879619 XXX  2      ca+a    Ca  1.500
CA50    16.878533826  143.752276754   17.375987728 XXX  2      ca+a    Ca  1.500
AL29    18.769302353  138.195602495   15.796173723 XXX  2      ac1     Al  1.200
AL30    19.096150938  141.635257298   15.438532500 XXX  2      ac1     Al  1.200
O85     18.952231712  139.860011476   15.227884534 XXX  2      oc3     O  -0.750
O86     30.451153074  139.748043399   19.314265448 XXX  2      oc3     O  -0.750
O87     18.618854795  142.016901228   17.076413416 XXX  2      oc4     O  -1.350
O88     18.809023910  129.092897107   19.468268026 XXX  2      oc4     O  -1.350
O89     17.179657033  137.655926490   15.153392660 XXX  2      oc4     O  -1.350
O90     20.294109920  137.303743564   15.440740326 XXX  2      oc4     O  -1.350
CA51    27.998779950  143.672410632   25.281877624 XXX  2      ca+a    Ca  1.500
CA52    28.667444962  139.800446940   25.142226347 XXX  2      ca+a    Ca  1.500
AL31    30.204842617  141.744991249   30.614893342 XXX  2      ac1     Al  1.200
AL32    30.256463218  141.997748739   27.185646367 XXX  2      ac1     Al  1.200
O91     30.252521719  141.436437781   28.875147389 XXX  2      oc3     O  -0.750
O92     26.459655851  138.191459997   28.993413649 XXX  2      oc3     O  -0.750
O93     28.706981771  141.574837796   26.560553862 XXX  2      oc4     O  -1.350
O94     26.059963667  142.203242938   24.891102071 XXX  2      oc4     O  -1.350
O95     31.000166271  140.304461092   31.222248019 XXX  2      oc4     O  -1.350
O96     30.886756714  143.290033206   30.857758739 XXX  2      oc4     O  -1.350
CA53    20.218833518  140.049815861   21.123026657 XXX  2      ca+a    Ca  1.500
CA54    20.879113785  144.010981057   21.148711490 XXX  2      ca+a    Ca  1.500
AL33    22.478615314  141.892104837   15.783859931 XXX  2      ac1     Al  1.200
AL34    22.622454553  141.491517385   19.219446315 XXX  2      ac1     Al  1.200
O97     22.757909519  142.055795475   17.553735837 XXX  2      oc3     O  -0.750
O98     17.821871115  130.204500034   17.173156156 XXX  2      oc3     O  -0.750
O99     21.006859811  141.810093785   19.875178059 XXX  2      oc4     O  -1.350
O100    18.503946830  141.515103326   21.704266844 XXX  2      oc4     O  -1.350
O101    23.357372602  143.157611586   15.134322895 XXX  2      oc4     O  -1.350
O102    22.835106533  140.290778901   15.434713752 XXX  2      oc4     O  -1.350
CA55    24.280675615  132.544852481   17.441962995 XXX  2      ca+a    Ca  1.500
CA56    24.318163660  136.344074040   17.447069161 XXX  2      ca+a    Ca  1.500
AL35    22.666539697  133.928414433   22.834975500 XXX  2      ac1     Al  1.200
AL36    22.297474040  134.012367208   19.509392785 XXX  2      ac1     Al  1.200
O103    22.737891598  134.140245652   21.168048960 XXX  2      oc3     O  -0.750
O104    26.140279177  138.040419492   21.292964941 XXX  2      oc3     O  -0.750
O105    23.767573047  134.404856329   18.659959005 XXX  2      oc4     O  -1.350
O106    26.421103703  133.131696561   32.004514070 XXX  2      oc4     O  -1.350
O107    21.687794853  135.263561055   23.517126986 XXX  2      oc4     O  -1.350
O108    22.203936418  132.250571798   23.308581981 XXX  2      oc4     O  -1.350
CA57    17.373501932  136.125820702   28.677410714 XXX  2      ca+a    Ca  1.500
CA58    16.103532670  131.988564037   29.104987546 XXX  2      ca+a    Ca  1.500
AL37    14.877229880  133.523411731   23.518420344 XXX  2      ac1     Al  1.200
AL38    14.756693278  134.202536703   26.838807052 XXX  2      ac1     Al  1.200
O109    14.402587124  134.017780893   25.104786141 XXX  2      oc3     O  -0.750
O110    19.117109653  146.052148574   24.991447026 XXX  2      oc3     O  -0.750
O111    16.150966940  133.157581377   27.196084000 XXX  2      oc4     O  -1.350
O112    18.863680275  134.720035636   13.813117733 XXX  2      oc4     O  -1.350
O113    15.402891632  131.837996542   23.647230354 XXX  2      oc4     O  -1.350
O114    13.832810956  134.048784698   22.320598366 XXX  2      oc4     O  -1.350
CA59    24.663100493  144.011851914   28.899098832 XXX  2      ca+a    Ca  1.500
CA60    24.646850287  144.106251166   25.060922410 XXX  2      ca+a    Ca  1.500
AL39    30.170642408  145.402566060   26.933882973 XXX  2      ac1     Al  1.200
AL40    26.832655654  145.666724008   27.311106008 XXX  2      ac1     Al  1.200
O115    28.477735796  145.633331907   26.725850270 XXX  2      oc3     O  -0.750
O116    28.436214365  142.102574326   23.352444664 XXX  2      oc3     O  -0.750
O117    26.257879997  144.012028627   27.077603937 XXX  2      oc4     O  -1.350
O118    24.113937695  141.099274733   27.398122113 XXX  2      oc4     O  -1.350
O119    31.049352952  145.924283559   25.489202107 XXX  2      oc4     O  -1.350
O120    30.590765661  145.838992736   28.560879875 XXX  2      oc4     O  -1.350
CA61    20.770588970  136.179162225   25.281632425 XXX  2      ca+a    Ca  1.500
CA62    20.404376257  136.339189000   28.844183401 XXX  2      ca+a    Ca  1.500
AL41    15.160591741  137.609320491   26.886956473 XXX  2      ac1     Al  1.200
AL42    18.510794700  138.118399435   26.626148367 XXX  2      ac1     Al  1.200
O121    16.772415149  138.278279190   26.919344747 XXX  2      oc3     O  -0.750
O122    16.655882324  134.138625669   15.217766635 XXX  2      oc3     O  -0.750
O123    18.999373581  136.518504336   27.152082890 XXX  2      oc4     O  -1.350
O124    21.025164824  133.857848258   26.286982385 XXX  2      oc4     O  -1.350
O125    14.344352266  138.198015882   28.290642375 XXX  2      oc4     O  -1.350
O126    14.514011771  137.815102284   25.255329496 XXX  2      oc4     O  -1.350
CA63    17.095530840  140.265508763   17.693888425 XXX  2      ca+a    Ca  1.500
CA64    16.962362710  140.008233074   21.512124232 XXX  2      ca+a    Ca  1.500
AL43    22.280074072  137.988356101   19.371677124 XXX  2      ac1     Al  1.200
AL44    18.929203207  138.031036123   19.212442409 XXX  2      ac1     Al  1.200
O127    20.562972598  137.869802072   19.649296460 XXX  2      oc3     O  -0.750
O128    20.962204202  141.624361872   22.904719552 XXX  2      oc3     O  -0.750
O129    18.342306404  139.513843943   19.826960701 XXX  2      oc4     O  -1.350
O130    31.727136952  142.102321271   18.892205061 XXX  2      oc4     O  -1.350
O131    22.940196507  137.214850702   20.758838443 XXX  2      oc4     O  -1.350
O132    22.461554480  137.348051904   17.740445160 XXX  2      oc4     O  -1.350
CA65    27.718613920  132.575339683   21.149084746 XXX  2      ca+a    Ca  1.500
CA66    27.849122045  131.996567926   17.438394341 XXX  2      ca+a    Ca  1.500
AL45    22.226642716  130.725791089   18.937649082 XXX  2      ac1     Al  1.200
AL46    25.550107354  130.441298144   19.584118331 XXX  2      ac1     Al  1.200
O133    23.966297067  130.532681166   18.815539736 XXX  2      oc3     O  -0.750
O134    24.137510269  134.228215079   30.883324811 XXX  2      oc3     O  -0.750
O135    26.279642411  131.981536656   19.265743465 XXX  2      oc4     O  -1.350
O136    13.067138976  134.840064411   19.377122480 XXX  2      oc4     O  -1.350
O137    21.455748457  130.375082964   17.435126072 XXX  2      oc4     O  -1.350
O138    21.742740312  130.307722238   20.461001447 XXX  2      oc4     O  -1.350
end
CA1     -0.069065461  145.751827632   15.735938474 XXX  1      ca+a    Ca  1.500
CA2      7.409672713  145.820701644   15.492550778 XXX  1      ca+a    Ca  1.500
CA3      3.615933808  149.622884498   19.531633454 XXX  1      ca+a    Ca  1.500
CA4      5.855854440  151.775991246   21.377440286 XXX  1      ca+a    Ca  1.500
CA5      1.848557231  151.613803421   17.663645297 XXX  1      ca+a    Ca  1.500
CA6      5.721605573  151.523017646   17.358533553 XXX  1      ca+a    Ca  1.500
AL1      3.669510336  146.032510165   15.773454352 XXX  1      ac1     Al  1.200
AL2      3.502315820  149.361294983   15.545136143 XXX  1      ac1     Al  1.200
O1       4.069877124  147.692821906   15.647652523 XXX  1      oc3     O  -0.750
O2       7.203292304  147.513814639   19.443168064 XXX  1      oc3     O  -0.750
O3       3.874310381  149.997814761   17.125313439 XXX  1      oc4     O  -1.350
O4       3.221260737  151.947788592   19.617891357 XXX  1      oc4     O  -1.350
O5       5.060197256  145.143858440   15.285385783 XXX  1      oc4     O  -1.350
O6       2.150537349  145.806808951   15.118155485 XXX  1      oc4     O  -1.350
CA1      7.478000720  145.532000367   23.180950226 XXX  2      ca+a    Ca  1.500
CA2     -0.330915480  145.880498408   23.242958416 XXX  2      ca+a    Ca  1.500
CA3      2.266866551  159.795353006   28.316025561 XXX  2      ca+a    Ca  1.500
CA4      2.093916731  155.882229014   28.478918885 XXX  2      ca+a    Ca  1.500
CA5      4.276744535  156.751433023   26.104975046 XXX  2      ca+a    Ca  1.500
CA6      1.546025595  155.240481990   24.812109638 XXX  2      ca+a    Ca  1.500
AL1      3.910908414  160.896215085   23.156810325 XXX  2      ac1     Al  1.200
AL2      3.783387593  157.496835151   22.989549870 XXX  2      ac1     Al  1.200
O1       3.442505769  159.241802800   22.890544631 XXX  2      oc3     O  -0.750
O2      15.337370235  158.951694036   26.711073250 XXX  2      oc3     O  -0.750
O3       2.990241588  156.898295121   24.366272149 XXX  2      oc4     O  -1.350
O4       3.807854186  154.912059027   27.589196766 XXX  2      oc4     O  -1.350
O5       2.518921375  161.828412956   23.103149760 XXX  2      oc4     O  -1.350
O6       5.330874438  161.008955335   22.239737013 XXX  2      oc4     O  -1.350
CA7     -0.348573107  153.547031459   23.029718470 XXX  2      ca+a    Ca  1.500
CA8      7.588531367  153.839956726   23.238152455 XXX  2      ca+a    Ca  1.500
CA9     11.312871027  157.094446917   19.248401050 XXX  2      ca+a    Ca  1.500
CA10     8.521819882  160.573744775   15.665157176 XXX  2      ca+a    Ca  1.500
CA11    13.553252355  159.079622261   17.449252489 XXX  2      ca+a    Ca  1.500
CA12     9.495017328  158.758039312   21.971385731 XXX  2      ca+a    Ca  1.500
AL3     11.198603773  153.643503685   22.923883821 XXX  2      ac1     Al  1.200
AL4     11.436287020  157.042462422   23.212144653 XXX  2      ac1     Al  1.200
O7      10.936057495  155.343421565   23.206836900 XXX  2      oc3     O  -0.750
O8       7.741254791  155.277764044   19.282348470 XXX  2      oc3     O  -0.750
O9      11.161970770  157.520615719   21.547667143 XXX  2      oc4     O  -1.350
O10     11.733272826  144.234603027   19.008770827 XXX  2      oc4     O  -1.350
O11      9.671223702  152.795220644   23.210005735 XXX  2      oc4     O  -1.350
O12     12.645556675  153.315837044   23.709352145 XXX  2      oc4     O  -1.350
CA13     7.710276789  153.415362475   15.627315161 XXX  2      ca+a    Ca  1.500
CA14    -0.019130980  153.930500756   15.411772413 XXX  2      ca+a    Ca  1.500
CA15    11.213477850  150.067945625   27.122960083 XXX  2      ca+a    Ca  1.500
CA16    12.776873802  148.057348627   25.574108025 XXX  2      ca+a    Ca  1.500
CA17     9.535427524  147.770180505   28.320987635 XXX  2      ca+a    Ca  1.500
CA18    13.039243165  147.977810079   29.378168660 XXX  2      ca+a    Ca  1.500
AL5     11.404786716  153.251157147   30.832830633 XXX  2      ac1     Al  1.200
AL6     10.924090695  149.814010754   30.755343897 XXX  2      ac1     Al  1.200
O13     11.640838699  151.500951534   30.899829608 XXX  2      oc3     O  -0.750
O14     -0.342490105  151.356193877   26.978151661 XXX  2      oc3     O  -0.750
O15     11.117655743  149.108961287   29.138262581 XXX  2      oc4     O  -1.350
O16     10.766827823  162.130435289   27.070040264 XXX  2      oc4     O  -1.350
O17     12.910205600  153.763113644   31.483112377 XXX  2      oc4     O  -1.350
O18      9.833575487  153.492683104   31.526520936 XXX  2      oc4     O  -1.350
CA19     1.882387252  147.845920316   21.324270796 XXX  2      ca+a    Ca  1.500
CA20     1.661314092  151.750836108   21.228482433 XXX  2      ca+a    Ca  1.500
AL7      0.204513847  149.585632019   15.963368305 XXX  2      ac1     Al  1.200
AL8     -0.160244502  149.290984117   19.304777546 XXX  2      ac1     Al  1.200
O19      0.026324672  149.812997663   17.646524757 XXX  2      oc3     O  -0.750
O20      3.930349512  153.270798135   17.371465206 XXX  2      oc3     O  -0.750
O21      1.357918326  149.652983304   20.131437179 XXX  2      oc4     O  -1.350
O22      3.944535261  149.004296905   21.990466784 XXX  2      oc4     O  -1.350
O23     -0.586797501  150.965592706   15.245075670 XXX  2      oc4     O  -1.350
O24     -0.486646924  148.041069958   15.523298785 XXX  2      oc4     O  -1.350
CA21     9.138453829  151.507942843   24.860591769 XXX  2      ca+a    Ca  1.500
CA22     9.096700310  147.515351975   25.159647695 XXX  2      ca+a    Ca  1.500
AL9      7.524212361  149.542492746   30.575324943 XXX  2      ac1     Al  1.200
AL10     7.259790352  149.593679636   27.254426719 XXX  2      ac1     Al  1.200
O25      7.319692293  149.116005347   28.892060721 XXX  2      oc3     O  -0.750
O26     11.806205879  161.253559412   29.410100855 XXX  2      oc3     O  -0.750
O27      8.850767173  149.155424858   26.684439282 XXX  2      oc4     O  -1.350
O28     11.645501836  149.803360576   24.813487124 XXX  2      oc4     O  -1.350
O29      7.106988690  148.056647822   31.472155423 XXX  2      oc4     O  -1.350
O30      6.797196794  151.084952495   30.796375119 XXX  2      oc4     O  -1.350
CA23     5.450681683  158.615477038   28.538530909 XXX  2      ca+a    Ca  1.500
CA24     5.700054494  155.127338307   28.678205686 XXX  2      ca+a    Ca  1.500
AL11     7.219605661  157.284074761   23.419706575 XXX  2      ac1     Al  1.200
AL12     7.683683805  157.349329482   26.821146281 XXX  2      ac1     Al  1.200
O31      7.716177803  157.078269742   25.094274324 XXX  2      oc3     O  -0.750
O32      3.702536566  153.807116837   24.961329229 XXX  2      oc3     O  -0.750
O33      6.191268814  156.836302941   27.466137238 XXX  2      oc4     O  -1.350
O34      3.214645513  157.905845535   14.172244929 XXX  2      oc4     O  -1.350
O35      7.867941758  155.930976051   22.507962897 XXX  2      oc4     O  -1.350
O36      7.476828011  158.887185484   22.820331126 XXX  2      oc4     O  -1.350
CA25    13.008767734  155.349538555   17.249229630 XXX  2      ca+a    Ca  1.500
CA26    14.626987045  160.386876451   14.607540604 XXX  2      ca+a    Ca  1.500
AL13    14.706139469  157.326437853   22.814080855 XXX  2      ac1     Al  1.200
AL14    15.004909235  157.006951750   19.510229422 XXX  2      ac1     Al  1.200
O37     14.741213901  157.549601957   21.110010468 XXX  2      oc3     O  -0.750
O38     11.070167458  145.396345252   21.283864145 XXX  2      oc3     O  -0.750
O39     13.484713899  157.187599016   18.569230281 XXX  2      oc4     O  -1.350
O40     11.321345544  156.900175096   32.712503589 XXX  2      oc4     O  -1.350
O41     15.654890783  158.677491430   23.345567622 XXX  2      oc4     O  -1.350
O42     15.390232797  155.733511085   22.992767238 XXX  2      oc4     O  -1.350
CA27     5.339384601  148.183071508   17.662375672 XXX  2      ca+a    Ca  1.500
CA28     5.613702502  147.543206488   21.420349539 XXX  2      ca+a    Ca  1.500
AL15     0.172472230  145.849102919   19.477639220 XXX  2      ac1     Al  1.200
AL16     3.466712135  145.727162279   19.140667632 XXX  2      ac1     Al  1.200
O43      1.869269502  145.849042134   19.741692756 XXX  2      oc3     O  -0.750
O44      1.583917972  149.720199081   22.992351529 XXX  2      oc3     O  -0.750
O45      4.299106109  147.211577560   19.465160054 XXX  2      oc4     O  -1.350
O46      5.952368817  149.892161914   19.037402039 XXX  2      oc4     O  -1.350
O47     -0.418107720  145.102300304   20.928404043 XXX  2      oc4     O  -1.350
O48     -0.146283719  145.161135242   17.856690558 XXX  2      oc4     O  -1.350
CA29     9.643143531  155.752974766   21.148080790 XXX  2      ca+a    Ca  1.500
CA30     9.438006035  155.163475367   17.344247897 XXX  2      ca+a    Ca  1.500
AL17    14.910734452  153.629708516   19.285755156 XXX  2      ac1     Al  1.200
AL18    11.586946513  153.386958374   19.575095164 XXX  2      ac1     Al  1.200
O49     13.185496155  153.569032612   18.933944921 XXX  2      oc3     O  -0.750
O50     13.147917008  157.218006204   30.741450757 XXX  2      oc3     O  -0.750
O51     10.684786599  154.852259386   19.236722741 XXX  2      oc4     O  -1.350
O52      9.039291417  157.615514093   19.990951628 XXX  2      oc4     O  -1.350
O53     15.618058955  152.993964145   17.819298330 XXX  2      oc4     O  -1.350
O54     14.955096473  152.911165750   20.879481338 XXX  2      oc4     O  -1.350
CA31    13.401137654  151.960575893   28.966382306 XXX  2      ca+a    Ca  1.500
CA32    13.157384403  151.699322560   24.973859609 XXX  2      ca+a    Ca  1.500
AL19     7.898114434  152.924302128   27.053979978 XXX  2      ac1     Al  1.200
AL20    11.223637191  153.335881463   27.357473900 XXX  2      ac1     Al  1.200
O55      9.614670783  152.785835399   27.036816472 XXX  2      oc3     O  -0.750
O56      9.357899594  149.373981661   23.412737642 XXX  2      oc3     O  -0.750
O57     12.226385355  151.993565516   27.011217613 XXX  2      oc4     O  -1.350
O58     -1.750279797  148.884154724   27.415954384 XXX  2      oc4     O  -1.350
O59      7.528266237  153.315153992   25.418499547 XXX  2      oc4     O  -1.350
O60      7.499199344  153.875007637   28.462054466 XXX  2      oc4     O  -1.350
CA33     1.907283203  158.592170256   25.199233708 XXX  2      ca+a    Ca  1.500
CA34     2.288696801  162.468052987   25.407618257 XXX  2      ca+a    Ca  1.500
AL21     7.576495542  160.770457744   27.298185434 XXX  2      ac1     Al  1.200
AL22     4.351731054  160.591293514   26.518959017 XXX  2      ac1     Al  1.200
O61      5.893084104  160.901295685   27.302048834 XXX  2      oc3     O  -0.750
O62      5.620513376  157.220643460   15.297022903 XXX  2      oc3     O  -0.750
O63      3.846628460  158.862455057   26.722764284 XXX  2      oc4     O  -1.350
O64     16.717913534  156.661541372   26.702434131 XXX  2      oc4     O  -1.350
O65      8.201426621  161.453903194   28.771350474 XXX  2      oc4     O  -1.350
O66      8.121351575  161.040228809   25.660303576 XXX  2      oc4     O  -1.350
CA35     9.910429068  159.531159693   25.777440073 XXX  2      ca+a    Ca  1.500
CA36     9.769040774  155.822746640   25.326266347 XXX  2      ca+a    Ca  1.500
CA37    11.645622862  156.997329784   27.672538303 XXX  2      ca+a    Ca  1.500
CA38     9.186378052  155.280027762   29.075911733 XXX  2      ca+a    Ca  1.500
AL23    11.356978547  160.977451131   31.076149457 XXX  2      ac1     Al  1.200
AL24    11.433791457  157.584013105   31.101545878 XXX  2      ac1     Al  1.200
O67     11.003289379  159.285721001   31.305921633 XXX  2      oc3     O  -0.750
O68      7.938667003  159.036643431   27.310599047 XXX  2      oc3     O  -0.750
O69     10.613561499  156.916309251   29.796091823 XXX  2      oc4     O  -1.350
O70     11.346505703  154.778539745   26.523442621 XXX  2      oc4     O  -1.350
O71      9.888101249  161.917243653   31.241708015 XXX  2      oc4     O  -1.350
O72     12.853848445  161.115703767   31.884092258 XXX  2      oc4     O  -1.350
CA39    11.337810795  149.637567911   19.307701989 XXX  2      ca+a    Ca  1.500
CA40    13.625047900  151.620284292   17.374227790 XXX  2      ca+a    Ca  1.500
CA41     9.540665914  151.683938261   21.222857104 XXX  2      ca+a    Ca  1.500
CA42    13.269527500  151.470204535   21.400221666 XXX  2      ca+a    Ca  1.500
AL25    11.289849964  145.857116270   22.933980825 XXX  2      ac1     Al  1.200
AL26    11.057839935  149.260914611   23.249093484 XXX  2      ac1     Al  1.200
O73     11.618660722  147.559986029   23.163624204 XXX  2      oc3     O  -0.750
O74     -0.429148979  147.560912327   19.526819720 XXX  2      oc3     O  -0.750
O75     11.526894038  149.883093778   21.716675897 XXX  2      oc4     O  -1.350
O76     10.946056003  151.840199712   19.057855727 XXX  2      oc4     O  -1.350
O77     12.796397787  144.945016923   23.364818357 XXX  2      oc4     O  -1.350
O78      9.800354060  145.515244855   23.690086933 XXX  2      oc4     O  -1.350
CA43     3.572920897  150.115032195   26.856691453 XXX  2      ca+a    Ca  1.500
CA44     5.017899383  148.101657233   28.438629313 XXX  2      ca+a    Ca  1.500
CA45     1.847023110  147.732693488   25.632003482 XXX  2      ca+a    Ca  1.500
CA46     5.406557548  148.041194950   24.765735723 XXX  2      ca+a    Ca  1.500
AL27     3.711293621  153.159069101   23.266625375 XXX  2      ac1     Al  1.200
AL28     3.247352130  149.790656729   23.318856119 XXX  2      ac1     Al  1.200
O79      3.835111287  151.392702795   23.289620030 XXX  2      oc3     O  -0.750
O80      7.151290536  151.306544252   27.160218841 XXX  2      oc3     O  -0.750
O81      3.449671367  149.121291427   24.869543564 XXX  2      oc4     O  -1.350
O82      3.268104364  161.653962590   27.150018126 XXX  2      oc4     O  -1.350
O83      5.268410193  153.642569393   22.550650440 XXX  2      oc4     O  -1.350
O84      2.084840092  153.391847574   22.644985032 XXX  2      oc4     O  -1.350
CA47     3.823898314  157.233034244   19.306012345 XXX  2      ca+a    Ca  1.500
CA48     0.774069294  160.672748417   23.003688216 XXX  2      ca+a    Ca  1.500
CA49     5.827540080  159.184277419   21.330401585 XXX  2      ca+a    Ca  1.500
CA50     1.664952085  158.825127589   17.193979786 XXX  2      ca+a    Ca  1.500
AL29     3.526222274  153.672781984   15.755141454 XXX  2      ac1     Al  1.200
AL30     3.853684076  157.106508219   15.556237924 XXX  2      ac1     Al  1.200
O85      3.301836647  155.461902467   15.460017867 XXX  2      oc3     O  -0.750
O86     15.373045621  155.319453088   19.474578012 XXX  2      oc3     O  -0.750
O87      3.500109295  157.635151522   17.156706157 XXX  2      oc4     O  -1.350
O88      4.055396256  144.186458663   19.694921292 XXX  2      oc4     O  -1.350
O89      1.982152380  152.817436164   15.572950033 XXX  2      oc4     O  -1.350
O90      4.965243928  153.280420820   14.876008189 XXX  2      oc4     O  -1.350
CA51    15.338220411  160.804790918   23.599203746 XXX  2      ca+a    Ca  1.500
CA52    13.217915689  155.124818615   25.387201173 XXX  2      ca+a    Ca  1.500
AL31    14.864518113  157.374286777   30.721102999 XXX  2      ac1     Al  1.200
AL32    15.257182896  157.316179548   27.318152301 XXX  2      ac1     Al  1.200
O91     15.446556243  157.258165268   29.068913784 XXX  2      oc3     O  -0.750
O92     11.394346321  153.737464266   29.071775514 XXX  2      oc3     O  -0.750
O93     13.678599327  156.759077634   26.913841948 XXX  2      oc4     O  -1.350
O94     10.412304217  157.904480136   24.346352042 XXX  2      oc4     O  -1.350
O95     15.439813625  156.003324537   31.618046679 XXX  2      oc4     O  -1.350
O96     15.141024063  159.034394862   31.359588260 XXX  2      oc4     O  -1.350
CA53     5.575724620  155.614027901   21.284967321 XXX  2      ca+a    Ca  1.500
CA54     6.869448077  161.023373041   23.929587323 XXX  2      ca+a    Ca  1.500
AL33     7.344443187  157.273505521   15.810162746 XXX  2      ac1     Al  1.200
AL34     7.523495600  157.122814174   19.213672190 XXX  2      ac1     Al  1.200
O97      7.487926578  157.608386908   17.511202947 XXX  2      oc3     O  -0.750
O98      3.511578300  145.424153474   17.338810914 XXX  2      oc3     O  -0.750
O99      5.963800875  157.455499128   19.942390309 XXX  2      oc4     O  -1.350
O100     3.613853351  156.752058498   21.434011587 XXX  2      oc4     O  -1.350
O101     7.989693904  158.632154801   14.905982479 XXX  2      oc4     O  -1.350
O102     7.998933603  155.686811266   15.677023470 XXX  2      oc4     O  -1.350
CA55     9.449114018  147.810682616   17.301933059 XXX  2      ca+a    Ca  1.500
CA56     9.207392328  151.607339052   17.672759202 XXX  2      ca+a    Ca  1.500
AL35     7.705545236  149.484778679   22.899382712 XXX  2      ac1     Al  1.200
AL36     7.501572265  149.255099510   19.599451854 XXX  2      ac1     Al  1.200
O103     7.570928689  149.812934602   21.238272370 XXX  2      oc3     O  -0.750
O104    11.611448199  153.204247912   21.299677755 XXX  2      oc3     O  -0.750
O105     9.048553103  149.645922253   18.797652773 XXX  2      oc4     O  -1.350
O106    11.454499565  148.906192269   32.194304180 XXX  2      oc4     O  -1.350
O107     7.089045399  150.899185670   23.653076618 XXX  2      oc4     O  -1.350
O108     6.975067693  147.995418966   23.181887780 XXX  2      oc4     O  -1.350
CA57     1.371772400  151.388446054   29.155708710 XXX  2      ca+a    Ca  1.500
CA58     1.516869950  147.427799955   28.843511340 XXX  2      ca+a    Ca  1.500
AL37    -0.084120403  149.480482495   23.411272024 XXX  2      ac1     Al  1.200
AL38    -0.288352059  149.609764198   26.853825587 XXX  2      ac1     Al  1.200
O109    -0.327675883  149.100641241   25.156517926 XXX  2      oc3     O  -0.750
O110     4.415810644  161.087464737   24.756812824 XXX  2      oc3     O  -0.750
O111     1.277214044  149.139240275   27.357725046 XXX  2      oc4     O  -1.350
O112     4.149959163  149.779242867   13.921849079 XXX  2      oc4     O  -1.350
O113    -0.603513108  148.012949096   22.593929651 XXX  2      oc4     O  -1.350
O114    -0.864808174  151.008092995   23.153175878 XXX  2      oc4     O  -1.350
CA59     9.483248749  158.613643310   28.954439073 XXX  2      ca+a    Ca  1.500
CA60     9.806975844  162.756712767   28.933208686 XXX  2      ca+a    Ca  1.500
AL39    14.879700633  160.588981061   26.853542482 XXX  2      ac1     Al  1.200
AL40    11.710397192  160.872179149   27.684778779 XXX  2      ac1     Al  1.200
O115    13.225858311  160.916520547   26.923596670 XXX  2      oc3     O  -0.750
O116    13.123639266  157.285658920   23.536661124 XXX  2      oc3     O  -0.750
O117    11.177918935  159.238762106   27.595063278 XXX  2      oc4     O  -1.350
O118     9.169933081  156.587910014   27.321881794 XXX  2      oc4     O  -1.350
O119    15.598752574  161.468864286   25.621331300 XXX  2      oc4     O  -1.350
O120    15.468102697  161.009680805   28.420343877 XXX  2      oc4     O  -1.350
CA61     5.768922834  151.868339911   25.011829262 XXX  2      ca+a    Ca  1.500
CA62     5.507944998  151.727558077   29.034391467 XXX  2      ca+a    Ca  1.500
AL41     0.304127902  152.924122550   26.933486034 XXX  2      ac1     Al  1.200
AL42     3.649673642  153.396020876   26.696635335 XXX  2      ac1     Al  1.200
O121     2.053897626  152.903518852   27.062150762 XXX  2      oc3     O  -0.750
O122     1.819820146  149.585156534   15.318572998 XXX  2      oc3     O  -0.750
O123     4.561342519  151.994435116   27.009524337 XXX  2      oc4     O  -1.350
O124     5.760571563  148.981063085   26.641730056 XXX  2      oc4     O  -1.350
O125    -0.171206966  153.371425819   28.555393293 XXX  2      oc4     O  -1.350
O126    -0.205509732  153.694344840   25.493929229 XXX  2      oc4     O  -1.350
CA63     1.789866885  155.670274779   17.654856877 XXX  2      ca+a    Ca  1.500
CA64     1.877588528  155.292409337   21.359865302 XXX  2      ca+a    Ca  1.500
AL43     7.168138251  153.616968125   19.379676784 XXX  2      ac1     Al  1.200
AL44     3.844757982  153.442741582   19.122618887 XXX  2      ac1     Al  1.200
O127     5.486177394  153.635444113   19.684631864 XXX  2      oc3     O  -0.750
O128     5.468563343  157.022600046   23.227492018 XXX  2      oc3     O  -0.750
O129     3.113722315  154.955054161   19.391842992 XXX  2      oc4     O  -1.350
O130    16.476979079  157.938264982   19.075440215 XXX  2      oc4     O  -1.350
O131     7.748474193  152.903910971   20.875930036 XXX  2      oc4     O  -1.350
O132     7.399176011  152.906051556   17.810192510 XXX  2      oc4     O  -1.350
CA65    13.039352681  148.206881652   21.103282153 XXX  2      ca+a    Ca  1.500
CA66    13.081306586  147.472922703   17.417575527 XXX  2      ca+a    Ca  1.500
AL45     7.747153012  145.821918479   19.329463418 XXX  2      ac1     Al  1.200
AL46    11.014852732  145.749973990   19.564796955 XXX  2      ac1     Al  1.200
O133     9.417447289  145.758445451   19.018874613 XXX  2      oc3     O  -0.750
O134     9.155431254  149.856421981   31.000761901 XXX  2      oc3     O  -0.750
O135    11.901348605  147.269669865   19.314401864 XXX  2      oc4     O  -1.350
O136    -1.701924231  149.961181302   19.737401788 XXX  2      oc4     O  -1.350
O137     7.151264991  145.095111732   17.859732224 XXX  2      oc4     O  -1.350
O138     7.558160384  145.107780028   20.905619047 XXX  2      oc4     O  -1.350
end
CA1     15.142106019  145.827942334   15.558073844 XXX  1      ca+a    Ca  1.500
CA2     20.749206882  148.035706279   13.563094104 XXX  1      ca+a    Ca  1.500
CA3     18.986902171  149.655948990   19.657161942 XXX  1      ca+a    Ca  1.500
CA4     21.163328626  151.683687566   21.549680132 XXX  1      ca+a    Ca  1.500
CA5     17.357263754  151.464361596   17.584578532 XXX  1      ca+a    Ca  1.500
CA6     21.030713527  151.444352249   17.393911080 XXX  1      ca+a    Ca  1.500
AL1     19.002493264  146.014527780   15.694211813 XXX  1      ac1     Al  1.200
AL2     18.794694515  149.383132600   15.465593904 XXX  1      ac1     Al  1.200
O1      19.258473810  147.691745690   15.434739772 XXX  1      oc3     O  -0.750
O2      22.516788724  147.521567950   19.310963343 XXX  1      oc3     O  -0.750
O3      19.195523400  150.070360164   17.009869507 XXX  1      oc4     O  -1.350
O4      18.401574921  151.823286253   19.601226828 XXX  1      oc4     O  -1.350
O5      20.440478123  145.057862488   15.278650165 XXX  1      oc4     O  -1.350
O6      17.521368287  145.753686154   14.914420555 XXX  1      oc4     O  -1.350
CA1     22.793497877  145.780202606   23.224356484 XXX  2      ca+a    Ca  1.500
CA2     14.893651892  145.796700341   23.277538545 XXX  2      ca+a    Ca  1.500
CA3     17.278997590  159.613360807   28.438298063 XXX  2      ca+a    Ca  1.500
CA4     17.591500294  155.863064429   28.579362072 XXX  2      ca+a    Ca  1.500
CA5     19.506685891  156.751092377   26.104423304 XXX  2      ca+a    Ca  1.500
CA6     16.599323196  155.358962051   24.838521505 XXX  2      ca+a    Ca  1.500
AL1     18.663215930  160.707602120   23.082333125 XXX  2      ac1     Al  1.200
AL2     19.061477539  157.377109661   22.991654240 XXX  2      ac1     Al  1.200
O1      18.519947738  159.014680372   22.761417701 XXX  2      oc3     O  -0.750
O2      30.591815375  159.045203620   26.461363456 XXX  2      oc3     O  -0.750
O3      18.170548314  156.800570013   24.353424705 XXX  2      oc4     O  -1.350
O4      19.251712660  154.951241176   27.449812411 XXX  2      oc4     O  -1.350
O5      17.145028395  161.095816687   22.321547276 XXX  2      oc4     O  -1.350
O6      20.235096224  160.927127769   22.358304025 XXX  2      oc4     O  -1.350
CA7     14.941037555  153.426704054   23.149154480 XXX  2      ca+a    Ca  1.500
CA8     22.824653781  153.801230919   23.351470636 XXX  2      ca+a    Ca  1.500
CA9     26.657024873  157.218261673   19.436139558 XXX  2      ca+a    Ca  1.500
CA10    23.379723614  160.900382153   15.611091004 XXX  2      ca+a    Ca  1.500
CA11    28.661389882  159.302578693   17.499184957 XXX  2      ca+a    Ca  1.500
CA12    24.599412772  159.133687663   21.627860537 XXX  2      ca+a    Ca  1.500
AL3     26.441113755  153.775301472   22.985790043 XXX  2      ac1     Al  1.200
AL4     26.588068875  157.204501605   23.168635335 XXX  2      ac1     Al  1.200
O7      26.113618053  155.495294318   23.242315568 XXX  2      oc3     O  -0.750
O8      22.971128332  155.353566302   19.258775094 XXX  2      oc3     O  -0.750
O9      26.221006534  157.745348952   21.579952862 XXX  2      oc4     O  -1.350
O10     27.092911994  144.211005638   19.109184452 XXX  2      oc4     O  -1.350
O11     24.919547397  152.930660232   23.266465771 XXX  2      oc4     O  -1.350
O12     27.931711355  153.353028086   23.795002197 XXX  2      oc4     O  -1.350
CA13    22.724618606  153.476786702   15.798227998 XXX  2      ca+a    Ca  1.500
CA14    13.173138958  155.456336670   13.253905942 XXX  2      ca+a    Ca  1.500
CA15    26.486919287  150.029010635   27.111286121 XXX  2      ca+a    Ca  1.500
CA16    27.980738815  148.018222139   25.509806215 XXX  2      ca+a    Ca  1.500
CA17    24.890889923  147.726812366   28.497562746 XXX  2      ca+a    Ca  1.500
CA18    28.415969184  147.962376341   29.354559556 XXX  2      ca+a    Ca  1.500
AL5     26.647085886  153.191146048   30.842908721 XXX  2      ac1     Al  1.200
AL6     26.268442845  149.786270016   30.836378093 XXX  2      ac1     Al  1.200
O13     26.876801390  151.414234647   30.892351171 XXX  2      oc3     O  -0.750
O14     14.905823739  151.336822757   26.866821441 XXX  2      oc3     O  -0.750
O15     26.487094967  149.078128763   29.281245448 XXX  2      oc4     O  -1.350
O16     26.017836420  161.763322452   26.803548026 XXX  2      oc4     O  -1.350
O17     28.225120438  153.668239628   31.435076858 XXX  2      oc4     O  -1.350
O18     25.087396266  153.511680620   31.635368013 XXX  2      oc4     O  -1.350
CA19    17.313978817  147.708930733   21.439813675 XXX  2      ca+a    Ca  1.500
CA20    16.758077900  151.661527768   21.174340826 XXX  2      ca+a    Ca  1.500
AL7     15.359422579  149.587545805   15.889989487 XXX  2      ac1     Al  1.200
AL8     15.195866565  149.295893730   19.287352996 XXX  2      ac1     Al  1.200
O19     15.318539824  149.812169614   17.653179604 XXX  2      oc3     O  -0.750
O20     18.982556909  153.114075931   17.351757855 XXX  2      oc3     O  -0.750
O21     16.726985175  149.433985989   20.048124890 XXX  2      oc4     O  -1.350
O22     19.192728384  149.012865830   21.927541769 XXX  2      oc4     O  -1.350
O23     14.600677297  150.991680932   15.308946889 XXX  2      oc4     O  -1.350
O24     14.732415738  147.996385349   15.529644382 XXX  2      oc4     O  -1.350
CA21    24.460833214  151.538221319   24.892706954 XXX  2      ca+a    Ca  1.500
CA22    24.374937190  147.600900054   25.290128737 XXX  2      ca+a    Ca  1.500
AL9     22.913895368  149.532947650   30.682421360 XXX  2      ac1     Al  1.200
AL10    22.770714442  149.707247732   27.303577686 XXX  2      ac1     Al  1.200
O25     22.835799928  149.165698989   28.945158915 XXX  2      oc3     O  -0.750
O26     27.118850648  161.032051268   29.144148804 XXX  2      oc3     O  -0.750
O27     24.303590519  149.381433937   26.624096595 XXX  2      oc4     O  -1.350
O28     26.868570826  149.886232539   24.838917925 XXX  2      oc4     O  -1.350
O29     22.363977661  148.037297617   31.410068525 XXX  2      oc4     O  -1.350
O30     22.162458638  151.064734017   30.865515689 XXX  2      oc4     O  -1.350
CA23    20.445294207  158.607837893   28.523689465 XXX  2      ca+a    Ca  1.500
CA24    21.142865097  155.109323913   28.779311835 XXX  2      ca+a    Ca  1.500
AL11    22.378134561  157.396031948   23.442668959 XXX  2      ac1     Al  1.200
AL12    22.902493594  157.363533587   26.843249885 XXX  2      ac1     Al  1.200
O31     22.977314175  157.127651102   25.077376174 XXX  2      oc3     O  -0.750
O32     18.984521989  153.749430535   24.915023786 XXX  2      oc3     O  -0.750
O33     21.303063201  156.934893278   27.448870859 XXX  2      oc4     O  -1.350
O34     18.549862790  157.518622713   14.282310250 XXX  2      oc4     O  -1.350
O35     22.932906908  155.988008398   22.587069708 XXX  2      oc4     O  -1.350
O36     22.644478905  159.065427613   22.826226602 XXX  2      oc4     O  -1.350
CA25    28.395751035  155.517993198   17.400113245 XXX  2      ca+a    Ca  1.500
CA26    29.652832579  161.126762483   14.856587737 XXX  2      ca+a    Ca  1.500
AL13    30.047328876  157.384705225   22.940898964 XXX  2      ac1     Al  1.200
AL14    30.352131255  156.975693486   19.542479220 XXX  2      ac1     Al  1.200
O37     30.229913084  157.558957361   21.185429164 XXX  2      oc3     O  -0.750
O38     26.661048994  145.507178592   21.314126122 XXX  2      oc3     O  -0.750
O39     28.842064665  157.452870766   18.825288266 XXX  2      oc4     O  -1.350
O40     26.640890158  156.720164283   32.645094280 XXX  2      oc4     O  -1.350
O41     30.782519768  158.723456193   23.812814130 XXX  2      oc4     O  -1.350
O42     30.572922760  155.695926661   23.252748853 XXX  2      oc4     O  -1.350
CA27    20.806903137  148.230212822   17.532739268 XXX  2      ca+a    Ca  1.500
CA28    20.727148734  147.500321350   21.276781224 XXX  2      ca+a    Ca  1.500
AL15    15.387440555  145.900200718   19.440593088 XXX  2      ac1     Al  1.200
AL16    18.729845133  145.745414543   19.033329853 XXX  2      ac1     Al  1.200
O43     17.088638046  145.834084255   19.710846263 XXX  2      oc3     O  -0.750
O44     16.841990619  149.624199356   23.027446596 XXX  2      oc3     O  -0.750
O45     19.553106716  147.305419577   19.316431793 XXX  2      oc4     O  -1.350
O46     21.189230240  149.944956133   19.020580082 XXX  2      oc4     O  -1.350
O47     14.840206825  145.109581016   20.893834590 XXX  2      oc4     O  -1.350
O48     15.241561870  145.166756769   17.818186557 XXX  2      oc4     O  -1.350
CA29    24.708185028  155.845211387   21.111546173 XXX  2      ca+a    Ca  1.500
CA30    24.764693516  155.394224241   17.413496404 XXX  2      ca+a    Ca  1.500
AL17    29.961363891  153.604339753   19.307128544 XXX  2      ac1     Al  1.200
AL18    26.645705378  153.495740067   19.614642095 XXX  2      ac1     Al  1.200
O49     28.272500581  153.552063787   18.983207141 XXX  2      oc3     O  -0.750
O50     28.252955714  157.209678268   30.462837928 XXX  2      oc3     O  -0.750
O51     25.898071485  155.030687069   19.357255256 XXX  2      oc4     O  -1.350
O52     24.227968187  157.855197514   19.936096187 XXX  2      oc4     O  -1.350
O53     30.662768746  152.987400511   17.901057748 XXX  2      oc4     O  -1.350
O54     30.212107962  152.906701995   20.811655408 XXX  2      oc4     O  -1.350
CA31    28.693888502  151.987115158   28.985818969 XXX  2      ca+a    Ca  1.500
CA32    28.552305613  151.631654213   25.001815086 XXX  2      ca+a    Ca  1.500
AL19    23.271690308  152.956444915   27.074758521 XXX  2      ac1     Al  1.200
AL20    26.570980627  153.361798134   27.367637513 XXX  2      ac1     Al  1.200
O55     24.999207753  152.833169910   26.919920940 XXX  2      oc3     O  -0.750
O56     24.521631364  149.428034134   23.477930470 XXX  2      oc3     O  -0.750
O57     27.562238869  151.948428127   27.083744320 XXX  2      oc4     O  -1.350
O58     13.514837434  148.901951106   27.405655840 XXX  2      oc4     O  -1.350
O59     22.760237783  153.351212774   25.468955992 XXX  2      oc4     O  -1.350
O60     22.935934832  153.725642478   28.551467696 XXX  2      oc4     O  -1.350
CA33    17.038123352  158.562417690   25.088915285 XXX  2      ca+a    Ca  1.500
CA34    16.611348342  162.757815265   27.142401378 XXX  2      ca+a    Ca  1.500
AL21    22.545672695  160.764431398   27.192812326 XXX  2      ac1     Al  1.200
AL22    19.146414396  160.634238070   26.525889239 XXX  2      ac1     Al  1.200
O61     20.783096795  160.975228751   27.069004574 XXX  2      oc3     O  -0.750
O62     20.914355041  157.160202127   15.417614066 XXX  2      oc3     O  -0.750
O63     18.824577482  158.913748293   26.647442933 XXX  2      oc4     O  -1.350
O64     31.917974060  156.677807771   26.534098464 XXX  2      oc4     O  -1.350
O65     23.065718592  161.576222120   28.663140812 XXX  2      oc4     O  -1.350
O66     23.116782221  161.047653280   25.592386224 XXX  2      oc4     O  -1.350
CA35    24.980512510  159.901966529   25.645057668 XXX  2      ca+a    Ca  1.500
CA36    25.150206139  155.961444045   25.530189485 XXX  2      ca+a    Ca  1.500
CA37    27.167818055  156.777573024   27.876852909 XXX  2      ca+a    Ca  1.500
CA38    24.377101594  155.294153729   29.183295378 XXX  2      ca+a    Ca  1.500
AL23    26.597126125  160.877673534   30.849268265 XXX  2      ac1     Al  1.200
AL24    26.640927180  157.519576526   31.060171187 XXX  2      ac1     Al  1.200
O67     26.207034705  159.194458968   31.189086926 XXX  2      oc3     O  -0.750
O68     22.972923462  159.076385701   27.331642062 XXX  2      oc3     O  -0.750
O69     25.831599138  156.807106475   29.732296854 XXX  2      oc4     O  -1.350
O70     26.827681949  154.928894874   26.564417173 XXX  2      oc4     O  -1.350
O71     25.154305943  161.832982661   30.889034498 XXX  2      oc4     O  -1.350
O72     28.097177197  161.179517652   31.671668114 XXX  2      oc4     O  -1.350
CA39    26.562278018  149.810514689   19.210839882 XXX  2      ca+a    Ca  1.500
CA40    28.772265026  151.784694638   17.211014485 XXX  2      ca+a    Ca  1.500
CA41    24.811287215  151.627351844   21.278362927 XXX  2      ca+a    Ca  1.500
CA42    28.437082583  151.540185640   21.342113194 XXX  2      ca+a    Ca  1.500
AL25    26.677010684  145.934910441   22.954902237 XXX  2      ac1     Al  1.200
AL26    26.273179093  149.321428501   23.285709171 XXX  2      ac1     Al  1.200
O73     26.822036059  147.645743837   23.203712017 XXX  2      oc3     O  -0.750
O74     14.849151069  147.554256537   19.376303120 XXX  2      oc3     O  -0.750
O75     26.639323129  149.993113179   21.744830320 XXX  2      oc4     O  -1.350
O76     26.055370635  151.928197616   19.231023350 XXX  2      oc4     O  -1.350
O77     28.088068559  145.124397046   23.593822819 XXX  2      oc4     O  -1.350
O78     25.031840479  145.459164655   23.400042595 XXX  2      oc4     O  -1.350
CA43    18.744923623  149.962248450   27.031956051 XXX  2      ca+a    Ca  1.500
CA44    20.470658970  147.991846066   28.583716626 XXX  2      ca+a    Ca  1.500
CA45    17.056497114  147.786995130   25.744559002 XXX  2      ca+a    Ca  1.500
CA46    20.740483457  148.009882437   24.842529050 XXX  2      ca+a    Ca  1.500
AL27    18.922670443  153.137065481   23.278676369 XXX  2      ac1     Al  1.200
AL28    18.501164611  149.745413882   23.375236083 XXX  2      ac1     Al  1.200
O79     19.127273908  151.412417639   23.352741000 XXX  2      oc3     O  -0.750
O80     22.556628227  151.373568307   27.221484486 XXX  2      oc3     O  -0.750
O81     18.796059614  149.004922834   24.939671725 XXX  2      oc4     O  -1.350
O82     18.225561355  161.528971953   27.625864701 XXX  2      oc4     O  -1.350
O83     20.435232785  153.523302726   22.567496277 XXX  2      oc4     O  -1.350
O84     17.332108759  153.370210817   22.639367886 XXX  2      oc4     O  -1.350
CA47    19.253948241  156.701928550   19.308048760 XXX  2      ca+a    Ca  1.500
CA48    16.806505273  158.980120056   21.259350479 XXX  2      ca+a    Ca  1.500
CA49    21.077932077  159.290165286   21.240663952 XXX  2      ca+a    Ca  1.500
CA50    17.082674892  158.787124746   17.098277146 XXX  2      ca+a    Ca  1.500
AL29    18.923708145  153.569416447   15.699148357 XXX  2      ac1     Al  1.200
AL30    19.207660400  156.830435191   15.650766804 XXX  2      ac1     Al  1.200
O85     18.704953705  155.212862625   15.418893322 XXX  2      oc3     O  -0.750
O86     30.585796268  155.230162848   19.339750666 XXX  2      oc3     O  -0.750
O87     18.607255384  157.202567624   17.292595102 XXX  2      oc4     O  -1.350
O88     19.385249567  144.227760492   19.484802800 XXX  2      oc4     O  -1.350
O89     17.495442358  152.805462215   15.117046415 XXX  2      oc4     O  -1.350
O90     20.467871961  153.277958983   14.990853588 XXX  2      oc4     O  -1.350
CA51    28.132280635  158.711875093   25.507514566 XXX  2      ca+a    Ca  1.500
CA52    28.683027173  155.125226332   25.211109074 XXX  2      ca+a    Ca  1.500
AL31    29.984305113  157.423670620   30.451711474 XXX  2      ac1     Al  1.200
AL32    30.474809245  157.420919862   27.060090721 XXX  2      ac1     Al  1.200
O91     30.586298645  157.321355465   28.805658729 XXX  2      oc3     O  -0.750
O92     26.602882009  153.689329130   29.122296904 XXX  2      oc3     O  -0.750
O93     28.923832942  156.881500715   26.557326425 XXX  2      oc4     O  -1.350
O94     25.900467273  158.057753161   24.545493972 XXX  2      oc4     O  -1.350
O95     30.670721283  156.113909041   31.331145230 XXX  2      oc4     O  -1.350
O96     30.275562077  159.110493014   31.010301723 XXX  2      oc4     O  -1.350
CA53    20.896503817  155.382593998   21.534635945 XXX  2      ca+a    Ca  1.500
CA54    21.699785986  160.846813810   24.032108962 XXX  2      ca+a    Ca  1.500
AL33    22.543358916  157.345328854   15.967234293 XXX  2      ac1     Al  1.200
AL34    22.742659679  157.145253290   19.305398794 XXX  2      ac1     Al  1.200
O97     22.570943960  157.715894981   17.640925407 XXX  2      oc3     O  -0.750
O98     18.738463569  145.501312825   17.317971356 XXX  2      oc3     O  -0.750
O99     21.257970772  157.323749117   20.145786119 XXX  2      oc4     O  -1.350
O100    18.807394220  156.656168045   21.454712197 XXX  2      oc4     O  -1.350
O101    23.202565154  158.846475964   15.218925234 XXX  2      oc4     O  -1.350
O102    23.245590606  155.755821173   15.840258475 XXX  2      oc4     O  -1.350
CA55    25.068558137  147.789293829   17.465323779 XXX  2      ca+a    Ca  1.500
CA56    24.445022283  151.737117648   17.631519139 XXX  2      ca+a    Ca  1.500
AL35    22.879165988  149.530662131   22.882281027 XXX  2      ac1     Al  1.200
AL36    22.755923787  149.261426747   19.495017734 XXX  2      ac1     Al  1.200
O103    22.915120778  149.782510111   21.146294782 XXX  2      oc3     O  -0.750
O104    26.760038864  153.297040108   21.344521746 XXX  2      oc3     O  -0.750
O105    24.333117406  149.590428858   18.715608065 XXX  2      oc4     O  -1.350
O106    26.888246468  149.043340876   32.263139365 XXX  2      oc4     O  -1.350
O107    22.232092914  150.993823476   23.551220213 XXX  2      oc4     O  -1.350
O108    22.109006827  147.984769717   23.137416125 XXX  2      oc4     O  -1.350
CA57    16.649212245  151.644740203   29.310409264 XXX  2      ca+a    Ca  1.500
CA58    16.741967519  147.492392095   29.010378702 XXX  2      ca+a    Ca  1.500
AL37    15.185317228  149.402607345   23.565006925 XXX  2      ac1     Al  1.200
AL38    14.996697141  149.651760147   26.895606400 XXX  2      ac1     Al  1.200
O109    15.101523249  149.070641716   25.274848621 XXX  2      oc3     O  -0.750
O110    18.805522948  161.104826990   24.853688297 XXX  2      oc3     O  -0.750
O111    16.546151932  149.213956932   27.589725928 XXX  2      oc4     O  -1.350
O112    19.462770510  149.866815213   13.956301581 XXX  2      oc4     O  -1.350
O113    14.671597444  147.918114730   22.702329457 XXX  2      oc4     O  -1.350
O114    14.394837913  150.939882030   23.244428410 XXX  2      oc4     O  -1.350
CA59    24.819524329  158.553065609   28.818286338 XXX  2      ca+a    Ca  1.500
CA60    24.955316016  162.529310230   28.679948333 XXX  2      ca+a    Ca  1.500
AL39    30.292401231  160.748817894   26.561868780 XXX  2      ac1     Al  1.200
AL40    27.093036186  160.633599800   27.442738394 XXX  2      ac1     Al  1.200
O115    28.580076772  160.864288947   26.604381378 XXX  2      oc3     O  -0.750
O116    28.312698409  157.426026507   23.422706931 XXX  2      oc3     O  -0.750
O117    26.648056421  158.988660901   27.327558858 XXX  2      oc4     O  -1.350
O118    24.353840845  156.741397271   27.431822687 XXX  2      oc4     O  -1.350
O119    30.920321894  161.382658049   25.114034365 XXX  2      oc4     O  -1.350
O120    30.885568248  161.025823361   28.175369054 XXX  2      oc4     O  -1.350
CA61    21.004242560  152.029536979   25.067188586 XXX  2      ca+a    Ca  1.500
CA62    20.880422208  151.648484068   29.033496129 XXX  2      ca+a    Ca  1.500
AL41    15.583170027  152.968815242   26.959727396 XXX  2      ac1     Al  1.200
AL42    18.902436689  153.430132218   26.671904989 XXX  2      ac1     Al  1.200
O121    17.323449326  152.983378477   27.210939425 XXX  2      oc3     O  -0.750
O122    17.025714702  149.607683552   15.279306820 XXX  2      oc3     O  -0.750
O123    19.813764673  151.923845022   26.943418814 XXX  2      oc4     O  -1.350
O124    21.323455883  148.932038042   26.695899855 XXX  2      oc4     O  -1.350
O125    15.126179945  153.234481945   28.576570248 XXX  2      oc4     O  -1.350
O126    14.995053401  153.813524534   25.485669249 XXX  2      oc4     O  -1.350
CA63    16.986559051  155.532525119   17.608794109 XXX  2      ca+a    Ca  1.500
CA64    17.009271802  155.198748170   21.420614683 XXX  2      ca+a    Ca  1.500
AL43    22.390929614  153.632896512   19.450861011 XXX  2      ac1     Al  1.200
AL44    19.039597202  153.370272070   19.122651981 XXX  2      ac1     Al  1.200
O127    20.681158375  153.494168029   19.735421922 XXX  2      oc3     O  -0.750
O128    20.706299354  157.108706105   23.375754599 XXX  2      oc3     O  -0.750
O129    18.122539275  154.816442426   19.347936304 XXX  2      oc4     O  -1.350
O130    31.843749385  157.522629559   18.931295011 XXX  2      oc4     O  -1.350
O131    23.031551414  152.938773701   20.969810274 XXX  2      oc4     O  -1.350
O132    22.698226756  152.871571773   17.968084212 XXX  2      oc4     O  -1.350
CA65    28.246375065  148.180166145   21.149863715 XXX  2      ca+a    Ca  1.500
CA66    28.434568400  147.512406207   17.332520671 XXX  2      ca+a    Ca  1.500
AL45    23.024538652  145.825962608   19.312878067 XXX  2      ac1     Al  1.200
AL46    26.482329297  145.761047349   19.583366557 XXX  2      ac1     Al  1.200
O133    24.767000606  145.703042478   19.079509363 XXX  2      oc3     O  -0.750
O134    24.572325664  149.728169358   31.198226705 XXX  2      oc3     O  -0.750
O135    27.125165978  147.283537476   19.218911097 XXX  2      oc4     O  -1.350
O136    13.643446013  149.997104346   19.706029598 XXX  2      oc4     O  -1.350
O137    22.437751555  145.073953033   17.786869191 XXX  2      oc4     O  -1.350
O138    22.770649380  145.186570251   20.888589029 XXX  2      oc4     O  -1.350
end
end
