!BIOSYM archive 3
PBC=ON
Materials Studio Generated CAR File
!DATE Tue Apr 15 10:09:51 2014
PBC    9.4170   16.3107    6.8750   90.0000   90.0000   90.0000 (P1)
O1       0.812216177    2.801366486    0.483312486 XXXX 1      oap1    O  -0.800
O2       1.876337369    7.458077827    0.483312486 XXXX 1      oap1    O  -0.800
O3       6.728446454    6.051278142    0.483312486 XXXX 1      oap1    O  -0.800
O4       3.896283823    5.353994741    3.920812486 XXXX 1      oap1    O  -0.800
O5       2.832162631    0.697283401    3.920812486 XXXX 1      oap1    O  -0.800
O6       7.397053546    2.104083086    3.920812486 XXXX 1      oap1    O  -0.800
O7       3.896283823    5.353994741    6.391687514 XXXX 1      oap1    O  -0.800
O8       2.832162631    0.697283401    6.391687514 XXXX 1      oap1    O  -0.800
O9       7.397053546    2.104083086    6.391687514 XXXX 1      oap1    O  -0.800
O10      0.812216177    2.801366486    2.954187514 XXXX 1      oap1    O  -0.800
O11      1.876337369    7.458077827    2.954187514 XXXX 1      oap1    O  -0.800
O12      6.728446454    6.051278142    2.954187514 XXXX 1      oap1    O  -0.800
Ca1      4.708500000    2.718453742    0.009900000 XXXX 1      ca+h    Ca  1.500
Ca2      0.000000000    5.436907485    3.447400000 XXXX 1      ca+h    Ca  1.500
Ca3      0.000000000    5.436907485    6.865100000 XXXX 1      ca+h    Ca  1.500
Ca4      4.708500000    2.718453742    3.427600000 XXXX 1      ca+h    Ca  1.500
Ca5      8.315587680    2.014863545    1.718750000 XXXX 1      ca+h    Ca  1.500
P1       1.594015673    3.251216341    1.718750000 XXXX 1      pap     P   1.000
O13      1.613602691    4.788012813    1.718750000 XXXX 1      oap1    O  -0.800
O14      3.018619440    2.682298384    1.718750000 XXXX 1      oap1    O  -0.800
Ca6      3.514283145    6.194078406    1.718750000 XXXX 1      ca+h    Ca  1.500
P2       1.095856219    7.910211124    1.718750000 XXXX 1      pap     P   1.000
O15     -0.244842075    7.158775743    1.718750000 XXXX 1      oap1    O  -0.800
O16      0.876251738    9.428413155    1.718750000 XXXX 1      oap1    O  -0.800
Ca7      7.004129175    8.101780504    1.718750000 XXXX 1      ca+h    Ca  1.500
P3       6.727128108    5.149294990    1.718750000 XXXX 1      pap     P   1.000
O17      8.048239384    4.363933899    1.718750000 XXXX 1      oap1    O  -0.800
O18      5.522128821    4.200010915    1.718750000 XXXX 1      oap1    O  -0.800
Ca8      5.809912320    6.140497683    5.156250000 XXXX 1      ca+h    Ca  1.500
P4       3.114484327    4.904144887    5.156250000 XXXX 1      pap     P   1.000
O19      3.094897309    3.367348414    5.156250000 XXXX 1      oap1    O  -0.800
O20      1.689880560    5.473062843    5.156250000 XXXX 1      oap1    O  -0.800
Ca9      1.194216855    1.961282822    5.156250000 XXXX 1      ca+h    Ca  1.500
P5       3.612643781    0.245150104    5.156250000 XXXX 1      pap     P   1.000
O21      4.953342075    0.996585485    5.156250000 XXXX 1      oap1    O  -0.800
O22      3.832248262   -1.273051928    5.156250000 XXXX 1      oap1    O  -0.800
Ca10     7.121370825    0.053580723    5.156250000 XXXX 1      ca+h    Ca  1.500
P6       7.398371892    3.006066237    5.156250000 XXXX 1      pap     P   1.000
O23      6.077260616    3.791427328    5.156250000 XXXX 1      oap1    O  -0.800
O24      8.603371179    3.955350312    5.156250000 XXXX 1      oap1    O  -0.800
O25      0.000000000    0.000000000    5.514437519 XXXX 1      oap2    O  -1.100
H1      -0.000117823    0.000199318    6.624437493 XXXX 1      hop     H   0.200
end
O1       5.520716177   10.956727713    0.483312486 XXXX 1      oap1    O  -0.800
O2       6.584837369   15.613439054    0.483312486 XXXX 1      oap1    O  -0.800
O3       2.019946454   14.206639369    0.483312486 XXXX 1      oap1    O  -0.800
O4       8.604783823   13.509355968    3.920812486 XXXX 1      oap1    O  -0.800
O5       7.540662631    8.852644628    3.920812486 XXXX 1      oap1    O  -0.800
O6       2.688553546   10.259444313    3.920812486 XXXX 1      oap1    O  -0.800
O7       8.604783823   13.509355968    6.391687514 XXXX 1      oap1    O  -0.800
O8       7.540662631    8.852644628    6.391687514 XXXX 1      oap1    O  -0.800
O9       2.688553546   10.259444313    6.391687514 XXXX 1      oap1    O  -0.800
O10      5.520716177   10.956727713    2.954187514 XXXX 1      oap1    O  -0.800
O11      6.584837369   15.613439054    2.954187514 XXXX 1      oap1    O  -0.800
O12      2.019946454   14.206639369    2.954187514 XXXX 1      oap1    O  -0.800
Ca1      0.000000000   10.873814969    0.009900000 XXXX 1      ca+h    Ca  1.500
Ca2      4.708500000   13.592268712    3.447400000 XXXX 1      ca+h    Ca  1.500
Ca3      4.708500000   13.592268712    6.865100000 XXXX 1      ca+h    Ca  1.500
Ca4      0.000000000   10.873814969    3.427600000 XXXX 1      ca+h    Ca  1.500
Ca5      3.607087680   10.170224772    1.718750000 XXXX 1      ca+h    Ca  1.500
P1       6.302515673   11.406577568    1.718750000 XXXX 1      pap     P   1.000
O13      6.322102691   12.943374040    1.718750000 XXXX 1      oap1    O  -0.800
O14      7.727119440   10.837659611    1.718750000 XXXX 1      oap1    O  -0.800
Ca6      8.222783145   14.349439633    1.718750000 XXXX 1      ca+h    Ca  1.500
P2       5.804356219   16.065572351    1.718750000 XXXX 1      pap     P   1.000
O15      4.463657925   15.314136970    1.718750000 XXXX 1      oap1    O  -0.800
O16      5.584751738   17.583774382    1.718750000 XXXX 1      oap1    O  -0.800
Ca7      2.295629175   16.257141731    1.718750000 XXXX 1      ca+h    Ca  1.500
P3       2.018628108   13.304656217    1.718750000 XXXX 1      pap     P   1.000
O17      3.339739384   12.519295126    1.718750000 XXXX 1      oap1    O  -0.800
O18      0.813628821   12.355372142    1.718750000 XXXX 1      oap1    O  -0.800
Ca8      1.101412320   14.295858910    5.156250000 XXXX 1      ca+h    Ca  1.500
P4       7.822984327   13.059506114    5.156250000 XXXX 1      pap     P   1.000
O19      7.803397309   11.522709641    5.156250000 XXXX 1      oap1    O  -0.800
O20      6.398380560   13.628424070    5.156250000 XXXX 1      oap1    O  -0.800
Ca9      5.902716855   10.116644049    5.156250000 XXXX 1      ca+h    Ca  1.500
P5       8.321143781    8.400511331    5.156250000 XXXX 1      pap     P   1.000
O21      9.661842075    9.151946712    5.156250000 XXXX 1      oap1    O  -0.800
O22      8.540748262    6.882309299    5.156250000 XXXX 1      oap1    O  -0.800
Ca10     2.412870825    8.208941950    5.156250000 XXXX 1      ca+h    Ca  1.500
P6       2.689871892   11.161427464    5.156250000 XXXX 1      pap     P   1.000
O23      1.368760616   11.946788555    5.156250000 XXXX 1      oap1    O  -0.800
O24      3.894871179   12.110711539    5.156250000 XXXX 1      oap1    O  -0.800
O25      4.708500000    8.155361227    5.514437519 XXXX 1      oap2    O  -1.100
O26      4.708500000    8.155361227    2.076937519 XXXX 1      oap2    O  -1.100
H1       4.708382177    8.155560545    6.624437493 XXXX 1      hop     H   0.200
H2       4.712691421    8.148344341    3.186907421 XXXX 1      hop     H   0.200
end
O26      0.000000000   16.310722455    2.076937519 XXXX 1      oap2    O  -1.100
H2       0.004191421   16.303705569    3.186907421 XXXX 1      hop     H   0.200
end
end
