!BIOSYM archive 3
PBC=ON
Materials Studio Generated CAR File
!DATE Mon Mar 02 02:22:43 2009
PBC   11.2648    7.4250   27.9870   90.0000   90.0000   90.0000 (P1)
Ca1      3.067016863    3.790430048    7.981892395 XXXX 1      ca+t    Ca  1.500
Ca2      0.329676647    5.607383869    6.008808858 XXXX 1      ca+t    Ca  1.500
Si1      3.140237962    3.452849158    4.903322411 XXXX 1      sc2     Si  1.000
Si2      3.956934007    5.620099712    2.913446599 XXXX 1      sc3     Si  1.000
Si3      3.100811088    0.323073683    4.900523664 XXXX 1      sc2     Si  1.000
O1       3.151502591    4.381013869    3.492777505 XXXX 1      oc12    O  -0.500
O2       3.196561780    1.953196556    4.315595471 XXXX 1      oc12    O  -0.500
O3       4.390627950    3.880457653    5.793309063 XXXX 1      oc13    O  -1.000
O4       1.833524156    3.678443208    5.779315327 XXXX 1      oc13    O  -1.000
O5       3.911896777    1.937133043   26.638026598 XXXX 1      oc22    O  -1.000
O6       5.573441978    5.584933985    3.288472492 XXXX 1      oc14    O  -0.660
O7       0.560604573    5.582205810    3.627115294 XXXX 1      o*      O  -0.820
O8       3.190929466    6.939064403    3.503972495 XXXX 1      oc12    O  -0.500
O9       1.737773462    0.199495128    5.784912821 XXXX 1      oc13    O  -1.000
O11      4.266715410    5.558073079   26.419727952 XXXX 1      o*      O  -0.820
O12      0.588766483    3.833717087    0.083961001 XXXX 1      o*      O  -0.820
Ca3      3.866815964    0.065883821    0.053175301 XXXX 1      ca+t    Ca  1.500
O13      3.044487269    3.834900936    0.000000000 XXXX 1      o*      O  -0.820
Ca4      0.250823234    5.636807498   21.975392395 XXXX 1      ca+t    Ca  1.500
Ca5      3.145870277    3.761006418   20.002308858 XXXX 1      ca+t    Ca  1.500
Si4      0.324044332    5.299226608   18.896822411 XXXX 1      sc2     Si  1.000
Si5      1.140740378    7.466477163   16.906946599 XXXX 1      sc3     Si  1.000
Si6      0.284617458    2.169451133   18.894023664 XXXX 1      sc2     Si  1.000
O14      0.335308962    6.227391319   17.486277505 XXXX 1      oc12    O  -0.500
O15      0.380368151    3.799574007   18.309095471 XXXX 1      oc12    O  -0.500
O16      1.574434320    5.726835103   19.786809063 XXXX 1      oc13    O  -1.000
O17     -0.982669474    5.524820658   19.772815327 XXXX 1      oc13    O  -1.000
O18      1.095703147    3.783510494   12.644526598 XXXX 1      oc22    O  -1.000
O19      2.757248348    7.431311435   17.281972492 XXXX 1      oc14    O  -0.660
O20      3.376798202    3.735828360   17.620615294 XXXX 1      o*      O  -0.820
O21      0.374735836    1.360441853   17.497472495 XXXX 1      oc12    O  -0.500
O22     -1.078420167    2.045872578   19.778412821 XXXX 1      oc13    O  -1.000
O24      1.450521780    7.404450529   12.426227952 XXXX 1      o*      O  -0.820
Ca6      3.067016863    7.502930047   20.005107605 XXXX 1      ca+t    Ca  1.500
Ca7      0.329676647    1.894883868   21.978191142 XXXX 1      ca+t    Ca  1.500
Si7      3.140237962    7.165349157   23.083677589 XXXX 1      sc2     Si  1.000
Si8      3.956934007    1.907599713   25.073553401 XXXX 1      sc3     Si  1.000
Si9      3.100811088    4.035573682   23.086476336 XXXX 1      sc2     Si  1.000
O25      3.151502591    0.668513868   24.494222495 XXXX 1      oc12    O  -0.500
O26      3.196561781    5.665696556   23.671404529 XXXX 1      oc12    O  -0.500
O28      1.833524155    7.390943209   22.207684673 XXXX 1      oc13    O  -1.000
O29      3.911875153    5.649641591    1.348973402 XXXX 1      oc22    O  -1.000
O30      5.573441977    1.872433985   24.698527508 XXXX 1      oc14    O  -0.660
O31      0.560604573    1.869705810   24.359884706 XXXX 1      o*      O  -0.820
O32      3.190929466    3.226564402   24.483027505 XXXX 1      oc12    O  -0.500
O33      1.737773462    3.911995128   22.202087179 XXXX 1      oc13    O  -1.000
O34      4.446973392    3.687596441   22.196489684 XXXX 1      oc13    O  -1.000
O35      4.266715410    1.845573079    1.567272048 XXXX 1      o*      O  -0.820
O36      0.588766482    7.546217088   27.903038999 XXXX 1      o*      O  -0.820
Ca8      0.250823233    1.924307498    6.011607605 XXXX 1      ca+t    Ca  1.500
Ca9      3.145870277    7.473506418    7.984691142 XXXX 1      ca+t    Ca  1.500
Si10     0.324044332    1.586726608    9.090177589 XXXX 1      sc2     Si  1.000
Si11     1.140740377    3.753977163   11.080053401 XXXX 1      sc3     Si  1.000
Si12     0.284617458    5.881951132    9.092976336 XXXX 1      sc2     Si  1.000
O37      0.335308962    2.514891319   10.500722495 XXXX 1      oc12    O  -0.500
O38      0.380368151    7.512074007    9.677904529 XXXX 1      oc12    O  -0.500
O40     -0.982669474    1.812320659    8.214184673 XXXX 1      oc13    O  -1.000
O41      1.095681524    7.496019042   15.342473402 XXXX 1      oc22    O  -1.000
O42      2.757248348    3.718811435   10.705027508 XXXX 1      oc14    O  -0.660
O43      3.376798203    7.448328360   10.366384706 XXXX 1      o*      O  -0.820
O44      0.374735836    5.072941853   10.489527505 XXXX 1      oc12    O  -0.500
O45     -1.078420168    5.758372578    8.208587179 XXXX 1      oc13    O  -1.000
O46      1.630779762    5.533973891    8.202989684 XXXX 1      oc13    O  -1.000
O47      1.450521780    3.691950530   15.560772048 XXXX 1      o*      O  -0.820
O48      4.328650025    1.938611388   14.077461001 XXXX 1      o*      O  -0.820
O49      3.404960112    5.699839637   13.909538999 XXXX 1      o*      O  -0.820
Ca10     1.050622335    5.624761272   13.940324699 XXXX 1      ca+t    Ca  1.500
O50      0.228293638    1.968778386   13.993500000 XXXX 1      o*      O  -0.820
H1       6.169308951    1.938259743   25.423346563 XXXX 1      hoy     H   0.410
H2       3.349567651    7.509707637   16.556567616 XXXX 1      hoy     H   0.410
H3       3.331162360    3.326299589   11.336226581 XXXX 1      hoy     H   0.410
H4       6.158543087    5.588902590    2.550392443 XXXX 1      hoy     H   0.410
H5       4.573547827    1.710600388    2.498299190 XXXX 1      h*      H   0.410
H6       3.743426762    2.667070694    1.712690205 XXXX 1      h*      H   0.410
H7       0.916872849    6.393231589    3.197921326 XXXX 1      h*      H   0.410
H8       1.282310188    4.950500267    3.386507348 XXXX 1      h*      H   0.410
H9       1.075428987    4.530331695    0.576324689 XXXX 1      h*      H   0.410
H10      1.403765989    3.384572219   -0.248548595 XXXX 1      h*      H   0.410
H11      3.612625865    3.131760414   -0.412339625 XXXX 1      h*      H   0.410
H12      3.656151694    4.430991258    0.507734712 XXXX 1      h*      H   0.410
H13      2.932396853    7.454692146   11.240697981 XXXX 1      h*      H   0.410
H14      4.289869549    7.182930692   10.628428401 XXXX 1      h*      H   0.410
H15      1.020318043    8.249469415   12.704850912 XXXX 1      h*      H   0.410
H16      1.068293224    7.347345940   11.510968959 XXXX 1      h*      H   0.410
H17      3.865062602    5.713603070   13.042448887 XXXX 1      h*      H   0.410
H18      4.235284732    5.642759124   14.441054179 XXXX 1      h*      H   0.410
H19      3.704222495    1.192805367   13.947312897 XXXX 1      h*      H   0.410
H20      3.699357709    2.648424903   14.334808815 XXXX 1      h*      H   0.410
H21      0.826150897    2.938884248   15.649539152 XXXX 1      h*      H   0.410
H22      1.720045715    3.769139513   16.507602957 XXXX 1      h*      H   0.410
H23      0.816959553    1.357194081   14.515919081 XXXX 1      h*      H   0.410
H24      0.827842309    2.661992304   13.603581679 XXXX 1      h*      H   0.410
H25      3.789624343    4.534065679   17.219969855 XXXX 1      h*      H   0.410
H26      4.058040234    3.068576163   17.360758008 XXXX 1      h*      H   0.410
H27      0.905817796    2.665259016   24.823259273 XXXX 1      h*      H   0.410
H28      1.239829011    1.216075447   24.654904704 XXXX 1      h*      H   0.410
H29     -0.039390835    6.814559718   27.728846518 XXXX 1      h*      H   0.410
H30      0.030946601    8.319963065   27.666951214 XXXX 1      h*      H   0.410
H31      3.628887509    4.807082073   26.448947827 XXXX 1      h*      H   0.410
H32      4.440281346    5.570545761   25.446882538 XXXX 1      h*      H   0.410
Ca1      8.699404123    0.097675147    7.981892395 XXXX 2      ca+t    Ca  1.500
Ca2      5.962063907    1.914628968    6.008808858 XXXX 2      ca+t    Ca  1.500
Si1      8.772625221    7.185094257    4.903322411 XXXX 2      sc2     Si  1.000
Si2      9.589321267    1.927344811    2.913446599 XXXX 2      sc3     Si  1.000
Si3      8.733198347    4.055318782    4.900523664 XXXX 2      sc2     Si  1.000
O1       8.783889851    0.688258968    3.492777505 XXXX 2      oc12    O  -0.500
O2       8.828949040    5.685441655    4.315595471 XXXX 2      oc12    O  -0.500
O3      10.023015210    7.612702752    5.793309063 XXXX 2      oc13    O  -1.000
O4       7.465911415    7.410688307    5.779315327 XXXX 2      oc13    O  -1.000
O5       9.544284037    5.669378142   26.638026598 XXXX 2      oc22    O  -1.000
O6      11.205829238    1.892179084    3.288472492 XXXX 2      oc14    O  -0.660
O7       6.192991832    1.889450909    3.627115294 XXXX 2      o*      O  -0.820
O8       8.823316726    3.246309502    3.503972495 XXXX 2      oc12    O  -0.500
O9       7.370160722    3.931740227    5.784912821 XXXX 2      oc13    O  -1.000
O11      9.899102669    1.865318178   26.419727952 XXXX 2      o*      O  -0.820
O12      6.221153742    0.140962186    0.083961001 XXXX 2      o*      O  -0.820
Ca3      9.499203224    3.798128920    0.053175301 XXXX 2      ca+t    Ca  1.500
O13      8.676874529    0.142146035    0.000000000 XXXX 2      o*      O  -0.820
Ca4      5.883210493    1.944052597   21.975392395 XXXX 2      ca+t    Ca  1.500
Ca5      8.778257537    0.068251517   20.002308858 XXXX 2      ca+t    Ca  1.500
Si4      5.956431592    1.606471708   18.896822411 XXXX 2      sc2     Si  1.000
Si5      6.773127637    3.773722262   16.906946599 XXXX 2      sc3     Si  1.000
Si6      5.917004718    5.901696232   18.894023664 XXXX 2      sc2     Si  1.000
O14      5.967696221    2.534636418   17.486277505 XXXX 2      oc12    O  -0.500
O15      6.012755410    7.531819106   18.309095471 XXXX 2      oc12    O  -0.500
O16      7.206821580    2.034080202   19.786809063 XXXX 2      oc13    O  -1.000
O17      4.649717785    1.832065758   19.772815327 XXXX 2      oc13    O  -1.000
O18      6.728090407    0.090755593   12.644526598 XXXX 2      oc22    O  -1.000
O19      8.389635608    3.738556534   17.281972492 XXXX 2      oc14    O  -0.660
O20      9.009185462    0.043073459   17.620615294 XXXX 2      o*      O  -0.820
O21      6.007123096    5.092686952   17.497472495 XXXX 2      oc12    O  -0.500
O22      4.553967092    5.778117677   19.778412821 XXXX 2      oc13    O  -1.000
O24      7.082909039    3.711695629   12.426227952 XXXX 2      o*      O  -0.820
Ca6      8.699404122    3.810175147   20.005107605 XXXX 2      ca+t    Ca  1.500
Ca7      5.962063906    5.627128968   21.978191142 XXXX 2      ca+t    Ca  1.500
Si7      8.772625222    3.472594256   23.083677589 XXXX 2      sc2     Si  1.000
Si8      9.589321267    5.639844812   25.073553401 XXXX 2      sc3     Si  1.000
Si9      8.733198347    0.342818781   23.086476336 XXXX 2      sc2     Si  1.000
O25      8.783889851    4.400758967   24.494222495 XXXX 2      oc12    O  -0.500
O26      8.828949041    1.972941655   23.671404529 XXXX 2      oc12    O  -0.500
O28      7.465911415    3.698188308   22.207684673 XXXX 2      oc13    O  -1.000
O29      9.544262413    1.956886690    1.348973402 XXXX 2      oc22    O  -1.000
O30     11.205829237    5.604679084   24.698527508 XXXX 2      oc14    O  -0.660
O31      6.192991833    5.601950909   24.359884706 XXXX 2      o*      O  -0.820
O32      8.823316726    6.958809501   24.483027505 XXXX 2      oc12    O  -0.500
O33      7.370160721    0.219240227   22.202087179 XXXX 2      oc13    O  -1.000
O34     10.079360652   -0.005158460   22.196489684 XXXX 2      oc13    O  -1.000
O35      9.899102670    5.577818179    1.567272048 XXXX 2      o*      O  -0.820
O36      6.221153742    3.853462187   27.903038999 XXXX 2      o*      O  -0.820
Ca8      5.883210493    5.656552597    6.011607605 XXXX 2      ca+t    Ca  1.500
Ca9      8.778257536    3.780751517    7.984691142 XXXX 2      ca+t    Ca  1.500
Si10     5.956431592    5.318971707    9.090177589 XXXX 2      sc2     Si  1.000
Si11     6.773127637    0.061222263   11.080053401 XXXX 2      sc3     Si  1.000
Si12     5.917004718    2.189196232    9.092976336 XXXX 2      sc2     Si  1.000
O37      5.967696221    6.247136418   10.500722495 XXXX 2      oc12    O  -0.500
O38      6.012755411    3.819319106    9.677904529 XXXX 2      oc12    O  -0.500
O40      4.649717785    5.544565758    8.214184673 XXXX 2      oc13    O  -1.000
O41      6.728068783    3.803264141   15.342473402 XXXX 2      oc22    O  -1.000
O42      8.389635607    0.026056534   10.705027508 XXXX 2      oc14    O  -0.660
O43      9.009185463    3.755573459   10.366384706 XXXX 2      o*      O  -0.820
O44      6.007123096    1.380186952   10.489527505 XXXX 2      oc12    O  -0.500
O45      4.553967092    2.065617677    8.208587179 XXXX 2      oc13    O  -1.000
O46      7.263167022    1.841218990    8.202989684 XXXX 2      oc13    O  -1.000
O47      7.082909040   -0.000804371   15.560772048 XXXX 2      o*      O  -0.820
O48      9.961037284    5.670856487   14.077461001 XXXX 2      o*      O  -0.820
O49      9.037347372    2.007084737   13.909538999 XXXX 2      o*      O  -0.820
Ca10     6.683009594    1.932006371   13.940324699 XXXX 2      ca+t    Ca  1.500
O50      5.860680898    5.701023485   13.993500000 XXXX 2      o*      O  -0.820
H1      11.801696210    5.670504842   25.423346563 XXXX 2      hoy     H   0.410
H2       8.981954910    3.816952736   16.556567616 XXXX 2      hoy     H   0.410
H3       8.963549620   -0.366455312   11.336226581 XXXX 2      hoy     H   0.410
H4      11.790930347    1.896147689    2.550392443 XXXX 2      hoy     H   0.410
H5      10.205935086    5.442845487    2.498299190 XXXX 2      h*      H   0.410
H6       9.375814022    6.399315793    1.712690205 XXXX 2      h*      H   0.410
H7       6.549260109    2.700476688    3.197921326 XXXX 2      h*      H   0.410
H8       6.914697447    1.257745366    3.386507348 XXXX 2      h*      H   0.410
H9       6.707816247    0.837576794    0.576324689 XXXX 2      h*      H   0.410
H10      7.036153249   -0.308182682   -0.248548595 XXXX 2      h*      H   0.410
H11      9.245013125   -0.560994486   -0.412339625 XXXX 2      h*      H   0.410
H12      9.288538954    0.738236357    0.507734712 XXXX 2      h*      H   0.410
H13      8.564784112    3.761937245   11.240697981 XXXX 2      h*      H   0.410
H14      9.922256809    3.490175791   10.628428401 XXXX 2      h*      H   0.410
H15      6.652705303    4.556714514   12.704850912 XXXX 2      h*      H   0.410
H16      6.700680483    3.654591039   11.510968959 XXXX 2      h*      H   0.410
H17      9.497449862    2.020848169   13.042448887 XXXX 2      h*      H   0.410
H18      9.867671991    1.950004223   14.441054179 XXXX 2      h*      H   0.410
H19      9.336609754    4.925050466   13.947312897 XXXX 2      h*      H   0.410
H20      9.331744969    6.380670002   14.334808815 XXXX 2      h*      H   0.410
H21      6.458538157   -0.753870653   15.649539152 XXXX 2      h*      H   0.410
H22      7.352432975    0.076384613   16.507602957 XXXX 2      h*      H   0.410
H23      6.449346812    5.089439180   14.515919081 XXXX 2      h*      H   0.410
H24      6.460229568    6.394237403   13.603581679 XXXX 2      h*      H   0.410
H25      9.422011603    0.841310778   17.219969855 XXXX 2      h*      H   0.410
H26      9.690427493   -0.624178738   17.360758008 XXXX 2      h*      H   0.410
H27      6.538205056    6.397504115   24.823259273 XXXX 2      h*      H   0.410
H28      6.872216270    4.948320547   24.654904704 XXXX 2      h*      H   0.410
H29      5.592996425    3.121804817   27.728846518 XXXX 2      h*      H   0.410
H30      5.663333860    4.627208164   27.666951214 XXXX 2      h*      H   0.410
H31      9.261274769    1.114327172   26.448947827 XXXX 2      h*      H   0.410
H32     10.072668606    1.877790860   25.446882538 XXXX 2      h*      H   0.410
O10      4.446951768   -0.024895011    5.790510316 XXXX 3      oc13    O  -1.000
O23      1.630758139    1.821482439   19.784010316 XXXX 3      oc13    O  -1.000
O27      4.390595360    7.592949476   22.193690937 XXXX 3      oc13    O  -1.000
O39      1.574401730    2.014326927    8.200190937 XXXX 3      oc13    O  -1.000
O10     10.079339028    3.707350088    5.790510316 XXXX 4      oc13    O  -1.000
O23      7.263145398    5.553727538   19.784010316 XXXX 4      oc13    O  -1.000
O27     10.022982620    3.900194576   22.193690937 XXXX 4      oc13    O  -1.000
O39      7.206788990    5.746572026    8.200190937 XXXX 4      oc13    O  -1.000
end
end
