!BIOSYM archive 3
PBC=ON
Materials Studio Generated CAR File
!DATE Thu Mar 05 21:15:22 2009
PBC    6.7350    7.3850   22.4870   90.0000   90.0000  123.2500 (P1)
Si1      3.542023420    2.385160923    3.539004087 XXX  1      sc2     Si  1.000
Si2      3.542023420    2.385160923   -3.539004087 XXX  1      sc2     Si  1.000
Si3      3.070683002    4.651125431    1.600174904 XXX  1      sc3     Si  1.000
Si4      3.070683002    4.651125431   -1.600174904 XXX  1      sc3     Si  1.000
Si5      1.186755657    5.988841057    3.546874523 XXX  1      sc2     Si  1.000
Si6      1.186755657    5.988841057   -3.546874523 XXX  1      sc2     Si  1.000
O1       3.144222260    3.124424934    2.118275404 XXX  1      oc12    O  -0.600
O2       3.144222260    3.124424934   -2.118275404 XXX  1      oc12    O  -0.600
O3       4.391117096    1.099323273    2.984025002 XXX  1      oc12    O  -0.600
O4       4.391117096    1.099323273   -2.984025002 XXX  1      oc12    O  -0.600
O5       4.459988594    3.315880060    4.456923485 XXX  1      oc13    O  -0.925
O6       4.459988594    3.315880060   -4.456923485 XXX  1      oc13    O  -0.925
O7       2.255211830    1.891700625    4.366975307 XXX  1      oc13    O  -0.925
O8       2.255211830    1.891700625   -4.366975307 XXX  1      oc13    O  -0.925
O9       3.000427485    4.607275963    0.000000000 XXX  1      oc12    O  -0.500
O10      0.061120853    2.680372477    2.111529350 XXX  1      o*      O  -0.820
O11      1.703684926    5.311336994    2.138513803 XXX  1      oc12    O  -0.600
O12      1.703684926    5.311336994   -2.138513803 XXX  1      oc12    O  -0.600
O13      0.238547996    5.008714199    4.387213707 XXX  1      oc13    O  -0.925
O14      0.238547996    5.008714199   -4.387213707 XXX  1      oc13    O  -0.925
O15      2.412449360    6.459450245    4.463669300 XXX  1      oc13    O  -0.925
O16      2.412449360    6.459450245   -4.463669300 XXX  1      oc13    O  -0.925
Ca1      0.032978326    2.672961235    4.622652531 XXX  1      ca+t    Ca  1.500
Ca2      1.314025044    5.699188232    6.599484921 XXX  1      ca+t    Ca  1.500
O17      1.989082098    1.352538109    0.000000000 XXX  1      o*      O  -0.820
O18      4.960417747    1.463705659    0.000000000 XXX  1      o*      O  -0.820
O19     -0.397146404    4.940778732    0.000000000 XXX  1      o*      O  -0.820
H1       1.368269810    1.199847858    0.744801153 XXX  1      h*      H   0.410
H2       2.498266706    2.100215540    0.385659309 XXX  1      h*      H   0.410
H3       4.258629316    1.416658415   -0.686388152 XXX  1      h*      H   0.410
H4       4.517919635    1.015714339    0.753295351 XXX  1      h*      H   0.410
H5      -0.609713782    4.412493928   -0.800892062 XXX  1      h*      H   0.410
H6       0.472627697    5.299041938   -0.286512403 XXX  1      h*      H   0.410
H7      -0.630454533    2.312291639    1.512613695 XXX  1      h*      H   0.410
H8       0.240148851    3.535318289    1.657337928 XXX  1      h*      H   0.410
Si1      0.174523413    2.385160923   14.782504082 XXX  2      sc2     Si  1.000
Si2      0.174523413    2.385160923    7.704495907 XXX  2      sc2     Si  1.000
Si3     -0.296817005    4.651125431   12.843674660 XXX  2      sc3     Si  1.000
Si4     -0.296817005    4.651125431    9.643324852 XXX  2      sc3     Si  1.000
Si5     -2.180744410    5.988841057   14.790374756 XXX  2      sc2     Si  1.000
Si6     -2.180744410    5.988841057    7.696625710 XXX  2      sc2     Si  1.000
O1      -0.223277733    3.124424934   13.361775398 XXX  2      oc12    O  -0.600
O2      -0.223277733    3.124424934    9.125225067 XXX  2      oc12    O  -0.600
O3       1.023617148    1.099323273   14.227524757 XXX  2      oc12    O  -0.600
O4       1.023617148    1.099323273    8.259474754 XXX  2      oc12    O  -0.600
O5       1.092488647    3.315880060   15.700423241 XXX  2      oc13    O  -0.925
O6       1.092488647    3.315880060    6.786576748 XXX  2      oc13    O  -0.925
O7      -1.112288117    1.891700625   15.610475540 XXX  2      oc13    O  -0.925
O8      -1.112288117    1.891700625    6.876524925 XXX  2      oc13    O  -0.925
O9      -0.367072523    4.607275963   11.243499756 XXX  2      oc12    O  -0.500
O10     -1.663815022    5.311336994   13.382014275 XXX  2      oc12    O  -0.600
O11     -1.663815022    5.311336994    9.104986191 XXX  2      oc12    O  -0.600
O12     -3.128952026    5.008714199   15.630713463 XXX  2      oc13    O  -0.925
O13     -3.128952026    5.008714199    6.856286526 XXX  2      oc13    O  -0.925
O14     -0.955050647    6.459450245   15.707169533 XXX  2      oc13    O  -0.925
O15     -0.955050647    6.459450245    6.779830933 XXX  2      oc13    O  -0.925
Ca1     -2.053474903    5.699188232   -4.644015312 XXX  2      ca+t    Ca  1.500
Ca2     -2.053474903    5.699188232    4.644015312 XXX  2      ca+t    Ca  1.500
O16      1.592917800    1.463705659   11.243499756 XXX  2      o*      O  -0.820
H1       1.150422284    1.015709886   11.996794996 XXX  2      h*      H   0.410
H2       0.891123907    1.416671285   10.557116527 XXX  2      h*      H   0.410
O1       4.385293007    5.515144348    2.113778114 XXX  3      oc14    O  -0.660
O2       4.385293007    5.515144348   -2.113778114 XXX  3      oc14    O  -0.660
O1       1.017793059    5.515144348   13.357277870 XXX  4      oc14    O  -0.660
O2       1.017793059    5.515144348    9.129721642 XXX  4      oc14    O  -0.660
O3       3.428620815    2.680372477   13.355029106 XXX  4      o*      O  -0.820
O4       3.428620815    2.680372477    9.131970406 XXX  4      o*      O  -0.820
Ca1      3.400478363    2.672961235   15.866152763 XXX  4      ca+t    Ca  1.500
Ca2      3.400478363    2.672961235    6.620847702 XXX  4      ca+t    Ca  1.500
O5       5.356582165    1.352538109   11.243499756 XXX  4      o*      O  -0.820
O6       2.970353603    4.940778732   11.243499756 XXX  4      o*      O  -0.820
H1       5.865760518    2.100209946   11.629180212 XXX  4      h*      H   0.410
H2       4.735759712    1.199834268   11.988289546 XXX  4      h*      H   0.410
H3       2.757783819    4.412492244   10.442609809 XXX  4      h*      H   0.410
H4       3.840123988    5.299044923   10.956980714 XXX  4      h*      H   0.410
H5       2.737044773    2.312292917   12.756113500 XXX  4      h*      H   0.410
H6       2.823973673    2.152509766    9.706188690 XXX  4      h*      H   0.410
H7       3.607651348    3.535317478   12.900837023 XXX  4      h*      H   0.410
H8       4.291139122    2.485935090    9.564956998 XXX  4      h*      H   0.410
O7       0.061120853    2.680372477   -2.111529350 XXX  5      o*      O  -0.820
CA1      0.032978326    2.672961235   -4.622652531 XXX  5      ca+t    Ca  1.500
CA2      1.314025044    5.699188232   15.887515068 XXX  5      ca+t    Ca  1.500
H7       0.923638996    2.485933679   -1.678543071 XXX  5      h*      H   0.410
H8      -0.543526684    2.152511540   -1.537309774 XXX  5      h*      H   0.410
H1       5.124993649    5.538105765    1.510513884 XXX  6      hoy     H   0.410
H1       1.757495097    5.538103289   12.754015240 XXX  7      hoy     H   0.410
H1       4.739242509    6.146774924   -1.492438584 XXX  8      hoy     H   0.410
H1       1.371743197    6.146775049    9.751060494 XXX  9      hoy     H   0.410
end
end
