!BIOSYM archive 3
PBC=ON
Materials Studio Generated CAR File
!DATE Tue Apr 15 10:18:14 2014
PBC   50.0000   50.0000   60.0000   90.0000   90.0000   90.0000 (P1)
O29     18.862339555   22.503538001   17.184652777 XXXX 1      oap1    O  -0.800
O30     18.862339555   22.503538001   24.059652777 XXXX 1      oap1    O  -0.800
O31     18.862339555   22.503538001   30.934652777 XXXX 1      oap1    O  -0.800
O32     18.862339555   22.503538001   37.809652777 XXXX 1      oap1    O  -0.800
O53     27.017700783   17.795038001   17.184652777 XXXX 1      oap1    O  -0.800
O54     27.017700783   17.795038001   24.059652777 XXXX 1      oap1    O  -0.800
O55     27.017700783   17.795038001   30.934652777 XXXX 1      oap1    O  -0.800
O56     27.017700783   17.795038001   37.809652777 XXXX 1      oap1    O  -0.800
O61     27.017700783   27.212038001   17.184652777 XXXX 1      oap1    O  -0.800
O62     27.017700783   27.212038001   24.059652777 XXXX 1      oap1    O  -0.800
O63     27.017700783   27.212038001   30.934652777 XXXX 1      oap1    O  -0.800
O64     27.017700783   27.212038001   37.809652777 XXXX 1      oap1    O  -0.800
O125    22.112251210   26.004307724   17.184652777 XXXX 1      oap1    O  -0.800
O126    22.112251210   26.004307724   24.059652777 XXXX 1      oap1    O  -0.800
O127    22.112251210   26.004307724   30.934652777 XXXX 1      oap1    O  -0.800
O128    22.112251210   26.004307724   37.809652777 XXXX 1      oap1    O  -0.800
O149    30.267612438   21.295807724   17.184652777 XXXX 1      oap1    O  -0.800
O150    30.267612438   21.295807724   24.059652777 XXXX 1      oap1    O  -0.800
O151    30.267612438   21.295807724   30.934652777 XXXX 1      oap1    O  -0.800
O152    30.267612438   21.295807724   37.809652777 XXXX 1      oap1    O  -0.800
O157    30.267612438   30.712807724   17.184652777 XXXX 1      oap1    O  -0.800
O158    30.267612438   30.712807724   24.059652777 XXXX 1      oap1    O  -0.800
O159    30.267612438   30.712807724   30.934652777 XXXX 1      oap1    O  -0.800
O160    30.267612438   30.712807724   37.809652777 XXXX 1      oap1    O  -0.800
O221    17.455539870   27.068428916   17.184652777 XXXX 1      oap1    O  -0.800
O222    17.455539870   27.068428916   24.059652777 XXXX 1      oap1    O  -0.800
O223    17.455539870   27.068428916   30.934652777 XXXX 1      oap1    O  -0.800
O224    17.455539870   27.068428916   37.809652777 XXXX 1      oap1    O  -0.800
O245    25.610901097   22.359928916   17.184652777 XXXX 1      oap1    O  -0.800
O246    25.610901097   22.359928916   24.059652777 XXXX 1      oap1    O  -0.800
O247    25.610901097   22.359928916   30.934652777 XXXX 1      oap1    O  -0.800
O248    25.610901097   22.359928916   37.809652777 XXXX 1      oap1    O  -0.800
O253    25.610901097   31.776928916   17.184652777 XXXX 1      oap1    O  -0.800
O254    25.610901097   31.776928916   24.059652777 XXXX 1      oap1    O  -0.800
O255    25.610901097   31.776928916   30.934652777 XXXX 1      oap1    O  -0.800
O256    25.610901097   31.776928916   37.809652777 XXXX 1      oap1    O  -0.800
O325    22.809534611   23.172145093   20.622152777 XXXX 1      oap1    O  -0.800
O326    22.809534611   23.172145093   27.497152777 XXXX 1      oap1    O  -0.800
O327    22.809534611   23.172145093   34.372152777 XXXX 1      oap1    O  -0.800
O328    22.809534611   23.172145093   41.247152777 XXXX 1      oap1    O  -0.800
O333    22.809534611   32.589145093   20.622152777 XXXX 1      oap1    O  -0.800
O334    22.809534611   32.589145093   27.497152777 XXXX 1      oap1    O  -0.800
O335    22.809534611   32.589145093   34.372152777 XXXX 1      oap1    O  -0.800
O336    22.809534611   32.589145093   41.247152777 XXXX 1      oap1    O  -0.800
O357    30.964895838   27.880645093   20.622152777 XXXX 1      oap1    O  -0.800
O358    30.964895838   27.880645093   27.497152777 XXXX 1      oap1    O  -0.800
O359    30.964895838   27.880645093   34.372152777 XXXX 1      oap1    O  -0.800
O360    30.964895838   27.880645093   41.247152777 XXXX 1      oap1    O  -0.800
O421    19.559622956   19.671375370   20.622152777 XXXX 1      oap1    O  -0.800
O422    19.559622956   19.671375370   27.497152777 XXXX 1      oap1    O  -0.800
O423    19.559622956   19.671375370   34.372152777 XXXX 1      oap1    O  -0.800
O424    19.559622956   19.671375370   41.247152777 XXXX 1      oap1    O  -0.800
O429    19.559622956   29.088375370   20.622152777 XXXX 1      oap1    O  -0.800
O430    19.559622956   29.088375370   27.497152777 XXXX 1      oap1    O  -0.800
O431    19.559622956   29.088375370   34.372152777 XXXX 1      oap1    O  -0.800
O432    19.559622956   29.088375370   41.247152777 XXXX 1      oap1    O  -0.800
O453    27.714984183   24.379875370   20.622152777 XXXX 1      oap1    O  -0.800
O454    27.714984183   24.379875370   27.497152777 XXXX 1      oap1    O  -0.800
O455    27.714984183   24.379875370   34.372152777 XXXX 1      oap1    O  -0.800
O456    27.714984183   24.379875370   41.247152777 XXXX 1      oap1    O  -0.800
O517    24.216334296   18.607254178   20.622152777 XXXX 1      oap1    O  -0.800
O518    24.216334296   18.607254178   27.497152777 XXXX 1      oap1    O  -0.800
O519    24.216334296   18.607254178   34.372152777 XXXX 1      oap1    O  -0.800
O520    24.216334296   18.607254178   41.247152777 XXXX 1      oap1    O  -0.800
O525    24.216334296   28.024254178   20.622152777 XXXX 1      oap1    O  -0.800
O526    24.216334296   28.024254178   27.497152777 XXXX 1      oap1    O  -0.800
O527    24.216334296   28.024254178   34.372152777 XXXX 1      oap1    O  -0.800
O528    24.216334296   28.024254178   41.247152777 XXXX 1      oap1    O  -0.800
O549    32.371695524   23.315754178   20.622152777 XXXX 1      oap1    O  -0.800
O550    32.371695524   23.315754178   27.497152777 XXXX 1      oap1    O  -0.800
O551    32.371695524   23.315754178   34.372152777 XXXX 1      oap1    O  -0.800
O552    32.371695524   23.315754178   41.247152777 XXXX 1      oap1    O  -0.800
O613    22.809534611   23.172145093   23.093027806 XXXX 1      oap1    O  -0.800
O614    22.809534611   23.172145093   29.968027806 XXXX 1      oap1    O  -0.800
O615    22.809534611   23.172145093   36.843027806 XXXX 1      oap1    O  -0.800
O616    22.809534611   23.172145093   43.718027806 XXXX 1      oap1    O  -0.800
O621    22.809534611   32.589145093   23.093027806 XXXX 1      oap1    O  -0.800
O622    22.809534611   32.589145093   29.968027806 XXXX 1      oap1    O  -0.800
O623    22.809534611   32.589145093   36.843027806 XXXX 1      oap1    O  -0.800
O624    22.809534611   32.589145093   43.718027806 XXXX 1      oap1    O  -0.800
O645    30.964895838   27.880645093   23.093027806 XXXX 1      oap1    O  -0.800
O646    30.964895838   27.880645093   29.968027806 XXXX 1      oap1    O  -0.800
O647    30.964895838   27.880645093   36.843027806 XXXX 1      oap1    O  -0.800
O648    30.964895838   27.880645093   43.718027806 XXXX 1      oap1    O  -0.800
O709    19.559622956   19.671375370   23.093027806 XXXX 1      oap1    O  -0.800
O710    19.559622956   19.671375370   29.968027806 XXXX 1      oap1    O  -0.800
O711    19.559622956   19.671375370   36.843027806 XXXX 1      oap1    O  -0.800
O712    19.559622956   19.671375370   43.718027806 XXXX 1      oap1    O  -0.800
O717    19.559622956   29.088375370   23.093027806 XXXX 1      oap1    O  -0.800
O718    19.559622956   29.088375370   29.968027806 XXXX 1      oap1    O  -0.800
O719    19.559622956   29.088375370   36.843027806 XXXX 1      oap1    O  -0.800
O720    19.559622956   29.088375370   43.718027806 XXXX 1      oap1    O  -0.800
O741    27.714984183   24.379875370   23.093027806 XXXX 1      oap1    O  -0.800
O742    27.714984183   24.379875370   29.968027806 XXXX 1      oap1    O  -0.800
O743    27.714984183   24.379875370   36.843027806 XXXX 1      oap1    O  -0.800
O744    27.714984183   24.379875370   43.718027806 XXXX 1      oap1    O  -0.800
O805    24.216334296   18.607254178   23.093027806 XXXX 1      oap1    O  -0.800
O806    24.216334296   18.607254178   29.968027806 XXXX 1      oap1    O  -0.800
O807    24.216334296   18.607254178   36.843027806 XXXX 1      oap1    O  -0.800
O808    24.216334296   18.607254178   43.718027806 XXXX 1      oap1    O  -0.800
O813    24.216334296   28.024254178   23.093027806 XXXX 1      oap1    O  -0.800
O814    24.216334296   28.024254178   29.968027806 XXXX 1      oap1    O  -0.800
O815    24.216334296   28.024254178   36.843027806 XXXX 1      oap1    O  -0.800
O816    24.216334296   28.024254178   43.718027806 XXXX 1      oap1    O  -0.800
O837    32.371695524   23.315754178   23.093027806 XXXX 1      oap1    O  -0.800
O838    32.371695524   23.315754178   29.968027806 XXXX 1      oap1    O  -0.800
O839    32.371695524   23.315754178   36.843027806 XXXX 1      oap1    O  -0.800
O840    32.371695524   23.315754178   43.718027806 XXXX 1      oap1    O  -0.800
O893    18.862339555   22.503538001   19.655527806 XXXX 1      oap1    O  -0.800
O894    18.862339555   22.503538001   26.530527806 XXXX 1      oap1    O  -0.800
O895    18.862339555   22.503538001   33.405527806 XXXX 1      oap1    O  -0.800
O896    18.862339555   22.503538001   40.280527806 XXXX 1      oap1    O  -0.800
O917    27.017700783   17.795038001   19.655527806 XXXX 1      oap1    O  -0.800
O918    27.017700783   17.795038001   26.530527806 XXXX 1      oap1    O  -0.800
O919    27.017700783   17.795038001   33.405527806 XXXX 1      oap1    O  -0.800
O920    27.017700783   17.795038001   40.280527806 XXXX 1      oap1    O  -0.800
O925    27.017700783   27.212038001   19.655527806 XXXX 1      oap1    O  -0.800
O926    27.017700783   27.212038001   26.530527806 XXXX 1      oap1    O  -0.800
O927    27.017700783   27.212038001   33.405527806 XXXX 1      oap1    O  -0.800
O928    27.017700783   27.212038001   40.280527806 XXXX 1      oap1    O  -0.800
O989    22.112251210   26.004307724   19.655527806 XXXX 1      oap1    O  -0.800
O990    22.112251210   26.004307724   26.530527806 XXXX 1      oap1    O  -0.800
O991    22.112251210   26.004307724   33.405527806 XXXX 1      oap1    O  -0.800
O992    22.112251210   26.004307724   40.280527806 XXXX 1      oap1    O  -0.800
O1013   30.267612438   21.295807724   19.655527806 XXXX 1      oap1    O  -0.800
O1014   30.267612438   21.295807724   26.530527806 XXXX 1      oap1    O  -0.800
O1015   30.267612438   21.295807724   33.405527806 XXXX 1      oap1    O  -0.800
O1016   30.267612438   21.295807724   40.280527806 XXXX 1      oap1    O  -0.800
O1021   30.267612438   30.712807724   19.655527806 XXXX 1      oap1    O  -0.800
O1022   30.267612438   30.712807724   26.530527806 XXXX 1      oap1    O  -0.800
O1023   30.267612438   30.712807724   33.405527806 XXXX 1      oap1    O  -0.800
O1024   30.267612438   30.712807724   40.280527806 XXXX 1      oap1    O  -0.800
O1085   17.455539870   27.068428916   19.655527806 XXXX 1      oap1    O  -0.800
O1086   17.455539870   27.068428916   26.530527806 XXXX 1      oap1    O  -0.800
O1087   17.455539870   27.068428916   33.405527806 XXXX 1      oap1    O  -0.800
O1088   17.455539870   27.068428916   40.280527806 XXXX 1      oap1    O  -0.800
O1109   25.610901097   22.359928916   19.655527806 XXXX 1      oap1    O  -0.800
O1110   25.610901097   22.359928916   26.530527806 XXXX 1      oap1    O  -0.800
O1111   25.610901097   22.359928916   33.405527806 XXXX 1      oap1    O  -0.800
O1112   25.610901097   22.359928916   40.280527806 XXXX 1      oap1    O  -0.800
O1117   25.610901097   31.776928916   19.655527806 XXXX 1      oap1    O  -0.800
O1118   25.610901097   31.776928916   26.530527806 XXXX 1      oap1    O  -0.800
O1119   25.610901097   31.776928916   33.405527806 XXXX 1      oap1    O  -0.800
O1120   25.610901097   31.776928916   40.280527806 XXXX 1      oap1    O  -0.800
Ca37    22.195163954   20.483591547   16.711240291 XXXX 1      ca+h    Ca  1.500
Ca38    22.195163954   20.483591547   23.586240291 XXXX 1      ca+h    Ca  1.500
Ca39    22.195163954   20.483591547   30.461240291 XXXX 1      ca+h    Ca  1.500
Ca40    22.195163954   20.483591547   37.336240291 XXXX 1      ca+h    Ca  1.500
Ca45    22.195163954   29.900591547   16.711240291 XXXX 1      ca+h    Ca  1.500
Ca46    22.195163954   29.900591547   23.586240291 XXXX 1      ca+h    Ca  1.500
Ca47    22.195163954   29.900591547   30.461240291 XXXX 1      ca+h    Ca  1.500
Ca48    22.195163954   29.900591547   37.336240291 XXXX 1      ca+h    Ca  1.500
Ca69    30.350525182   25.192091547   16.711240291 XXXX 1      ca+h    Ca  1.500
Ca70    30.350525182   25.192091547   23.586240291 XXXX 1      ca+h    Ca  1.500
Ca71    30.350525182   25.192091547   30.461240291 XXXX 1      ca+h    Ca  1.500
Ca72    30.350525182   25.192091547   37.336240291 XXXX 1      ca+h    Ca  1.500
Ca125   19.476710212   25.192091547   20.148740291 XXXX 1      ca+h    Ca  1.500
Ca126   19.476710212   25.192091547   27.023740291 XXXX 1      ca+h    Ca  1.500
Ca127   19.476710212   25.192091547   33.898740291 XXXX 1      ca+h    Ca  1.500
Ca128   19.476710212   25.192091547   40.773740291 XXXX 1      ca+h    Ca  1.500
Ca149   27.632071439   20.483591547   20.148740291 XXXX 1      ca+h    Ca  1.500
Ca150   27.632071439   20.483591547   27.023740291 XXXX 1      ca+h    Ca  1.500
Ca151   27.632071439   20.483591547   33.898740291 XXXX 1      ca+h    Ca  1.500
Ca152   27.632071439   20.483591547   40.773740291 XXXX 1      ca+h    Ca  1.500
Ca157   27.632071439   29.900591547   20.148740291 XXXX 1      ca+h    Ca  1.500
Ca158   27.632071439   29.900591547   27.023740291 XXXX 1      ca+h    Ca  1.500
Ca159   27.632071439   29.900591547   33.898740291 XXXX 1      ca+h    Ca  1.500
Ca160   27.632071439   29.900591547   40.773740291 XXXX 1      ca+h    Ca  1.500
Ca221   19.476710212   25.192091547   23.566440291 XXXX 1      ca+h    Ca  1.500
Ca222   19.476710212   25.192091547   30.441440291 XXXX 1      ca+h    Ca  1.500
Ca223   19.476710212   25.192091547   37.316440291 XXXX 1      ca+h    Ca  1.500
Ca224   19.476710212   25.192091547   44.191440291 XXXX 1      ca+h    Ca  1.500
Ca245   27.632071439   20.483591547   23.566440291 XXXX 1      ca+h    Ca  1.500
Ca246   27.632071439   20.483591547   30.441440291 XXXX 1      ca+h    Ca  1.500
Ca247   27.632071439   20.483591547   37.316440291 XXXX 1      ca+h    Ca  1.500
Ca248   27.632071439   20.483591547   44.191440291 XXXX 1      ca+h    Ca  1.500
Ca253   27.632071439   29.900591547   23.566440291 XXXX 1      ca+h    Ca  1.500
Ca254   27.632071439   29.900591547   30.441440291 XXXX 1      ca+h    Ca  1.500
Ca255   27.632071439   29.900591547   37.316440291 XXXX 1      ca+h    Ca  1.500
Ca256   27.632071439   29.900591547   44.191440291 XXXX 1      ca+h    Ca  1.500
Ca325   22.195163954   20.483591547   20.128940291 XXXX 1      ca+h    Ca  1.500
Ca326   22.195163954   20.483591547   27.003940291 XXXX 1      ca+h    Ca  1.500
Ca327   22.195163954   20.483591547   33.878940291 XXXX 1      ca+h    Ca  1.500
Ca328   22.195163954   20.483591547   40.753940291 XXXX 1      ca+h    Ca  1.500
Ca333   22.195163954   29.900591547   20.128940291 XXXX 1      ca+h    Ca  1.500
Ca334   22.195163954   29.900591547   27.003940291 XXXX 1      ca+h    Ca  1.500
Ca335   22.195163954   29.900591547   33.878940291 XXXX 1      ca+h    Ca  1.500
Ca336   22.195163954   29.900591547   40.753940291 XXXX 1      ca+h    Ca  1.500
Ca357   30.350525182   25.192091547   20.128940291 XXXX 1      ca+h    Ca  1.500
Ca358   30.350525182   25.192091547   27.003940291 XXXX 1      ca+h    Ca  1.500
Ca359   30.350525182   25.192091547   33.878940291 XXXX 1      ca+h    Ca  1.500
Ca360   30.350525182   25.192091547   40.753940291 XXXX 1      ca+h    Ca  1.500
Ca413   16.811837193   22.779220722   18.420090291 XXXX 1      ca+h    Ca  1.500
Ca414   16.811837193   22.779220722   25.295090291 XXXX 1      ca+h    Ca  1.500
Ca415   16.811837193   22.779220722   32.170090291 XXXX 1      ca+h    Ca  1.500
Ca416   16.811837193   22.779220722   39.045090291 XXXX 1      ca+h    Ca  1.500
Ca437   24.967198420   18.070720722   18.420090291 XXXX 1      ca+h    Ca  1.500
Ca438   24.967198420   18.070720722   25.295090291 XXXX 1      ca+h    Ca  1.500
Ca439   24.967198420   18.070720722   32.170090291 XXXX 1      ca+h    Ca  1.500
Ca440   24.967198420   18.070720722   39.045090291 XXXX 1      ca+h    Ca  1.500
Ca445   24.967198420   27.487720722   18.420090291 XXXX 1      ca+h    Ca  1.500
Ca446   24.967198420   27.487720722   25.295090291 XXXX 1      ca+h    Ca  1.500
Ca447   24.967198420   27.487720722   32.170090291 XXXX 1      ca+h    Ca  1.500
Ca448   24.967198420   27.487720722   39.045090291 XXXX 1      ca+h    Ca  1.500
P29     19.764322706   22.502219655   18.420090291 XXXX 1      pap     P   1.000
P30     19.764322706   22.502219655   25.295090291 XXXX 1      pap     P   1.000
P31     19.764322706   22.502219655   32.170090291 XXXX 1      pap     P   1.000
P32     19.764322706   22.502219655   39.045090291 XXXX 1      pap     P   1.000
P53     27.919683934   17.793719655   18.420090291 XXXX 1      pap     P   1.000
P54     27.919683934   17.793719655   25.295090291 XXXX 1      pap     P   1.000
P55     27.919683934   17.793719655   32.170090291 XXXX 1      pap     P   1.000
P56     27.919683934   17.793719655   39.045090291 XXXX 1      pap     P   1.000
P61     27.919683934   27.210719655   18.420090291 XXXX 1      pap     P   1.000
P62     27.919683934   27.210719655   25.295090291 XXXX 1      pap     P   1.000
P63     27.919683934   27.210719655   32.170090291 XXXX 1      pap     P   1.000
P64     27.919683934   27.210719655   39.045090291 XXXX 1      pap     P   1.000
O1181   20.549683798   23.823330931   18.420090291 XXXX 1      oap1    O  -0.800
O1182   20.549683798   23.823330931   25.295090291 XXXX 1      oap1    O  -0.800
O1183   20.549683798   23.823330931   32.170090291 XXXX 1      oap1    O  -0.800
O1184   20.549683798   23.823330931   39.045090291 XXXX 1      oap1    O  -0.800
O1205   28.705045025   19.114830931   18.420090291 XXXX 1      oap1    O  -0.800
O1206   28.705045025   19.114830931   25.295090291 XXXX 1      oap1    O  -0.800
O1207   28.705045025   19.114830931   32.170090291 XXXX 1      oap1    O  -0.800
O1208   28.705045025   19.114830931   39.045090291 XXXX 1      oap1    O  -0.800
O1213   28.705045025   28.531830931   18.420090291 XXXX 1      oap1    O  -0.800
O1214   28.705045025   28.531830931   25.295090291 XXXX 1      oap1    O  -0.800
O1215   28.705045025   28.531830931   32.170090291 XXXX 1      oap1    O  -0.800
O1216   28.705045025   28.531830931   39.045090291 XXXX 1      oap1    O  -0.800
O1277   20.713606781   21.297220368   18.420090291 XXXX 1      oap1    O  -0.800
O1278   20.713606781   21.297220368   25.295090291 XXXX 1      oap1    O  -0.800
O1279   20.713606781   21.297220368   32.170090291 XXXX 1      oap1    O  -0.800
O1280   20.713606781   21.297220368   39.045090291 XXXX 1      oap1    O  -0.800
O1301   28.868968009   16.588720368   18.420090291 XXXX 1      oap1    O  -0.800
O1302   28.868968009   16.588720368   25.295090291 XXXX 1      oap1    O  -0.800
O1303   28.868968009   16.588720368   32.170090291 XXXX 1      oap1    O  -0.800
O1304   28.868968009   16.588720368   39.045090291 XXXX 1      oap1    O  -0.800
O1309   28.868968009   26.005720368   18.420090291 XXXX 1      oap1    O  -0.800
O1310   28.868968009   26.005720368   25.295090291 XXXX 1      oap1    O  -0.800
O1311   28.868968009   26.005720368   32.170090291 XXXX 1      oap1    O  -0.800
O1312   28.868968009   26.005720368   39.045090291 XXXX 1      oap1    O  -0.800
Ca509   22.898754152   24.090679227   18.420090291 XXXX 1      ca+h    Ca  1.500
Ca510   22.898754152   24.090679227   25.295090291 XXXX 1      ca+h    Ca  1.500
Ca511   22.898754152   24.090679227   32.170090291 XXXX 1      ca+h    Ca  1.500
Ca512   22.898754152   24.090679227   39.045090291 XXXX 1      ca+h    Ca  1.500
Ca533   31.054115379   19.382179227   18.420090291 XXXX 1      ca+h    Ca  1.500
Ca534   31.054115379   19.382179227   25.295090291 XXXX 1      ca+h    Ca  1.500
Ca535   31.054115379   19.382179227   32.170090291 XXXX 1      ca+h    Ca  1.500
Ca536   31.054115379   19.382179227   39.045090291 XXXX 1      ca+h    Ca  1.500
Ca541   31.054115379   28.799179227   18.420090291 XXXX 1      ca+h    Ca  1.500
Ca542   31.054115379   28.799179227   25.295090291 XXXX 1      ca+h    Ca  1.500
Ca543   31.054115379   28.799179227   32.170090291 XXXX 1      ca+h    Ca  1.500
Ca544   31.054115379   28.799179227   39.045090291 XXXX 1      ca+h    Ca  1.500
P125    21.662401356   26.786107220   18.420090291 XXXX 1      pap     P   1.000
P126    21.662401356   26.786107220   25.295090291 XXXX 1      pap     P   1.000
P127    21.662401356   26.786107220   32.170090291 XXXX 1      pap     P   1.000
P128    21.662401356   26.786107220   39.045090291 XXXX 1      pap     P   1.000
P149    29.817762583   22.077607220   18.420090291 XXXX 1      pap     P   1.000
P150    29.817762583   22.077607220   25.295090291 XXXX 1      pap     P   1.000
P151    29.817762583   22.077607220   32.170090291 XXXX 1      pap     P   1.000
P152    29.817762583   22.077607220   39.045090291 XXXX 1      pap     P   1.000
P157    29.817762583   31.494607220   18.420090291 XXXX 1      pap     P   1.000
P158    29.817762583   31.494607220   25.295090291 XXXX 1      pap     P   1.000
P159    29.817762583   31.494607220   32.170090291 XXXX 1      pap     P   1.000
P160    29.817762583   31.494607220   39.045090291 XXXX 1      pap     P   1.000
O1373   20.125604884   26.805694238   18.420090291 XXXX 1      oap1    O  -0.800
O1374   20.125604884   26.805694238   25.295090291 XXXX 1      oap1    O  -0.800
O1375   20.125604884   26.805694238   32.170090291 XXXX 1      oap1    O  -0.800
O1376   20.125604884   26.805694238   39.045090291 XXXX 1      oap1    O  -0.800
O1397   28.280966111   22.097194238   18.420090291 XXXX 1      oap1    O  -0.800
O1398   28.280966111   22.097194238   25.295090291 XXXX 1      oap1    O  -0.800
O1399   28.280966111   22.097194238   32.170090291 XXXX 1      oap1    O  -0.800
O1400   28.280966111   22.097194238   39.045090291 XXXX 1      oap1    O  -0.800
O1405   28.280966111   31.514194238   18.420090291 XXXX 1      oap1    O  -0.800
O1406   28.280966111   31.514194238   25.295090291 XXXX 1      oap1    O  -0.800
O1407   28.280966111   31.514194238   32.170090291 XXXX 1      oap1    O  -0.800
O1408   28.280966111   31.514194238   39.045090291 XXXX 1      oap1    O  -0.800
O1469   22.231319312   28.210710987   18.420090291 XXXX 1      oap1    O  -0.800
O1470   22.231319312   28.210710987   25.295090291 XXXX 1      oap1    O  -0.800
O1471   22.231319312   28.210710987   32.170090291 XXXX 1      oap1    O  -0.800
O1472   22.231319312   28.210710987   39.045090291 XXXX 1      oap1    O  -0.800
O1493   30.386680540   23.502210987   18.420090291 XXXX 1      oap1    O  -0.800
O1494   30.386680540   23.502210987   25.295090291 XXXX 1      oap1    O  -0.800
O1495   30.386680540   23.502210987   32.170090291 XXXX 1      oap1    O  -0.800
O1496   30.386680540   23.502210987   39.045090291 XXXX 1      oap1    O  -0.800
O1501   30.386680540   32.919210987   18.420090291 XXXX 1      oap1    O  -0.800
O1502   30.386680540   32.919210987   25.295090291 XXXX 1      oap1    O  -0.800
O1503   30.386680540   32.919210987   32.170090291 XXXX 1      oap1    O  -0.800
O1504   30.386680540   32.919210987   39.045090291 XXXX 1      oap1    O  -0.800
Ca605   18.719539291   28.706374692   18.420090291 XXXX 1      ca+h    Ca  1.500
Ca606   18.719539291   28.706374692   25.295090291 XXXX 1      ca+h    Ca  1.500
Ca607   18.719539291   28.706374692   32.170090291 XXXX 1      ca+h    Ca  1.500
Ca608   18.719539291   28.706374692   39.045090291 XXXX 1      ca+h    Ca  1.500
Ca629   26.874900518   23.997874692   18.420090291 XXXX 1      ca+h    Ca  1.500
Ca630   26.874900518   23.997874692   25.295090291 XXXX 1      ca+h    Ca  1.500
Ca631   26.874900518   23.997874692   32.170090291 XXXX 1      ca+h    Ca  1.500
Ca632   26.874900518   23.997874692   39.045090291 XXXX 1      ca+h    Ca  1.500
Ca637   26.874900518   33.414874692   18.420090291 XXXX 1      ca+h    Ca  1.500
Ca638   26.874900518   33.414874692   25.295090291 XXXX 1      ca+h    Ca  1.500
Ca639   26.874900518   33.414874692   32.170090291 XXXX 1      ca+h    Ca  1.500
Ca640   26.874900518   33.414874692   39.045090291 XXXX 1      ca+h    Ca  1.500
P221    17.003406573   26.287947766   18.420090291 XXXX 1      pap     P   1.000
P222    17.003406573   26.287947766   25.295090291 XXXX 1      pap     P   1.000
P223    17.003406573   26.287947766   32.170090291 XXXX 1      pap     P   1.000
P224    17.003406573   26.287947766   39.045090291 XXXX 1      pap     P   1.000
P245    25.158767800   21.579447766   18.420090291 XXXX 1      pap     P   1.000
P246    25.158767800   21.579447766   25.295090291 XXXX 1      pap     P   1.000
P247    25.158767800   21.579447766   32.170090291 XXXX 1      pap     P   1.000
P248    25.158767800   21.579447766   39.045090291 XXXX 1      pap     P   1.000
P253    25.158767800   30.996447766   18.420090291 XXXX 1      pap     P   1.000
P254    25.158767800   30.996447766   25.295090291 XXXX 1      pap     P   1.000
P255    25.158767800   30.996447766   32.170090291 XXXX 1      pap     P   1.000
P256    25.158767800   30.996447766   39.045090291 XXXX 1      pap     P   1.000
O1565   17.754841954   24.947249472   18.420090291 XXXX 1      oap1    O  -0.800
O1566   17.754841954   24.947249472   25.295090291 XXXX 1      oap1    O  -0.800
O1567   17.754841954   24.947249472   32.170090291 XXXX 1      oap1    O  -0.800
O1568   17.754841954   24.947249472   39.045090291 XXXX 1      oap1    O  -0.800
O1589   25.910203181   20.238749472   18.420090291 XXXX 1      oap1    O  -0.800
O1590   25.910203181   20.238749472   25.295090291 XXXX 1      oap1    O  -0.800
O1591   25.910203181   20.238749472   32.170090291 XXXX 1      oap1    O  -0.800
O1592   25.910203181   20.238749472   39.045090291 XXXX 1      oap1    O  -0.800
O1597   25.910203181   29.655749472   18.420090291 XXXX 1      oap1    O  -0.800
O1598   25.910203181   29.655749472   25.295090291 XXXX 1      oap1    O  -0.800
O1599   25.910203181   29.655749472   32.170090291 XXXX 1      oap1    O  -0.800
O1600   25.910203181   29.655749472   39.045090291 XXXX 1      oap1    O  -0.800
O1661   15.485204542   26.068343285   18.420090291 XXXX 1      oap1    O  -0.800
O1662   15.485204542   26.068343285   25.295090291 XXXX 1      oap1    O  -0.800
O1663   15.485204542   26.068343285   32.170090291 XXXX 1      oap1    O  -0.800
O1664   15.485204542   26.068343285   39.045090291 XXXX 1      oap1    O  -0.800
O1685   23.640565769   21.359843285   18.420090291 XXXX 1      oap1    O  -0.800
O1686   23.640565769   21.359843285   25.295090291 XXXX 1      oap1    O  -0.800
O1687   23.640565769   21.359843285   32.170090291 XXXX 1      oap1    O  -0.800
O1688   23.640565769   21.359843285   39.045090291 XXXX 1      oap1    O  -0.800
O1693   23.640565769   30.776843285   18.420090291 XXXX 1      oap1    O  -0.800
O1694   23.640565769   30.776843285   25.295090291 XXXX 1      oap1    O  -0.800
O1695   23.640565769   30.776843285   32.170090291 XXXX 1      oap1    O  -0.800
O1696   23.640565769   30.776843285   39.045090291 XXXX 1      oap1    O  -0.800
Ca709   24.860036973   22.896462372   21.857590291 XXXX 1      ca+h    Ca  1.500
Ca710   24.860036973   22.896462372   28.732590291 XXXX 1      ca+h    Ca  1.500
Ca711   24.860036973   22.896462372   35.607590291 XXXX 1      ca+h    Ca  1.500
Ca712   24.860036973   22.896462372   42.482590291 XXXX 1      ca+h    Ca  1.500
Ca717   24.860036973   32.313462372   21.857590291 XXXX 1      ca+h    Ca  1.500
Ca718   24.860036973   32.313462372   28.732590291 XXXX 1      ca+h    Ca  1.500
Ca719   24.860036973   32.313462372   35.607590291 XXXX 1      ca+h    Ca  1.500
Ca720   24.860036973   32.313462372   42.482590291 XXXX 1      ca+h    Ca  1.500
Ca741   33.015398201   27.604962372   21.857590291 XXXX 1      ca+h    Ca  1.500
Ca742   33.015398201   27.604962372   28.732590291 XXXX 1      ca+h    Ca  1.500
Ca743   33.015398201   27.604962372   35.607590291 XXXX 1      ca+h    Ca  1.500
Ca744   33.015398201   27.604962372   42.482590291 XXXX 1      ca+h    Ca  1.500
P325    21.907551460   23.173463439   21.857590291 XXXX 1      pap     P   1.000
P326    21.907551460   23.173463439   28.732590291 XXXX 1      pap     P   1.000
P327    21.907551460   23.173463439   35.607590291 XXXX 1      pap     P   1.000
P328    21.907551460   23.173463439   42.482590291 XXXX 1      pap     P   1.000
P333    21.907551460   32.590463439   21.857590291 XXXX 1      pap     P   1.000
P334    21.907551460   32.590463439   28.732590291 XXXX 1      pap     P   1.000
P335    21.907551460   32.590463439   35.607590291 XXXX 1      pap     P   1.000
P336    21.907551460   32.590463439   42.482590291 XXXX 1      pap     P   1.000
P357    30.062912687   27.881963439   21.857590291 XXXX 1      pap     P   1.000
P358    30.062912687   27.881963439   28.732590291 XXXX 1      pap     P   1.000
P359    30.062912687   27.881963439   35.607590291 XXXX 1      pap     P   1.000
P360    30.062912687   27.881963439   42.482590291 XXXX 1      pap     P   1.000
O1765   21.122190368   21.852352162   21.857590291 XXXX 1      oap1    O  -0.800
O1766   21.122190368   21.852352162   28.732590291 XXXX 1      oap1    O  -0.800
O1767   21.122190368   21.852352162   35.607590291 XXXX 1      oap1    O  -0.800
O1768   21.122190368   21.852352162   42.482590291 XXXX 1      oap1    O  -0.800
O1773   21.122190368   31.269352162   21.857590291 XXXX 1      oap1    O  -0.800
O1774   21.122190368   31.269352162   28.732590291 XXXX 1      oap1    O  -0.800
O1775   21.122190368   31.269352162   35.607590291 XXXX 1      oap1    O  -0.800
O1776   21.122190368   31.269352162   42.482590291 XXXX 1      oap1    O  -0.800
O1797   29.277551596   26.560852162   21.857590291 XXXX 1      oap1    O  -0.800
O1798   29.277551596   26.560852162   28.732590291 XXXX 1      oap1    O  -0.800
O1799   29.277551596   26.560852162   35.607590291 XXXX 1      oap1    O  -0.800
O1800   29.277551596   26.560852162   42.482590291 XXXX 1      oap1    O  -0.800
O1861   20.958267385   24.378462726   21.857590291 XXXX 1      oap1    O  -0.800
O1862   20.958267385   24.378462726   28.732590291 XXXX 1      oap1    O  -0.800
O1863   20.958267385   24.378462726   35.607590291 XXXX 1      oap1    O  -0.800
O1864   20.958267385   24.378462726   42.482590291 XXXX 1      oap1    O  -0.800
O1869   20.958267385   33.795462726   21.857590291 XXXX 1      oap1    O  -0.800
O1870   20.958267385   33.795462726   28.732590291 XXXX 1      oap1    O  -0.800
O1871   20.958267385   33.795462726   35.607590291 XXXX 1      oap1    O  -0.800
O1872   20.958267385   33.795462726   42.482590291 XXXX 1      oap1    O  -0.800
O1893   29.113628612   29.086962726   21.857590291 XXXX 1      oap1    O  -0.800
O1894   29.113628612   29.086962726   28.732590291 XXXX 1      oap1    O  -0.800
O1895   29.113628612   29.086962726   35.607590291 XXXX 1      oap1    O  -0.800
O1896   29.113628612   29.086962726   42.482590291 XXXX 1      oap1    O  -0.800
Ca805   18.773120014   21.585003867   21.857590291 XXXX 1      ca+h    Ca  1.500
Ca806   18.773120014   21.585003867   28.732590291 XXXX 1      ca+h    Ca  1.500
Ca807   18.773120014   21.585003867   35.607590291 XXXX 1      ca+h    Ca  1.500
Ca808   18.773120014   21.585003867   42.482590291 XXXX 1      ca+h    Ca  1.500
Ca813   18.773120014   31.002003867   21.857590291 XXXX 1      ca+h    Ca  1.500
Ca814   18.773120014   31.002003867   28.732590291 XXXX 1      ca+h    Ca  1.500
Ca815   18.773120014   31.002003867   35.607590291 XXXX 1      ca+h    Ca  1.500
Ca816   18.773120014   31.002003867   42.482590291 XXXX 1      ca+h    Ca  1.500
Ca837   26.928481242   26.293503867   21.857590291 XXXX 1      ca+h    Ca  1.500
Ca838   26.928481242   26.293503867   28.732590291 XXXX 1      ca+h    Ca  1.500
Ca839   26.928481242   26.293503867   35.607590291 XXXX 1      ca+h    Ca  1.500
Ca840   26.928481242   26.293503867   42.482590291 XXXX 1      ca+h    Ca  1.500
P421    20.009472810   18.889575874   21.857590291 XXXX 1      pap     P   1.000
P422    20.009472810   18.889575874   28.732590291 XXXX 1      pap     P   1.000
P423    20.009472810   18.889575874   35.607590291 XXXX 1      pap     P   1.000
P424    20.009472810   18.889575874   42.482590291 XXXX 1      pap     P   1.000
P429    20.009472810   28.306575874   21.857590291 XXXX 1      pap     P   1.000
P430    20.009472810   28.306575874   28.732590291 XXXX 1      pap     P   1.000
P431    20.009472810   28.306575874   35.607590291 XXXX 1      pap     P   1.000
P432    20.009472810   28.306575874   42.482590291 XXXX 1      pap     P   1.000
P453    28.164834037   23.598075874   21.857590291 XXXX 1      pap     P   1.000
P454    28.164834037   23.598075874   28.732590291 XXXX 1      pap     P   1.000
P455    28.164834037   23.598075874   35.607590291 XXXX 1      pap     P   1.000
P456    28.164834037   23.598075874   42.482590291 XXXX 1      pap     P   1.000
O1957   21.546269282   18.869988856   21.857590291 XXXX 1      oap1    O  -0.800
O1958   21.546269282   18.869988856   28.732590291 XXXX 1      oap1    O  -0.800
O1959   21.546269282   18.869988856   35.607590291 XXXX 1      oap1    O  -0.800
O1960   21.546269282   18.869988856   42.482590291 XXXX 1      oap1    O  -0.800
O1965   21.546269282   28.286988856   21.857590291 XXXX 1      oap1    O  -0.800
O1966   21.546269282   28.286988856   28.732590291 XXXX 1      oap1    O  -0.800
O1967   21.546269282   28.286988856   35.607590291 XXXX 1      oap1    O  -0.800
O1968   21.546269282   28.286988856   42.482590291 XXXX 1      oap1    O  -0.800
O1989   29.701630510   23.578488856   21.857590291 XXXX 1      oap1    O  -0.800
O1990   29.701630510   23.578488856   28.732590291 XXXX 1      oap1    O  -0.800
O1991   29.701630510   23.578488856   35.607590291 XXXX 1      oap1    O  -0.800
O1992   29.701630510   23.578488856   42.482590291 XXXX 1      oap1    O  -0.800
O2053   19.440554854   17.464972106   21.857590291 XXXX 1      oap1    O  -0.800
O2054   19.440554854   17.464972106   28.732590291 XXXX 1      oap1    O  -0.800
O2055   19.440554854   17.464972106   35.607590291 XXXX 1      oap1    O  -0.800
O2056   19.440554854   17.464972106   42.482590291 XXXX 1      oap1    O  -0.800
O2061   19.440554854   26.881972106   21.857590291 XXXX 1      oap1    O  -0.800
O2062   19.440554854   26.881972106   28.732590291 XXXX 1      oap1    O  -0.800
O2063   19.440554854   26.881972106   35.607590291 XXXX 1      oap1    O  -0.800
O2064   19.440554854   26.881972106   42.482590291 XXXX 1      oap1    O  -0.800
O2085   27.595916081   22.173472106   21.857590291 XXXX 1      oap1    O  -0.800
O2086   27.595916081   22.173472106   28.732590291 XXXX 1      oap1    O  -0.800
O2087   27.595916081   22.173472106   35.607590291 XXXX 1      oap1    O  -0.800
O2088   27.595916081   22.173472106   42.482590291 XXXX 1      oap1    O  -0.800
Ca901   22.952334875   16.969308402   21.857590291 XXXX 1      ca+h    Ca  1.500
Ca902   22.952334875   16.969308402   28.732590291 XXXX 1      ca+h    Ca  1.500
Ca903   22.952334875   16.969308402   35.607590291 XXXX 1      ca+h    Ca  1.500
Ca904   22.952334875   16.969308402   42.482590291 XXXX 1      ca+h    Ca  1.500
Ca909   22.952334875   26.386308402   21.857590291 XXXX 1      ca+h    Ca  1.500
Ca910   22.952334875   26.386308402   28.732590291 XXXX 1      ca+h    Ca  1.500
Ca911   22.952334875   26.386308402   35.607590291 XXXX 1      ca+h    Ca  1.500
Ca912   22.952334875   26.386308402   42.482590291 XXXX 1      ca+h    Ca  1.500
Ca933   31.107696103   21.677808402   21.857590291 XXXX 1      ca+h    Ca  1.500
Ca934   31.107696103   21.677808402   28.732590291 XXXX 1      ca+h    Ca  1.500
Ca935   31.107696103   21.677808402   35.607590291 XXXX 1      ca+h    Ca  1.500
Ca936   31.107696103   21.677808402   42.482590291 XXXX 1      ca+h    Ca  1.500
P517    24.668467593   19.387735327   21.857590291 XXXX 1      pap     P   1.000
P518    24.668467593   19.387735327   28.732590291 XXXX 1      pap     P   1.000
P519    24.668467593   19.387735327   35.607590291 XXXX 1      pap     P   1.000
P520    24.668467593   19.387735327   42.482590291 XXXX 1      pap     P   1.000
P525    24.668467593   28.804735327   21.857590291 XXXX 1      pap     P   1.000
P526    24.668467593   28.804735327   28.732590291 XXXX 1      pap     P   1.000
P527    24.668467593   28.804735327   35.607590291 XXXX 1      pap     P   1.000
P528    24.668467593   28.804735327   42.482590291 XXXX 1      pap     P   1.000
P549    32.823828821   24.096235327   21.857590291 XXXX 1      pap     P   1.000
P550    32.823828821   24.096235327   28.732590291 XXXX 1      pap     P   1.000
P551    32.823828821   24.096235327   35.607590291 XXXX 1      pap     P   1.000
P552    32.823828821   24.096235327   42.482590291 XXXX 1      pap     P   1.000
O2149   23.917032212   20.728433622   21.857590291 XXXX 1      oap1    O  -0.800
O2150   23.917032212   20.728433622   28.732590291 XXXX 1      oap1    O  -0.800
O2151   23.917032212   20.728433622   35.607590291 XXXX 1      oap1    O  -0.800
O2152   23.917032212   20.728433622   42.482590291 XXXX 1      oap1    O  -0.800
O2157   23.917032212   30.145433622   21.857590291 XXXX 1      oap1    O  -0.800
O2158   23.917032212   30.145433622   28.732590291 XXXX 1      oap1    O  -0.800
O2159   23.917032212   30.145433622   35.607590291 XXXX 1      oap1    O  -0.800
O2160   23.917032212   30.145433622   42.482590291 XXXX 1      oap1    O  -0.800
O2181   32.072393440   25.436933622   21.857590291 XXXX 1      oap1    O  -0.800
O2182   32.072393440   25.436933622   28.732590291 XXXX 1      oap1    O  -0.800
O2183   32.072393440   25.436933622   35.607590291 XXXX 1      oap1    O  -0.800
O2184   32.072393440   25.436933622   42.482590291 XXXX 1      oap1    O  -0.800
O2245   26.186669624   19.607339808   21.857590291 XXXX 1      oap1    O  -0.800
O2246   26.186669624   19.607339808   28.732590291 XXXX 1      oap1    O  -0.800
O2247   26.186669624   19.607339808   35.607590291 XXXX 1      oap1    O  -0.800
O2248   26.186669624   19.607339808   42.482590291 XXXX 1      oap1    O  -0.800
O2253   26.186669624   29.024339808   21.857590291 XXXX 1      oap1    O  -0.800
O2254   26.186669624   29.024339808   28.732590291 XXXX 1      oap1    O  -0.800
O2255   26.186669624   29.024339808   35.607590291 XXXX 1      oap1    O  -0.800
O2256   26.186669624   29.024339808   42.482590291 XXXX 1      oap1    O  -0.800
O2277   34.342030852   24.315839808   21.857590291 XXXX 1      oap1    O  -0.800
O2278   34.342030852   24.315839808   28.732590291 XXXX 1      oap1    O  -0.800
O2279   34.342030852   24.315839808   35.607590291 XXXX 1      oap1    O  -0.800
O2280   34.342030852   24.315839808   42.482590291 XXXX 1      oap1    O  -0.800
O2342   16.758256469   20.483591547   29.090777810 XXXX 1      oap2    O  -1.100
O2344   16.758256469   20.483591547   42.840777810 XXXX 1      oap2    O  -1.100
O2349   16.758256469   29.900591547   22.215777810 XXXX 1      oap2    O  -1.100
O2351   16.758256469   29.900591547   35.965777810 XXXX 1      oap2    O  -1.100
O2365   24.913617697   15.775091547   22.215777810 XXXX 1      oap2    O  -1.100
O2366   24.913617697   15.775091547   29.090777810 XXXX 1      oap2    O  -1.100
O2367   24.913617697   15.775091547   35.965777810 XXXX 1      oap2    O  -1.100
O2368   24.913617697   15.775091547   42.840777810 XXXX 1      oap2    O  -1.100
O2373   24.913617697   25.192091547   22.215777810 XXXX 1      oap2    O  -1.100
O2374   24.913617697   25.192091547   29.090777810 XXXX 1      oap2    O  -1.100
O2375   24.913617697   25.192091547   35.965777810 XXXX 1      oap2    O  -1.100
O2376   24.913617697   25.192091547   42.840777810 XXXX 1      oap2    O  -1.100
O2453   24.913617697   25.192091547   18.778277810 XXXX 1      oap2    O  -1.100
O2454   24.913617697   25.192091547   25.653277810 XXXX 1      oap2    O  -1.100
O2455   24.913617697   25.192091547   32.528277810 XXXX 1      oap2    O  -1.100
O2456   24.913617697   25.192091547   39.403277810 XXXX 1      oap2    O  -1.100
O2461   24.913617697   34.609091547   18.778277810 XXXX 1      oap2    O  -1.100
O2462   24.913617697   34.609091547   25.653277810 XXXX 1      oap2    O  -1.100
O2463   24.913617697   34.609091547   32.528277810 XXXX 1      oap2    O  -1.100
O2464   24.913617697   34.609091547   39.403277810 XXXX 1      oap2    O  -1.100
O2478   33.068978924   20.483591547   25.653277810 XXXX 1      oap2    O  -1.100
O2480   33.068978924   20.483591547   39.403277810 XXXX 1      oap2    O  -1.100
O2485   33.068978924   29.900591547   18.778277810 XXXX 1      oap2    O  -1.100
O2487   33.068978924   29.900591547   32.528277810 XXXX 1      oap2    O  -1.100
H38     16.758254091   20.483823072   30.200777785 XXXX 1      hop     H   0.200
H40     16.758254091   20.483823072   43.950777785 XXXX 1      hop     H   0.200
H45     16.758254091   29.900823072   23.325777785 XXXX 1      hop     H   0.200
H47     16.758254091   29.900823072   37.075777785 XXXX 1      hop     H   0.200
H61     24.913615318   15.775323072   23.325777785 XXXX 1      hop     H   0.200
H62     24.913615318   15.775323072   30.200777785 XXXX 1      hop     H   0.200
H63     24.913615318   15.775323072   37.075777785 XXXX 1      hop     H   0.200
H64     24.913615318   15.775323072   43.950777785 XXXX 1      hop     H   0.200
H69     24.913615318   25.192323072   23.325777785 XXXX 1      hop     H   0.200
H70     24.913615318   25.192323072   30.200777785 XXXX 1      hop     H   0.200
H71     24.913615318   25.192323072   37.075777785 XXXX 1      hop     H   0.200
H72     24.913615318   25.192323072   43.950777785 XXXX 1      hop     H   0.200
H149    24.913739131   25.183919035   19.888247712 XXXX 1      hop     H   0.200
H150    24.913739131   25.183919035   26.763247712 XXXX 1      hop     H   0.200
H151    24.913739131   25.183919035   33.638247712 XXXX 1      hop     H   0.200
H152    24.913739131   25.183919035   40.513247712 XXXX 1      hop     H   0.200
H157    24.913739131   34.600919035   19.888247712 XXXX 1      hop     H   0.200
H158    24.913739131   34.600919035   26.763247712 XXXX 1      hop     H   0.200
H159    24.913739131   34.600919035   33.638247712 XXXX 1      hop     H   0.200
H160    24.913739131   34.600919035   40.513247712 XXXX 1      hop     H   0.200
H174    33.069100358   20.475419035   26.763247712 XXXX 1      hop     H   0.200
H176    33.069100358   20.475419035   40.513247712 XXXX 1      hop     H   0.200
H181    33.069100358   29.892419035   19.888247712 XXXX 1      hop     H   0.200
H183    33.069100358   29.892419035   33.638247712 XXXX 1      hop     H   0.200
end
end
