!BIOSYM archive 3
PBC=ON
Materials Studio Generated CAR File
!DATE Tue May 05 05:17:15 2015
PBC   37.6680   34.3750  132.6214   90.0000   90.0000   90.0000 (P1)
O1      10.240383943   34.912380916   29.766812345 XXXX 1      oap1    O  -0.800
O2      10.666482074   28.095042600   29.713105072 XXXX 1      oap1    O  -0.800
O3      10.082182651   21.088206942   29.590498607 XXXX 1      oap1    O  -0.800
O4      10.208842449   14.072146706   29.405796127 XXXX 1      oap1    O  -0.800
O17     19.613064023   34.921620058   29.644067599 XXXX 1      oap1    O  -0.800
O18     20.057827933   28.298251614   29.907281328 XXXX 1      oap1    O  -0.800
O19     19.921971257   21.314834026   29.614594288 XXXX 1      oap1    O  -0.800
O20     19.585130936   14.419078805   29.663612787 XXXX 1      oap1    O  -0.800
O33     29.039952530   34.953124069   29.660268269 XXXX 1      oap1    O  -0.800
O34     28.998369744   28.057850236   29.628666479 XXXX 1      oap1    O  -0.800
O35     28.987255931   21.271288748   29.882082393 XXXX 1      oap1    O  -0.800
O36     29.024038302   14.081313443   28.888231903 XXXX 1      oap1    O  -0.800
O193    12.266924854   31.362085186   27.544540684 XXXX 1      oap1    O  -0.800
O194    12.672991876   24.670978622   27.568069794 XXXX 1      oap1    O  -0.800
O195    11.904603871   17.660005755   27.213525965 XXXX 1      oap1    O  -0.800
O196    12.177624214   10.773978600   27.425856926 XXXX 1      oap1    O  -0.800
O209    21.641587764   31.548063314   27.578055877 XXXX 1      oap1    O  -0.800
O210    21.891612172   24.607592811   27.446951230 XXXX 1      oap1    O  -0.800
O211    21.918525566   17.837875980   27.241219243 XXXX 1      oap1    O  -0.800
O212    21.879601067   10.956249290   27.461193479 XXXX 1      oap1    O  -0.800
O225    31.174171705   31.590516320   27.587989355 XXXX 1      oap1    O  -0.800
O226    31.142358566   24.537940635   27.434088799 XXXX 1      oap1    O  -0.800
O227    30.836265885   17.674831516   27.293088252 XXXX 1      oap1    O  -0.800
O228    30.883252842   10.675592359   27.073141104 XXXX 1      oap1    O  -0.800
O241    16.796931886   31.710669246   29.272049748 XXXX 1      oap1    O  -0.800
O242    16.792374724   24.754061316   28.838160645 XXXX 1      oap1    O  -0.800
O243    17.298277975   17.738623168   29.054968254 XXXX 1      oap1    O  -0.800
O244    16.956627941   10.826900801   28.881978388 XXXX 1      oap1    O  -0.800
O257    26.235305239   31.489242257   28.971383188 XXXX 1      oap1    O  -0.800
O258    26.055817844   24.610918724   29.055429850 XXXX 1      oap1    O  -0.800
O259    25.858603817   17.761712067   28.748273927 XXXX 1      oap1    O  -0.800
O260    26.391149256   10.890947741   28.775472428 XXXX 1      oap1    O  -0.800
O273    35.535038688   31.612715250   28.888060764 XXXX 1      oap1    O  -0.800
O274    35.488102281   24.638104167   28.786232219 XXXX 1      oap1    O  -0.800
O275    35.458975398   17.796157485   29.004738042 XXXX 1      oap1    O  -0.800
O276    35.439027897   10.815974507   28.715768618 XXXX 1      oap1    O  -0.800
O337    12.312244894   28.872428724   27.384964737 XXXX 1      oap1    O  -0.800
O338    12.100067148   22.290809460   27.294923595 XXXX 1      oap1    O  -0.800
O339    12.278956816   15.263566156   27.441813891 XXXX 1      oap1    O  -0.800
O340    12.248007739    8.360287298   27.426653484 XXXX 1      oap1    O  -0.800
O353    21.752830819   28.968483957   27.703014545 XXXX 1      oap1    O  -0.800
O354    21.786050855   22.166698037   27.453621159 XXXX 1      oap1    O  -0.800
O355    21.363496211   15.410737016   27.085508727 XXXX 1      oap1    O  -0.800
O356    21.389628969    8.575980481   27.449419463 XXXX 1      oap1    O  -0.800
O369    31.154834770   29.097676162   27.714915514 XXXX 1      oap1    O  -0.800
O370    31.090725081   22.176022102   27.466011737 XXXX 1      oap1    O  -0.800
O371    31.215549229   15.210921935   27.456318550 XXXX 1      oap1    O  -0.800
O372    31.302757161    8.267686476   27.324886251 XXXX 1      oap1    O  -0.800
O385    17.528760536   29.382293111   28.930415383 XXXX 1      oap1    O  -0.800
O386    17.235816659   22.233194211   28.579570190 XXXX 1      oap1    O  -0.800
O387    16.897279699   15.276226628   28.999686237 XXXX 1      oap1    O  -0.800
O388    17.071281281    8.411776299   28.513541760 XXXX 1      oap1    O  -0.800
O401    26.135485722   29.039921185   29.056498420 XXXX 1      oap1    O  -0.800
O402    26.231979200   22.037550080   29.110846891 XXXX 1      oap1    O  -0.800
O403    26.337884722   15.383270489   28.838910835 XXXX 1      oap1    O  -0.800
O404    26.511496753    8.379005329   29.068836415 XXXX 1      oap1    O  -0.800
O417    36.123411135   29.171604192   28.807238539 XXXX 1      oap1    O  -0.800
O418    35.453628486   22.185162325   28.774833106 XXXX 1      oap1    O  -0.800
O419    35.830615716   15.334676371   28.732441756 XXXX 1      oap1    O  -0.800
O420    35.287869882    8.397806038   28.777428958 XXXX 1      oap1    O  -0.800
O433    10.522471602   32.439828072   29.572660772 XXXX 1      oap1    O  -0.800
O434    10.364875409   25.648523658   29.362135529 XXXX 1      oap1    O  -0.800
O435    10.366550569   18.764575937   28.913660426 XXXX 1      oap1    O  -0.800
O436    10.268450514   11.605219327   29.666262905 XXXX 1      oap1    O  -0.800
O449    19.609609097   32.422970758   29.890318249 XXXX 1      oap1    O  -0.800
O450    19.801727054   25.981437542   29.016007113 XXXX 1      oap1    O  -0.800
O451    19.802341900   18.960950590   28.859602606 XXXX 1      oap1    O  -0.800
O452    19.600951840   12.069856174   29.124032741 XXXX 1      oap1    O  -0.800
O465    29.050035705   32.502925758   29.760802686 XXXX 1      oap1    O  -0.800
O466    28.851415094   25.531252021   29.853279734 XXXX 1      oap1    O  -0.800
O467    29.145780501   18.804930869   29.365618416 XXXX 1      oap1    O  -0.800
O468    28.954513499   11.668001546   29.704100623 XXXX 1      oap1    O  -0.800
Ca1     14.152600314   35.493192179   29.342907154 XXXX 1      ca+h    Ca  1.500
Ca2     14.139934057   28.462698181   29.324491892 XXXX 1      ca+h    Ca  1.500
Ca3     14.441932417   21.359248454   29.606000706 XXXX 1      ca+h    Ca  1.500
Ca4     13.911280522   15.118906898   29.250706433 XXXX 1      ca+h    Ca  1.500
Ca17    23.504189233   35.417639030   29.538817032 XXXX 1      ca+h    Ca  1.500
Ca18    23.567494461   28.573219023   29.613458287 XXXX 1      ca+h    Ca  1.500
Ca19    23.773249475   21.578383234   29.520864178 XXXX 1      ca+h    Ca  1.500
Ca20    23.815499214   14.679374871   29.631323153 XXXX 1      ca+h    Ca  1.500
Ca33    32.902949753   35.391459506   29.138128594 XXXX 1      ca+h    Ca  1.500
Ca34    32.762389021   28.424419232   29.712147943 XXXX 1      ca+h    Ca  1.500
Ca35    32.982583406   21.667354815   29.331159046 XXXX 1      ca+h    Ca  1.500
Ca36    32.661927932   14.797984110   29.354542033 XXXX 1      ca+h    Ca  1.500
Ca145   14.110949819   31.952223035   29.395142705 XXXX 1      ca+h    Ca  1.500
Ca146   14.397839509   24.903639817   29.238457892 XXXX 1      ca+h    Ca  1.500
Ca147   13.042429228   19.307287238   31.932451132 XXXX 1      ca+h    Ca  1.500
Ca148   14.317294958   11.456905498   29.304365002 XXXX 1      ca+h    Ca  1.500
Ca161   23.442869442   32.033862214   29.540586335 XXXX 1      ca+h    Ca  1.500
Ca162   23.574038018   24.929250946   29.406828985 XXXX 1      ca+h    Ca  1.500
Ca163   23.629428200   18.168839988   29.220214831 XXXX 1      ca+h    Ca  1.500
Ca164   23.242739480   11.488329362   29.340338393 XXXX 1      ca+h    Ca  1.500
Ca177   32.962335039   32.032445173   29.436464082 XXXX 1      ca+h    Ca  1.500
Ca178   32.923122564   25.089140001   29.352431200 XXXX 1      ca+h    Ca  1.500
Ca179   32.875332477   18.252905538   29.325646764 XXXX 1      ca+h    Ca  1.500
Ca180   33.037757137   11.418074326   29.479967132 XXXX 1      ca+h    Ca  1.500
Ca193    8.315524282   33.645503340   28.808557893 XXXX 1      ca+h    Ca  1.500
Ca194    8.231139616   26.598884779   28.741585617 XXXX 1      ca+h    Ca  1.500
Ca195    8.062055861   19.859220064   28.596605473 XXXX 1      ca+h    Ca  1.500
Ca196    8.137368445   13.049056880   28.777215706 XXXX 1      ca+h    Ca  1.500
Ca209   17.564018371   33.750649629   28.720848229 XXXX 1      ca+h    Ca  1.500
Ca210   17.602018896   26.909002383   28.655713605 XXXX 1      ca+h    Ca  1.500
Ca211   17.710106482   19.958170182   28.640622456 XXXX 1      ca+h    Ca  1.500
Ca212   17.465762669   13.093780869   28.640529737 XXXX 1      ca+h    Ca  1.500
Ca225   26.931632328   33.717378821   28.775984534 XXXX 1      ca+h    Ca  1.500
Ca226   26.816665884   26.858448306   29.015030171 XXXX 1      ca+h    Ca  1.500
Ca227   27.041164493   19.870994828   28.795409770 XXXX 1      ca+h    Ca  1.500
Ca228   26.968214001   13.104295169   28.527237424 XXXX 1      ca+h    Ca  1.500
P1      11.109754139   33.690177365   30.172184639 XXXX 1      pap     P   1.000
P2      11.209253809   26.712729243   30.133167990 XXXX 1      pap     P   1.000
P3      10.977235799   19.854704559   29.767802224 XXXX 1      pap     P   1.000
P4      11.074021232   12.923915752   29.998420747 XXXX 1      pap     P   1.000
P17     20.429605183   33.708526538   30.120122759 XXXX 1      pap     P   1.000
P18     20.599977446   26.823924128   29.988071903 XXXX 1      pap     P   1.000
P19     20.606790294   19.971677994   29.739017973 XXXX 1      pap     P   1.000
P20     20.480339089   13.144712843   29.798380507 XXXX 1      pap     P   1.000
P33     29.878859270   33.741744974   30.067623245 XXXX 1      pap     P   1.000
P34     29.770354489   26.762416613   30.056387999 XXXX 1      pap     P   1.000
P35     29.873619737   19.979180923   30.052433440 XXXX 1      pap     P   1.000
P36     29.729970258   13.022605801   29.807495420 XXXX 1      pap     P   1.000
O577    11.014630224   33.668993017   31.714097634 XXXX 1      oap1    O  -0.800
O578    11.056018527   26.620818803   31.710118618 XXXX 1      oap1    O  -0.800
O579    10.921903157   19.679743391   31.292882788 XXXX 1      oap1    O  -0.800
O580    11.019447252   13.081419763   31.513930568 XXXX 1      oap1    O  -0.800
O593    20.670105568   33.826799998   31.633861756 XXXX 1      oap1    O  -0.800
O594    20.430158240   26.391430700   31.447753340 XXXX 1      oap1    O  -0.800
O595    20.459204614   19.534419335   31.227022321 XXXX 1      oap1    O  -0.800
O596    20.604398251   12.886621737   31.343478663 XXXX 1      oap1    O  -0.800
O609    29.856635095   33.759274586   31.622140386 XXXX 1      oap1    O  -0.800
O610    29.973338894   26.853186047   31.537193477 XXXX 1      oap1    O  -0.800
O611    29.961294596   19.712428203   31.601050147 XXXX 1      oap1    O  -0.800
O612    29.898094926   13.357635484   31.305398689 XXXX 1      oap1    O  -0.800
O625    12.585094329   33.786708253   29.827408017 XXXX 1      oap1    O  -0.800
O626    12.751685624   26.605960590   29.817835774 XXXX 1      oap1    O  -0.800
O627    12.387740822   20.183500679   29.307810742 XXXX 1      oap1    O  -0.800
O628    12.593250632   13.040309121   29.543316352 XXXX 1      oap1    O  -0.800
O641    21.834376258   33.763609042   29.381212615 XXXX 1      oap1    O  -0.800
O642    22.054699470   26.777152942   29.593839196 XXXX 1      oap1    O  -0.800
O643    22.089364388   20.072673989   29.322277328 XXXX 1      oap1    O  -0.800
O644    21.860808934   13.224497726   29.015023731 XXXX 1      oap1    O  -0.800
O657    31.291019439   33.739198985   29.469896622 XXXX 1      oap1    O  -0.800
O658    31.115742007   26.668188907   29.301171244 XXXX 1      oap1    O  -0.800
O659    31.263898237   20.111602271   29.470002911 XXXX 1      oap1    O  -0.800
O660    31.165995288   12.784008902   29.272813363 XXXX 1      oap1    O  -0.800
Ca385   10.576508941   30.090039103   28.772736736 XXXX 1      ca+h    Ca  1.500
Ca386   10.813799799   23.319850378   28.887538842 XXXX 1      ca+h    Ca  1.500
Ca387   10.365727530   16.461914356   28.783530418 XXXX 1      ca+h    Ca  1.500
Ca388   10.388278660    9.314008616   28.901656605 XXXX 1      ca+h    Ca  1.500
Ca401   19.864209391   30.321551799   28.844043946 XXXX 1      ca+h    Ca  1.500
Ca402   20.030154198   23.541848137   28.777992112 XXXX 1      ca+h    Ca  1.500
Ca403   19.886013831   16.576210081   28.718717986 XXXX 1      ca+h    Ca  1.500
Ca404   19.763166949    9.767391173   28.895140316 XXXX 1      ca+h    Ca  1.500
Ca417   29.360754975   30.378474482   28.790737484 XXXX 1      ca+h    Ca  1.500
Ca418   29.354742685   23.428672834   28.882586516 XXXX 1      ca+h    Ca  1.500
Ca419   29.208570700   16.443518852   28.874069000 XXXX 1      ca+h    Ca  1.500
Ca420   29.316882284    9.642198778   28.657651140 XXXX 1      ca+h    Ca  1.500
P193    13.053698512   30.174007763   26.940915932 XXXX 1      pap     P   1.000
P194    13.117713176   23.349836568   26.997632618 XXXX 1      pap     P   1.000
P195    12.880962842   16.516750914   26.878490409 XXXX 1      pap     P   1.000
P196    12.982825400    9.614950682   26.927836278 XXXX 1      pap     P   1.000
P209    22.404968210   30.261086914   27.091700575 XXXX 1      pap     P   1.000
P210    22.577150399   23.377328016   26.986355400 XXXX 1      pap     P   1.000
P211    22.409732001   16.440912489   26.739468823 XXXX 1      pap     P   1.000
P212    22.391622575    9.627010179   26.949097197 XXXX 1      pap     P   1.000
P225    31.908781808   30.318405081   27.060917121 XXXX 1      pap     P   1.000
P226    31.860094630   23.323492585   26.948208655 XXXX 1      pap     P   1.000
P227    31.778259332   16.516210199   26.834208831 XXXX 1      pap     P   1.000
P228    31.858588614    9.615057599   26.735510543 XXXX 1      pap     P   1.000
O961    14.395191864   30.137059071   27.725463412 XXXX 1      oap1    O  -0.800
O962    14.495970905   23.118439340   27.720648899 XXXX 1      oap1    O  -0.800
O963    14.289736033   16.617485768   27.430915865 XXXX 1      oap1    O  -0.800
O964    14.319278919    9.660568437   27.613821907 XXXX 1      oap1    O  -0.800
O977    23.746813853   30.397982059   27.850045663 XXXX 1      oap1    O  -0.800
O978    23.930579923   23.320340858   27.672709842 XXXX 1      oap1    O  -0.800
O979    23.756834405   16.230097945   27.488706714 XXXX 1      oap1    O  -0.800
O980    23.766854041    9.331299617   27.654969789 XXXX 1      oap1    O  -0.800
O993    33.324491702   30.279195884   27.677013246 XXXX 1      oap1    O  -0.800
O994    33.268563571   23.273485352   27.536324273 XXXX 1      oap1    O  -0.800
O995    33.187214085   16.733057201   27.433017549 XXXX 1      oap1    O  -0.800
O996    33.154541583   10.007062314   27.546986542 XXXX 1      oap1    O  -0.800
O1009   13.280627232   30.345439350   25.399269938 XXXX 1      oap1    O  -0.800
O1010   13.277196739   23.467661684   25.460224944 XXXX 1      oap1    O  -0.800
O1011   13.041409150   16.296348520   25.353356348 XXXX 1      oap1    O  -0.800
O1012   13.045032351    9.637746698   25.345725150 XXXX 1      oap1    O  -0.800
O1025   22.627157042   30.264710989   25.572901222 XXXX 1      oap1    O  -0.800
O1026   22.762463282   23.387198672   25.469445827 XXXX 1      oap1    O  -0.800
O1027   22.605821711   16.488785244   25.239282178 XXXX 1      oap1    O  -0.800
O1028   22.514653682    9.567448830   25.421763360 XXXX 1      oap1    O  -0.800
O1041   31.912968901   30.177063136   25.539594253 XXXX 1      oap1    O  -0.800
O1042   31.896563898   23.402719631   25.397258374 XXXX 1      oap1    O  -0.800
O1043   31.782222262   16.465708075   25.308607123 XXXX 1      oap1    O  -0.800
O1044   32.033629100    9.535861984   25.210091661 XXXX 1      oap1    O  -0.800
Ca433   16.652932499   30.150366439   26.700419519 XXXX 1      ca+h    Ca  1.500
Ca434   16.591917841   23.376424211   26.394256327 XXXX 1      ca+h    Ca  1.500
Ca435   16.463878171   16.646458479   26.705111585 XXXX 1      ca+h    Ca  1.500
Ca436   16.395519028    9.649965930   26.502457736 XXXX 1      ca+h    Ca  1.500
Ca449   25.956069063   30.358345095   26.733614362 XXXX 1      ca+h    Ca  1.500
Ca450   25.952716343   23.507746552   26.503621723 XXXX 1      ca+h    Ca  1.500
Ca451   25.865077113   16.477546132   26.557488639 XXXX 1      ca+h    Ca  1.500
Ca452   26.004840912    9.651969032   26.707864423 XXXX 1      ca+h    Ca  1.500
Ca465   35.368494235   30.325958901   26.600535862 XXXX 1      ca+h    Ca  1.500
Ca466   35.429816496   23.306800894   26.703418923 XXXX 1      ca+h    Ca  1.500
Ca467   35.274666242   16.527873707   26.531867463 XXXX 1      ca+h    Ca  1.500
Ca468   35.338647840    9.693397983   26.438585229 XXXX 1      ca+h    Ca  1.500
P241    16.937815970   30.333693175   29.970389755 XXXX 1      pap     P   1.000
P242    16.963284949   23.386678154   29.600990074 XXXX 1      pap     P   1.000
P243    16.859172395   16.536519122   29.854425024 XXXX 1      pap     P   1.000
P244    16.904905602    9.532429421   29.606915467 XXXX 1      pap     P   1.000
P257    26.134218954   30.288464543   29.916121165 XXXX 1      pap     P   1.000
P258    26.254395407   23.310083670   29.908342238 XXXX 1      pap     P   1.000
P259    26.160541313   16.642517254   29.716968933 XXXX 1      pap     P   1.000
P260    26.203708052    9.734562092   29.773668958 XXXX 1      pap     P   1.000
P273    35.707426247   30.347614572   29.660047857 XXXX 1      pap     P   1.000
P274    35.586856413   23.432187159   29.696783113 XXXX 1      pap     P   1.000
P275    35.523808287   16.454259303   29.735818954 XXXX 1      pap     P   1.000
P276    35.527199790    9.631606998   29.663550197 XXXX 1      pap     P   1.000
O1057   15.484714183   29.972598627   30.369158835 XXXX 1      oap1    O  -0.800
O1058   15.633396500   23.158030438   30.343851958 XXXX 1      oap1    O  -0.800
O1059   15.400863051   16.639823077   30.335748097 XXXX 1      oap1    O  -0.800
O1060   15.482083900    9.441560464   30.117583073 XXXX 1      oap1    O  -0.800
O1073   24.813372908   30.314181840   30.732960112 XXXX 1      oap1    O  -0.800
O1074   24.958915100   23.340296576   30.719771854 XXXX 1      oap1    O  -0.800
O1075   24.981387811   16.543595887   30.589565282 XXXX 1      oap1    O  -0.800
O1076   24.722541589    9.731333316   30.265463157 XXXX 1      oap1    O  -0.800
O1089   34.343090385   30.102029351   30.281387376 XXXX 1      oap1    O  -0.800
O1090   34.345845152   23.341196237   30.576235284 XXXX 1      oap1    O  -0.800
O1091   34.141828093   16.335683103   30.255322298 XXXX 1      oap1    O  -0.800
O1092   34.422364471    9.624477001   30.684851261 XXXX 1      oap1    O  -0.800
O1105   17.779858306   30.351527092   31.251638472 XXXX 1      oap1    O  -0.800
O1106   18.188304042   23.462327332   30.607643062 XXXX 1      oap1    O  -0.800
O1107   17.687012095   16.373339764   31.145281625 XXXX 1      oap1    O  -0.800
O1108   17.944235860    9.569421040   30.762742832 XXXX 1      oap1    O  -0.800
O1121   27.333887105   30.256254048   30.892745309 XXXX 1      oap1    O  -0.800
O1122   27.428324912   23.398171696   30.885000828 XXXX 1      oap1    O  -0.800
O1123   27.430027663   16.992142345   30.474299540 XXXX 1      oap1    O  -0.800
O1124   27.082065013    9.893793533   31.028347140 XXXX 1      oap1    O  -0.800
O1137   36.721635147   30.560807357   30.828714185 XXXX 1      oap1    O  -0.800
O1138   36.928507495   23.306009438   30.519140137 XXXX 1      oap1    O  -0.800
O1139   36.542399478   16.544614917   30.887140946 XXXX 1      oap1    O  -0.800
O1140   36.974201162    9.495590445   30.211138354 XXXX 1      oap1    O  -0.800
O1153    9.468964801   36.265566656   26.768004655 XXXX 1      oap2    O  -1.100
O1154    9.539468739   30.459829487   26.738119088 XXXX 1      oap2    O  -1.100
O1155    9.515826070   24.027387562   26.831017920 XXXX 1      oap2    O  -1.100
O1156    9.294829099   15.674889600   26.693399510 XXXX 1      oap2    O  -1.100
O1169   18.848997198    3.066813689   26.539654746 XXXX 1      oap2    O  -1.100
O1170   18.941865865   31.140341996   26.698812272 XXXX 1      oap2    O  -1.100
O1171   18.853801606   24.261632298   26.714181227 XXXX 1      oap2    O  -1.100
O1172   18.817547026   17.221017163   26.591257561 XXXX 1      oap2    O  -1.100
O1185   28.285955609   36.193882256   26.878882336 XXXX 1      oap2    O  -1.100
O1186   28.300616615   29.813958112   26.706972225 XXXX 1      oap2    O  -1.100
O1187   28.314367694   23.380263013   26.629836258 XXXX 1      oap2    O  -1.100
O1188   28.189685056   16.785309266   26.690608406 XXXX 1      oap2    O  -1.100
O1201    9.487340488   33.536179939   26.690409941 XXXX 1      oap2    O  -1.100
O1202    9.329807801   27.397676884   26.771326373 XXXX 1      oap2    O  -1.100
O1203    9.364568845   20.682402267   26.634199793 XXXX 1      oap2    O  -1.100
O1204    9.238894431   12.212907702   26.727986530 XXXX 1      oap2    O  -1.100
O1217   18.823692042   34.453632290   26.749639230 XXXX 1      oap2    O  -1.100
O1218   18.857669447   27.730518833   26.655203962 XXXX 1      oap2    O  -1.100
O1219   18.916830526   20.728370386   26.472457281 XXXX 1      oap2    O  -1.100
O1220   18.800315139   13.795415516   26.683302988 XXXX 1      oap2    O  -1.100
O1233   28.212885878   32.976731358   26.821083422 XXXX 1      oap2    O  -1.100
O1234   28.113294831   26.779538458   26.922289145 XXXX 1      oap2    O  -1.100
O1235   28.216450715   20.315887998   26.842441317 XXXX 1      oap2    O  -1.100
O1236   28.173661438   12.053345018   26.665079271 XXXX 1      oap2    O  -1.100
H1       9.340654621   35.323509744   26.652655656 XXXX 1      hop     H   0.200
H2       9.530327444   31.455855528   26.704755476 XXXX 1      hop     H   0.200
H3       9.390790188   24.955005559   26.872864989 XXXX 1      hop     H   0.200
H4       9.399052917   14.682487059   26.811310774 XXXX 1      hop     H   0.200
H17     18.504337342    3.910915563   26.828795945 XXXX 1      hop     H   0.200
H18     18.914467107   32.082266968   26.420640151 XXXX 1      hop     H   0.200
H19     18.865326437   25.245548846   26.567007930 XXXX 1      hop     H   0.200
H20     19.198764621   17.961946706   26.949605372 XXXX 1      hop     H   0.200
H33     28.328126618   35.309668556   26.723698130 XXXX 1      hop     H   0.200
H34     28.016988076   28.919776717   26.635648806 XXXX 1      hop     H   0.200
H35     28.335255664   22.542608311   26.186260345 XXXX 1      hop     H   0.200
H36     28.492579099   17.654700942   26.680375167 XXXX 1      hop     H   0.200
H49      9.611821298   32.678489767   26.392372214 XXXX 1      hop     H   0.200
H50      9.655629520   28.270516539   27.060955558 XXXX 1      hop     H   0.200
H51      9.285848456   21.629574796   26.504136445 XXXX 1      hop     H   0.200
H52      9.182242116   11.500155533   27.356075522 XXXX 1      hop     H   0.200
H65     18.745869812   35.372190379   26.540042831 XXXX 1      hop     H   0.200
H66     19.409889079   28.561755454   26.541375038 XXXX 1      hop     H   0.200
H67     18.479118787   21.543708860   26.691531196 XXXX 1      hop     H   0.200
H68     18.503319897   14.646942560   26.692769853 XXXX 1      hop     H   0.200
H81     28.222104091   32.089204158   26.420071799 XXXX 1      hop     H   0.200
H82     28.147381582   25.808909830   27.082549132 XXXX 1      hop     H   0.200
H83     28.649439308   21.167937025   26.916982437 XXXX 1      hop     H   0.200
H84     28.488998798   11.252185305   26.180239272 XXXX 1      hop     H   0.200
end
O1      10.301316888    6.997036591   29.035691617 XXXX 1      oap1    O  -0.800
O17     19.559788776    7.424382570   29.716106693 XXXX 1      oap1    O  -0.800
O33     29.044308587    7.453974071   29.609069240 XXXX 1      oap1    O  -0.800
O193    12.124832587    3.961795516   27.479718069 XXXX 1      oap1    O  -0.800
O209    21.834614433    4.066892979   27.416756819 XXXX 1      oap1    O  -0.800
O225    31.099091652    3.962153650   27.314898506 XXXX 1      oap1    O  -0.800
O241    16.829432227    3.899340626   28.625765394 XXXX 1      oap1    O  -0.800
O257    26.571128952    3.886855544   28.909016110 XXXX 1      oap1    O  -0.800
O273    35.700710205    4.056365622   28.984041196 XXXX 1      oap1    O  -0.800
O337    12.358881298    1.497887648   27.530646951 XXXX 1      oap1    O  -0.800
O353    21.461054049    1.585331882   27.395394936 XXXX 1      oap1    O  -0.800
O369    31.211379058    1.471557216   27.538680661 XXXX 1      oap1    O  -0.800
O385    16.547770746    1.472475992   28.764225419 XXXX 1      oap1    O  -0.800
O401    26.236758566    1.517136300   29.264228337 XXXX 1      oap1    O  -0.800
O417    35.912410955    1.612528135   28.809465212 XXXX 1      oap1    O  -0.800
O433    10.473750816    4.712924089   29.741183680 XXXX 1      oap1    O  -0.800
O449    19.689679867    5.054629637   29.249803129 XXXX 1      oap1    O  -0.800
O465    29.098102740    4.932905837   29.843888811 XXXX 1      oap1    O  -0.800
Ca1     13.867629944    7.975624306   29.275944422 XXXX 1      ca+h    Ca  1.500
Ca17    23.505532099    7.884305790   29.418584500 XXXX 1      ca+h    Ca  1.500
Ca33    32.958565411    8.024369231   29.265377740 XXXX 1      ca+h    Ca  1.500
Ca145   14.242593976    4.584535458   29.503537313 XXXX 1      ca+h    Ca  1.500
Ca161   23.130947241    4.525148409   29.573017441 XXXX 1      ca+h    Ca  1.500
Ca177   32.886378029    4.505997277   29.227752204 XXXX 1      ca+h    Ca  1.500
Ca193    8.171773307    6.059601220   28.559779127 XXXX 1      ca+h    Ca  1.500
Ca209   17.581128416    6.199031871   28.733774909 XXXX 1      ca+h    Ca  1.500
Ca225   27.034224572    6.189368694   28.586362685 XXXX 1      ca+h    Ca  1.500
P1      11.209251130    6.085775926   29.860251545 XXXX 1      pap     P   1.000
P17     20.485620470    6.218298090   29.818225611 XXXX 1      pap     P   1.000
P33     29.931857195    6.206480517   29.993404229 XXXX 1      pap     P   1.000
O577    11.303743554    6.345196402   31.363254877 XXXX 1      oap1    O  -0.800
O593    20.746288886    6.008466399   31.330655366 XXXX 1      oap1    O  -0.800
O609    30.133372635    6.203455590   31.569767979 XXXX 1      oap1    O  -0.800
O625    12.588982534    6.102099971   29.221388269 XXXX 1      oap1    O  -0.800
O641    21.839478497    6.310769512   29.092509852 XXXX 1      oap1    O  -0.800
O657    31.253796118    6.181979973   29.170644643 XXXX 1      oap1    O  -0.800
Ca385   10.550373916    2.589384565   28.855524990 XXXX 1      ca+h    Ca  1.500
Ca401   19.920536271    2.833260016   28.796955554 XXXX 1      ca+h    Ca  1.500
Ca417   29.336795560    2.854010534   28.743653991 XXXX 1      ca+h    Ca  1.500
P193    13.038605831    2.827531789   26.996077200 XXXX 1      pap     P   1.000
P209    22.405166156    2.740341683   26.964657232 XXXX 1      pap     P   1.000
P225    31.856732547    2.704770465   26.886640644 XXXX 1      pap     P   1.000
O961    14.427305155    2.909799258   27.676032722 XXXX 1      oap1    O  -0.800
O977    23.689539061    2.553752636   27.781098908 XXXX 1      oap1    O  -0.800
O993    33.281195656    2.852156812   27.406857257 XXXX 1      oap1    O  -0.800
O1009   13.091281123    2.818305360   25.437020248 XXXX 1      oap1    O  -0.800
O1025   22.604341408    2.660242693   25.427600219 XXXX 1      oap1    O  -0.800
O1041   31.932262870    2.652369367   25.323509302 XXXX 1      oap1    O  -0.800
Ca433   16.534618389    2.751532983   26.461870760 XXXX 1      ca+h    Ca  1.500
Ca449   26.034654722    2.791753900   26.805424642 XXXX 1      ca+h    Ca  1.500
Ca465   35.424173680    2.706373778   26.354554920 XXXX 1      ca+h    Ca  1.500
P241    16.818655406    2.762325674   29.593602858 XXXX 1      pap     P   1.000
P257    26.136717023    2.855127684   29.908854952 XXXX 1      pap     P   1.000
P273    35.626310941    2.760739871   29.775227355 XXXX 1      pap     P   1.000
O1057   15.606539086    2.960010216   30.579254326 XXXX 1      oap1    O  -0.800
O1073   24.645344673    2.943697051   30.290121240 XXXX 1      oap1    O  -0.800
O1089   34.235611077    2.659086911   30.261003932 XXXX 1      oap1    O  -0.800
O1105   18.131564398    2.709658369   30.350259265 XXXX 1      oap1    O  -0.800
O1121   27.010752104    2.891152465   31.197916408 XXXX 1      oap1    O  -0.800
O1137   36.494618148    2.834705863   31.064993682 XXXX 1      oap1    O  -0.800
O1153    9.536925832    8.867904165   26.673456708 XXXX 1      oap2    O  -1.100
O1169   18.660965556   10.236735999   26.728440344 XXXX 1      oap2    O  -1.100
O1185   28.328317040    8.658922167   26.604628028 XXXX 1      oap2    O  -1.100
O1201    9.299008198    5.371042588   26.649487605 XXXX 1      oap2    O  -1.100
O1217   18.790284715    6.642616461   26.583206138 XXXX 1      oap2    O  -1.100
O1233   28.297717143    5.301321003   26.720011381 XXXX 1      oap2    O  -1.100
H1       9.647972682    8.080432974   26.136062213 XXXX 1      hop     H   0.200
H17     18.661278980   11.003472541   27.293681852 XXXX 1      hop     H   0.200
H33     28.205962720    7.822854861   26.229842728 XXXX 1      hop     H   0.200
H49      9.647714216    4.500161320   26.680645620 XXXX 1      hop     H   0.200
H65     18.833986452    7.560144907   26.886430837 XXXX 1      hop     H   0.200
H81     28.361204207    4.425994457   26.402323772 XXXX 1      hop     H   0.200
end
O1      24.211871935   34.794628182    4.753790489 XXXX 1      oap1    O  -0.800
O2      24.124684305   27.899557661    5.150841822 XXXX 1      oap1    O  -0.800
O3      23.939361053   21.012665131    4.892899206 XXXX 1      oap1    O  -0.800
O4      24.530801856   14.184074208    4.779727622 XXXX 1      oap1    O  -0.800
O5      19.669466878   34.809560676   12.893620142 XXXX 1      oap1    O  -0.800
O6      19.661733408   27.993430569   13.056243080 XXXX 1      oap1    O  -0.800
O7      19.700158934   20.997988647   12.978910564 XXXX 1      oap1    O  -0.800
O8      19.755300476   14.097572039   12.895576936 XXXX 1      oap1    O  -0.800
O9      15.062262108   34.916272022   21.427516973 XXXX 1      oap1    O  -0.800
O10     15.045355968   28.083759025   21.477150411 XXXX 1      oap1    O  -0.800
O11     15.068179468   21.259026188   21.311470294 XXXX 1      oap1    O  -0.800
O12     14.995186097   14.257853176   21.348183865 XXXX 1      oap1    O  -0.800
O13     33.992981082   34.945360738    4.692392227 XXXX 1      oap1    O  -0.800
O14     33.861919211   27.800066630    4.831671388 XXXX 1      oap1    O  -0.800
O15     33.579432663   21.085763859    4.849407865 XXXX 1      oap1    O  -0.800
O16     34.141221534   14.359298313    4.817024774 XXXX 1      oap1    O  -0.800
O17     29.033479686   34.955273375   13.372971891 XXXX 1      oap1    O  -0.800
O18     28.841349507   27.923627395   13.279506759 XXXX 1      oap1    O  -0.800
O19     28.872991441   21.069042343   13.253046879 XXXX 1      oap1    O  -0.800
O20     29.049591038   14.167557506   13.246944068 XXXX 1      oap1    O  -0.800
O21     24.365506619   35.097041282   21.529680683 XXXX 1      oap1    O  -0.800
O22     24.247718128   28.017092025   21.400397563 XXXX 1      oap1    O  -0.800
O23     24.377717283   21.326354861   21.333164198 XXXX 1      oap1    O  -0.800
O24     24.210985047   14.272219863   21.629419953 XXXX 1      oap1    O  -0.800
O25     33.594794658   34.794851971   21.256228582 XXXX 1      oap1    O  -0.800
O26     33.695996428   27.886878891   21.016294911 XXXX 1      oap1    O  -0.800
O27     33.727453220   21.151540188   21.229306255 XXXX 1      oap1    O  -0.800
O28     33.731618838   14.169964988   21.301474521 XXXX 1      oap1    O  -0.800
O29     25.165069180   34.849451442    9.394148296 XXXX 1      oap1    O  -0.800
O30     25.390127594   27.992306367    9.558082401 XXXX 1      oap1    O  -0.800
O31     25.293631267   21.105346480    9.487392391 XXXX 1      oap1    O  -0.800
O32     25.324577282   14.257970028    9.758969280 XXXX 1      oap1    O  -0.800
O33     20.376404153   34.944505031   17.568201277 XXXX 1      oap1    O  -0.800
O34     20.602289789   28.102270425   17.743056269 XXXX 1      oap1    O  -0.800
O35     20.631410224   21.252834691   17.838126649 XXXX 1      oap1    O  -0.800
O36     20.672523048   14.347420973   17.742799138 XXXX 1      oap1    O  -0.800
O37     15.853329340   34.969594355   25.974349413 XXXX 1      oap1    O  -0.800
O38     15.799657614   28.147759824   26.042795571 XXXX 1      oap1    O  -0.800
O39     15.859882623   21.252759441   25.612817361 XXXX 1      oap1    O  -0.800
O40     16.057965183   14.334828934   26.120296934 XXXX 1      oap1    O  -0.800
O41     34.668489081   34.891857213    9.568520052 XXXX 1      oap1    O  -0.800
O42     34.581086431   28.072508519    9.605738409 XXXX 1      oap1    O  -0.800
O43     34.911299104   21.066035854    9.820258612 XXXX 1      oap1    O  -0.800
O44     34.841018454   14.169526369    9.744104767 XXXX 1      oap1    O  -0.800
O45     30.117297995   34.803653802   17.879668444 XXXX 1      oap1    O  -0.800
O46     30.407989529   27.852204130   17.752977076 XXXX 1      oap1    O  -0.800
O47     30.167618451   20.956604624   17.865996737 XXXX 1      oap1    O  -0.800
O48     30.209945142   14.138748207   17.935833225 XXXX 1      oap1    O  -0.800
O49     25.546126309   34.873131186   26.102890074 XXXX 1      oap1    O  -0.800
O50     25.275340819   28.246467713   25.849080279 XXXX 1      oap1    O  -0.800
O51     25.493214623   21.300729168   25.829064205 XXXX 1      oap1    O  -0.800
O52     25.689917940   14.180661024   26.135141562 XXXX 1      oap1    O  -0.800
O53     34.666950666   34.958152678   25.883935386 XXXX 1      oap1    O  -0.800
O54     34.768719483   28.091851214   25.952706997 XXXX 1      oap1    O  -0.800
O55     34.686397104   21.268368205   25.837917546 XXXX 1      oap1    O  -0.800
O56     34.711007457   14.386274687   25.952615131 XXXX 1      oap1    O  -0.800
O57     20.829476747   34.997588662    7.871742631 XXXX 1      oap1    O  -0.800
O58     21.059670094   28.024498947    8.295101256 XXXX 1      oap1    O  -0.800
O59     21.134737394   21.299407861    8.089152505 XXXX 1      oap1    O  -0.800
O60     21.056910164   14.380165438    8.052934507 XXXX 1      oap1    O  -0.800
O61     16.067389694   34.940903139   16.376313318 XXXX 1      oap1    O  -0.800
O62     16.147717310   27.952767367   16.318213391 XXXX 1      oap1    O  -0.800
O63     16.239008613   21.202765978   16.384772356 XXXX 1      oap1    O  -0.800
O64     16.305476315   14.292655971   16.096345662 XXXX 1      oap1    O  -0.800
O65     11.545031248   34.885880898   24.568899409 XXXX 1      oap1    O  -0.800
O66     11.536562248   27.977244508   24.531232102 XXXX 1      oap1    O  -0.800
O67     11.541062436   21.157353511   24.592772754 XXXX 1      oap1    O  -0.800
O68     11.109032394   14.292254981   24.600959645 XXXX 1      oap1    O  -0.800
O69     30.457174576   34.895569492    8.092221942 XXXX 1      oap1    O  -0.800
O70     30.620479711   28.185749124    7.797937964 XXXX 1      oap1    O  -0.800
O71     30.088937009   21.386327639    8.062137955 XXXX 1      oap1    O  -0.800
O72     30.216960555   14.139713907    8.295938984 XXXX 1      oap1    O  -0.800
O73     25.634117003   34.929057257   16.225521273 XXXX 1      oap1    O  -0.800
O74     25.676326368   28.109343856   16.310122826 XXXX 1      oap1    O  -0.800
O75     25.760321330   21.148558728   16.413562433 XXXX 1      oap1    O  -0.800
O76     25.635905355   14.300138152   16.272277404 XXXX 1      oap1    O  -0.800
O77     20.915344118   35.025113080   24.276406057 XXXX 1      oap1    O  -0.800
O78     21.006833535   28.051706778   24.667668851 XXXX 1      oap1    O  -0.800
O79     20.834935126   21.153134123   24.459946081 XXXX 1      oap1    O  -0.800
O80     21.095960153   14.247825188   24.531468280 XXXX 1      oap1    O  -0.800
O81     34.805426760   34.870360938   16.511410600 XXXX 1      oap1    O  -0.800
O82     34.689830697   27.784086621   16.593863383 XXXX 1      oap1    O  -0.800
O83     34.801095587   20.901888021   16.588628823 XXXX 1      oap1    O  -0.800
O84     34.815805593   14.181833606   16.518989054 XXXX 1      oap1    O  -0.800
O85     30.145030097   34.835915716   24.718624665 XXXX 1      oap1    O  -0.800
O86     30.184730854   28.062501973   24.651918967 XXXX 1      oap1    O  -0.800
O87     30.226576068   21.158606529   24.657744479 XXXX 1      oap1    O  -0.800
O88     30.122148636   14.191884306   24.642988148 XXXX 1      oap1    O  -0.800
O89     27.246349307   31.486393978    7.299987018 XXXX 1      oap1    O  -0.800
O90     27.440976045   24.499371561    7.429822369 XXXX 1      oap1    O  -0.800
O91     27.286728607   17.692834477    7.611015745 XXXX 1      oap1    O  -0.800
O92     27.459926682   10.799195809    7.742969081 XXXX 1      oap1    O  -0.800
O93     22.735291225   31.382156382   15.639851727 XXXX 1      oap1    O  -0.800
O94     22.761879498   24.627570404   15.537307141 XXXX 1      oap1    O  -0.800
O95     22.673356735   17.731398326   15.525233531 XXXX 1      oap1    O  -0.800
O96     22.769700126   10.857856268   15.536470998 XXXX 1      oap1    O  -0.800
O97     18.015309484   31.440768436   23.600153735 XXXX 1      oap1    O  -0.800
O98     18.020150397   24.544362218   24.183549609 XXXX 1      oap1    O  -0.800
O99     18.167188345   17.707532042   23.664941500 XXXX 1      oap1    O  -0.800
O100    17.925598993   10.906836421   23.910420906 XXXX 1      oap1    O  -0.800
O101    36.779343028   31.622826041    7.225074491 XXXX 1      oap1    O  -0.800
O102    36.669200464   24.696078561    7.537025716 XXXX 1      oap1    O  -0.800
O103    36.725086760   17.464091164    8.267517358 XXXX 1      oap1    O  -0.800
O104    37.056420546   10.868571554    7.560018996 XXXX 1      oap1    O  -0.800
O105    32.204244337   31.519354280   15.625553011 XXXX 1      oap1    O  -0.800
O106    32.088128592   24.531284352   15.795995359 XXXX 1      oap1    O  -0.800
O107    32.064212147   17.650340183   15.659930927 XXXX 1      oap1    O  -0.800
O108    32.198353010   10.966905041   15.833703299 XXXX 1      oap1    O  -0.800
O109    27.436999081   31.355679369   23.915957210 XXXX 1      oap1    O  -0.800
O110    27.481939888   24.681970274   23.765926269 XXXX 1      oap1    O  -0.800
O111    27.433680627   17.670166965   23.748461834 XXXX 1      oap1    O  -0.800
O112    27.439870335   10.671679716   24.295194798 XXXX 1      oap1    O  -0.800
O113    36.738970329   31.549148589   23.736414424 XXXX 1      oap1    O  -0.800
O114    36.753986736   24.762621629   23.761676250 XXXX 1      oap1    O  -0.800
O115    36.862884155   17.793616670   23.736359871 XXXX 1      oap1    O  -0.800
O116    36.772293041   10.776364527   23.707834244 XXXX 1      oap1    O  -0.800
O117    29.395304756   33.397331640    3.515668001 XXXX 1      oap1    O  -0.675
O118    29.380988908   26.595221999    3.427572900 XXXX 1      oap1    O  -0.675
O119    26.854816950   15.037994333    2.810653589 XXXX 1      oap1    O  -0.675
O120    27.015011394   10.305468778    0.967498714 XXXX 1      oap1    O  -0.650
O121    21.739311951   31.394732258   11.065834693 XXXX 1      oap1    O  -0.800
O122    21.497671017   24.521445286   11.061421771 XXXX 1      oap1    O  -0.800
O123    21.703387180   17.786800310   11.106927612 XXXX 1      oap1    O  -0.800
O124    21.561007640   10.828050370   11.006089179 XXXX 1      oap1    O  -0.800
O125    16.932787537   31.536829527   19.324259047 XXXX 1      oap1    O  -0.800
O126    16.883714777   24.570943627   19.076254786 XXXX 1      oap1    O  -0.800
O127    16.868707588   17.581207658   19.339699795 XXXX 1      oap1    O  -0.800
O128    17.045994775   10.803717237   19.119651577 XXXX 1      oap1    O  -0.800
O129    36.798394565   31.256725840    1.044535560 XXXX 1      oap1    O  -0.650
O130    33.667778971   25.648470015    2.561584462 XXXX 1      oap1    O  -0.675
O131    35.011224140   18.120629501    2.514969866 XXXX 1      oap1    O  -0.675
O132    37.806936559    8.731062100    2.831477005 XXXX 1      oap1    O  -0.675
O133    31.001382429   31.518688052   11.118875690 XXXX 1      oap1    O  -0.800
O134    31.327174831   24.610094408   11.242850146 XXXX 1      oap1    O  -0.800
O135    31.304859478   17.772719516   11.078040199 XXXX 1      oap1    O  -0.800
O136    30.977862258   10.768921334   11.073510106 XXXX 1      oap1    O  -0.800
O137    26.371986446   31.423249842   19.340561174 XXXX 1      oap1    O  -0.800
O138    26.681257243   24.725757057   19.307519629 XXXX 1      oap1    O  -0.800
O139    26.435774378   17.796950394   19.300870683 XXXX 1      oap1    O  -0.800
O140    26.543719857   10.833604705   19.430159869 XXXX 1      oap1    O  -0.800
O141    35.688460597   31.491817187   19.252330738 XXXX 1      oap1    O  -0.800
O142    35.742776326   24.430411031   19.139598370 XXXX 1      oap1    O  -0.800
O143    35.375826472   17.557167992   19.114561294 XXXX 1      oap1    O  -0.800
O144    35.735281331   10.771410567   19.109895020 XXXX 1      oap1    O  -0.800
O145    31.633716817   31.408669017    4.033069723 XXXX 1      oap1    O  -0.800
O146    31.398334808   24.131103334    3.826034579 XXXX 1      oap1    O  -0.800
O147    31.701818213   17.433641452    4.062860864 XXXX 1      oap1    O  -0.800
O148    30.689758364   10.941297861    4.193942202 XXXX 1      oap1    O  -0.800
O149    26.164381108   31.291953715   12.362053960 XXXX 1      oap1    O  -0.800
O150    26.122681324   24.598739560   12.530735208 XXXX 1      oap1    O  -0.800
O151    26.087162472   17.776080878   12.543267857 XXXX 1      oap1    O  -0.800
O152    26.095939684   10.854641868   12.536110901 XXXX 1      oap1    O  -0.800
O153    21.538224906   31.466266869   20.549611704 XXXX 1      oap1    O  -0.800
O154    21.327873411   24.586532048   20.650483859 XXXX 1      oap1    O  -0.800
O155    21.296979384   17.813353167   20.749516547 XXXX 1      oap1    O  -0.800
O156    21.357181445   10.837039517   20.712582644 XXXX 1      oap1    O  -0.800
O157    35.447517462   31.461293902   12.591045760 XXXX 1      oap1    O  -0.800
O158    35.357578107   24.682157434   12.644497986 XXXX 1      oap1    O  -0.800
O159    35.627370987   17.734260130   12.511322271 XXXX 1      oap1    O  -0.800
O160    35.905158808   10.778491479   12.407445683 XXXX 1      oap1    O  -0.800
O161    31.041376434   31.216197772   20.584241775 XXXX 1      oap1    O  -0.800
O162    30.940202087   24.566939593   20.510570135 XXXX 1      oap1    O  -0.800
O163    31.250343828   17.561841215   20.546333510 XXXX 1      oap1    O  -0.800
O164    30.957939707   10.718104163   20.642372396 XXXX 1      oap1    O  -0.800
O165    27.723213413   29.104695280    7.673280939 XXXX 1      oap1    O  -0.800
O166    27.517509099   22.149210834    7.371561564 XXXX 1      oap1    O  -0.800
O167    27.694517213   15.283931092    7.606305435 XXXX 1      oap1    O  -0.800
O168    27.311214091    8.245971052    7.448135486 XXXX 1      oap1    O  -0.800
O169    22.699439202   28.979021940   15.762348240 XXXX 1      oap1    O  -0.800
O170    22.755770821   22.150793823   15.620498466 XXXX 1      oap1    O  -0.800
O171    22.775787507   15.246275247   15.620867971 XXXX 1      oap1    O  -0.800
O172    22.768038467    8.348799296   15.779848330 XXXX 1      oap1    O  -0.800
O173    18.174346928   28.993643452   23.906562242 XXXX 1      oap1    O  -0.800
O174    18.059016009   22.086884725   23.725467519 XXXX 1      oap1    O  -0.800
O175    18.150345213   15.296409199   23.901768922 XXXX 1      oap1    O  -0.800
O176    17.937102190    8.459549660   24.062721010 XXXX 1      oap1    O  -0.800
O177    36.739872092   29.062242918    7.447361778 XXXX 1      oap1    O  -0.800
O178    36.611848079   22.274216820    8.101506977 XXXX 1      oap1    O  -0.800
O179    36.885633319   15.069645004    7.566713731 XXXX 1      oap1    O  -0.800
O180    36.931865129    8.353252726    7.440178680 XXXX 1      oap1    O  -0.800
O181    32.124313550   28.917775124   15.627234658 XXXX 1      oap1    O  -0.800
O182    32.129085143   22.062601755   15.691720797 XXXX 1      oap1    O  -0.800
O183    32.107384612   15.289150630   15.696626921 XXXX 1      oap1    O  -0.800
O184    32.220897667    8.516629404   15.639142060 XXXX 1      oap1    O  -0.800
O185    27.339993694   28.914413134   23.851716929 XXXX 1      oap1    O  -0.800
O186    27.500810260   22.201891089   23.758123915 XXXX 1      oap1    O  -0.800
O187    27.399278052   15.256505823   23.751863971 XXXX 1      oap1    O  -0.800
O188    27.401326682    8.169668055   23.601118584 XXXX 1      oap1    O  -0.800
O189    36.780417226   29.060315977   23.992893867 XXXX 1      oap1    O  -0.800
O190    36.680963027   22.346599810   24.050396824 XXXX 1      oap1    O  -0.800
O191    36.766648986   15.388999133   24.067092448 XXXX 1      oap1    O  -0.800
O192    36.794595425    8.456357871   23.861293388 XXXX 1      oap1    O  -0.800
O193    28.837420537   33.507583458    1.147707766 XXXX 1      oap1    O  -0.650
O194    28.190750029   24.469455531    2.895535835 XXXX 1      oap1    O  -0.675
O195    26.469819000   12.585740128    2.604079898 XXXX 1      oap1    O  -0.650
O196    25.561741455    8.978234264    2.336938868 XXXX 1      oap1    O  -0.675
O197    21.849688147   29.012672550   11.064696299 XXXX 1      oap1    O  -0.800
O198    21.828753409   22.049450738   11.136642443 XXXX 1      oap1    O  -0.800
O199    21.649882105   15.220337010   11.056049050 XXXX 1      oap1    O  -0.800
O200    21.794146684    8.362522290   11.169407596 XXXX 1      oap1    O  -0.800
O201    16.913080266   29.047543950   19.263618978 XXXX 1      oap1    O  -0.800
O202    16.979973539   22.159951521   19.214651954 XXXX 1      oap1    O  -0.800
O203    16.942657678   15.100805887   19.159642020 XXXX 1      oap1    O  -0.800
O204    16.998685326    8.407765001   19.116455243 XXXX 1      oap1    O  -0.800
O205    34.968514521   29.879667341    2.094998721 XXXX 1      oap1    O  -0.675
O206    35.762022863   24.496823725    3.084898271 XXXX 1      oap1    O  -0.675
O207    37.125293047   17.434968290    1.313513162 XXXX 1      oap1    O  -0.650
O208    38.819548810    6.592295381    3.393615833 XXXX 1      oap1    O  -0.675
O209    30.885618358   29.022462470   10.902851335 XXXX 1      oap1    O  -0.800
O210    30.861058767   22.195635965   11.049210736 XXXX 1      oap1    O  -0.800
O211    30.719393417   15.366526695   10.902458643 XXXX 1      oap1    O  -0.800
O212    31.364883816    8.376265048   11.234298776 XXXX 1      oap1    O  -0.800
O213    26.222502703   28.979731370   19.164659948 XXXX 1      oap1    O  -0.800
O214    26.126012345   22.300824443   19.098018863 XXXX 1      oap1    O  -0.800
O215    26.228982754   15.283543075   19.167066466 XXXX 1      oap1    O  -0.800
O216    26.424366924    8.262811554   19.466039382 XXXX 1      oap1    O  -0.800
O217    35.744893843   28.996713477   19.330631322 XXXX 1      oap1    O  -0.800
O218    35.914088045   22.001652325   19.371302580 XXXX 1      oap1    O  -0.800
O219    35.835455020   15.120050398   19.392753575 XXXX 1      oap1    O  -0.800
O220    35.837446671    8.275263708   19.061174398 XXXX 1      oap1    O  -0.800
O221    31.052459304   29.038886039    4.260029293 XXXX 1      oap1    O  -0.800
O222    30.583038105   21.834580624    4.384090147 XXXX 1      oap1    O  -0.800
O223    31.224704042   14.987061710    4.351394211 XXXX 1      oap1    O  -0.800
O224    30.620760572    8.319936065    4.389155334 XXXX 1      oap1    O  -0.800
O225    26.284514213   28.951069169   12.582876690 XXXX 1      oap1    O  -0.800
O226    26.426070339   22.212147479   12.374365866 XXXX 1      oap1    O  -0.800
O227    26.268863896   15.236067507   12.388504645 XXXX 1      oap1    O  -0.800
O228    26.346530206    8.334780387   12.625631312 XXXX 1      oap1    O  -0.800
O229    21.728477924   29.026167122   20.585448753 XXXX 1      oap1    O  -0.800
O230    21.419517542   22.085246073   20.684503736 XXXX 1      oap1    O  -0.800
O231    21.543313706   15.345385053   20.554855067 XXXX 1      oap1    O  -0.800
O232    21.328570915    8.430014569   20.661494230 XXXX 1      oap1    O  -0.800
O233    35.640571898   29.071560624   12.372083206 XXXX 1      oap1    O  -0.800
O234    35.706484835   22.172618059   12.471729733 XXXX 1      oap1    O  -0.800
O235    35.480783305   15.215664097   12.498271475 XXXX 1      oap1    O  -0.800
O236    35.615718210    8.340374829   12.552427994 XXXX 1      oap1    O  -0.800
O237    30.763400510   28.907413146   20.726737224 XXXX 1      oap1    O  -0.800
O238    30.902126364   22.075271841   20.743280391 XXXX 1      oap1    O  -0.800
O239    30.759941819   15.163309968   20.726011580 XXXX 1      oap1    O  -0.800
O240    31.023526635    8.222156539   20.729762895 XXXX 1      oap1    O  -0.800
O241    24.603070762   32.385367354    4.731927150 XXXX 1      oap1    O  -0.800
O242    24.680080050   25.500064257    4.680466509 XXXX 1      oap1    O  -0.800
O243    24.630000587   18.680739180    4.704692374 XXXX 1      oap1    O  -0.800
O244    24.790372400   11.805404213    4.903664805 XXXX 1      oap1    O  -0.800
O245    19.645304734   32.393397428   13.266576794 XXXX 1      oap1    O  -0.800
O246    19.607445969   25.521870387   13.082230940 XXXX 1      oap1    O  -0.800
O247    19.680075362   18.592663207   13.539515679 XXXX 1      oap1    O  -0.800
O248    19.892792552   11.693701154   13.213396118 XXXX 1      oap1    O  -0.800
O249    14.955759826   32.494183782   21.242989516 XXXX 1      oap1    O  -0.800
O250    14.873294022   25.611141725   21.332156231 XXXX 1      oap1    O  -0.800
O251    15.036901735   18.818351630   21.047314083 XXXX 1      oap1    O  -0.800
O252    14.828181586   11.831469693   21.359996668 XXXX 1      oap1    O  -0.800
O253    34.108831038   32.501895685    4.669418299 XXXX 1      oap1    O  -0.800
O254    33.873783439   25.432275020    5.247987321 XXXX 1      oap1    O  -0.800
O255    33.663568427   18.720516125    5.357125921 XXXX 1      oap1    O  -0.800
O256    34.090570026   11.966100908    4.923012368 XXXX 1      oap1    O  -0.800
O257    29.035426029   32.443703508   12.960075762 XXXX 1      oap1    O  -0.800
O258    29.080885606   25.473600875   13.292591947 XXXX 1      oap1    O  -0.800
O259    29.049164794   18.565581911   13.218993816 XXXX 1      oap1    O  -0.800
O260    29.093193818   11.665553914   13.278161991 XXXX 1      oap1    O  -0.800
O261    24.305305087   32.587136096   21.120669610 XXXX 1      oap1    O  -0.800
O262    24.369811180   25.578599831   21.317633998 XXXX 1      oap1    O  -0.800
O263    24.374369431   18.748826137   21.243852705 XXXX 1      oap1    O  -0.800
O264    24.322208534   11.852029455   21.298127299 XXXX 1      oap1    O  -0.800
O265    33.701291282   32.364480270   21.496460819 XXXX 1      oap1    O  -0.800
O266    33.717791620   25.573986933   21.476823087 XXXX 1      oap1    O  -0.800
O267    33.551567021   18.727013812   21.482735462 XXXX 1      oap1    O  -0.800
O268    33.749814973   11.755354127   21.520863297 XXXX 1      oap1    O  -0.800
O269    25.377711230   32.405272816    9.371688764 XXXX 1      oap1    O  -0.800
O270    25.585125379   25.500276850    9.546863255 XXXX 1      oap1    O  -0.800
O271    25.294891979   18.646089867    9.769815239 XXXX 1      oap1    O  -0.800
O272    25.345532403   11.829712572    9.673386713 XXXX 1      oap1    O  -0.800
O273    20.671317521   32.494134217   17.791753624 XXXX 1      oap1    O  -0.800
O274    20.869431313   25.719185552   17.858467710 XXXX 1      oap1    O  -0.800
O275    20.780753131   18.806015669   17.737551714 XXXX 1      oap1    O  -0.800
O276    20.836206993   11.788211643   17.610343071 XXXX 1      oap1    O  -0.800
O277    16.270311418   32.612173173   26.258346655 XXXX 1      oap1    O  -0.800
O278    16.093571208   25.646484020   25.988111424 XXXX 1      oap1    O  -0.800
O279    16.049006421   18.842116644   25.887528483 XXXX 1      oap1    O  -0.800
O280    15.860883287   11.952945879   26.203665303 XXXX 1      oap1    O  -0.800
O281    34.659522532   32.395082206    9.773290329 XXXX 1      oap1    O  -0.800
O282    34.942106782   25.597422747    9.882355620 XXXX 1      oap1    O  -0.800
O283    34.552746415   18.546373612    9.627777761 XXXX 1      oap1    O  -0.800
O284    34.687544686   11.747875688    9.591623593 XXXX 1      oap1    O  -0.800
O285    29.820097490   32.239615251   17.709327196 XXXX 1      oap1    O  -0.800
O286    29.932828890   25.515260475   17.839640903 XXXX 1      oap1    O  -0.800
O287    29.684946838   18.414537423   17.915639625 XXXX 1      oap1    O  -0.800
O288    30.043810977   11.727285694   17.756763384 XXXX 1      oap1    O  -0.800
O289    25.298082045   32.438440499   26.072893124 XXXX 1      oap1    O  -0.800
O290    25.302382136   25.679151908   26.018620812 XXXX 1      oap1    O  -0.800
O291    25.329881276   18.757337155   25.949885697 XXXX 1      oap1    O  -0.800
O292    25.359218443   11.728185052   25.879111601 XXXX 1      oap1    O  -0.800
O293    34.770603263   32.471558063   25.770923507 XXXX 1      oap1    O  -0.800
O294    34.798664158   25.592532165   26.176504164 XXXX 1      oap1    O  -0.800
O295    34.891410884   18.858638621   25.996874100 XXXX 1      oap1    O  -0.800
O296    34.833905678   11.855136393   25.974352090 XXXX 1      oap1    O  -0.800
O297    20.582029138   32.511985980    8.223149563 XXXX 1      oap1    O  -0.800
O298    20.885728957   25.544143075    8.371424971 XXXX 1      oap1    O  -0.800
O299    20.187813122   18.982150116    8.224392411 XXXX 1      oap1    O  -0.800
O300    20.776805264   11.930735433    8.306535360 XXXX 1      oap1    O  -0.800
O301    15.919022188   32.496867259   16.436785174 XXXX 1      oap1    O  -0.800
O302    16.253363226   25.518235470   16.230788616 XXXX 1      oap1    O  -0.800
O303    16.292548149   18.732160184   16.360457529 XXXX 1      oap1    O  -0.800
O304    16.187532868   11.865455414   16.474953834 XXXX 1      oap1    O  -0.800
O305    11.561055096   32.382155132   24.569783983 XXXX 1      oap1    O  -0.800
O306    11.534377654   25.564868240   24.550848472 XXXX 1      oap1    O  -0.800
O307    11.631078715   18.598840609   24.600064601 XXXX 1      oap1    O  -0.800
O308    11.448779266   11.852282193   24.528280663 XXXX 1      oap1    O  -0.800
O309    30.389123043   32.448196665    8.055220292 XXXX 1      oap1    O  -0.800
O310    30.305064217   25.714816278    8.316013590 XXXX 1      oap1    O  -0.800
O311    29.661262087   19.009906547    8.418809493 XXXX 1      oap1    O  -0.800
O312    30.323630428   11.776095653    8.164807312 XXXX 1      oap1    O  -0.800
O313    25.661155165   32.438574050   16.429645325 XXXX 1      oap1    O  -0.800
O314    25.413716096   25.633408979   16.325175810 XXXX 1      oap1    O  -0.800
O315    25.333421727   18.729813451   16.504432406 XXXX 1      oap1    O  -0.800
O316    25.557590837   11.856298525   16.538470700 XXXX 1      oap1    O  -0.800
O317    20.794376905   32.469866168   24.609944814 XXXX 1      oap1    O  -0.800
O318    20.965700971   25.552248847   24.667102816 XXXX 1      oap1    O  -0.800
O319    20.901641294   18.653654449   24.433777764 XXXX 1      oap1    O  -0.800
O320    20.853675247   11.752745431   24.514274772 XXXX 1      oap1    O  -0.800
O321    34.941437838   32.388245095   16.307212468 XXXX 1      oap1    O  -0.800
O322    35.123625704   25.425434599   16.244011528 XXXX 1      oap1    O  -0.800
O323    35.010600031   18.455726141   16.202508326 XXXX 1      oap1    O  -0.800
O324    35.246688983   11.781246386   16.381437403 XXXX 1      oap1    O  -0.800
O325    30.407475638   32.392614080   24.581769349 XXXX 1      oap1    O  -0.800
O326    30.330787268   25.616082456   24.591196530 XXXX 1      oap1    O  -0.800
O327    30.287152956   18.723745479   24.627546924 XXXX 1      oap1    O  -0.800
O328    30.245313729   11.786168754   24.533144280 XXXX 1      oap1    O  -0.800
Ca1     28.497184449   35.257488631    4.814252352 XXXX 1      ca+h    Ca  1.500
Ca2     28.479038693   28.514572967    4.774731971 XXXX 1      ca+h    Ca  1.500
Ca3     28.319663529   21.629460637    5.216655967 XXXX 1      ca+h    Ca  1.500
Ca4     28.442438256   15.063392809    5.146373048 XXXX 1      ca+h    Ca  1.500
Ca5     23.613852852   35.245119209   13.094702284 XXXX 1      ca+h    Ca  1.500
Ca6     23.656166249   28.482197994   12.983822634 XXXX 1      ca+h    Ca  1.500
Ca7     23.493364927   21.621777404   13.133534026 XXXX 1      ca+h    Ca  1.500
Ca8     23.580826247   14.682380775   13.053701496 XXXX 1      ca+h    Ca  1.500
Ca9     18.770211592   35.410801094   21.185590142 XXXX 1      ca+h    Ca  1.500
Ca10    18.850174669   28.551612062   21.250988915 XXXX 1      ca+h    Ca  1.500
Ca11    18.773315451   21.759853710   21.339686699 XXXX 1      ca+h    Ca  1.500
Ca12    18.847167848   14.670423862   21.135570144 XXXX 1      ca+h    Ca  1.500
Ca13    32.731471412   35.493445675   13.252856233 XXXX 1      ca+h    Ca  1.500
Ca14    32.948745483   28.455879654   13.228199026 XXXX 1      ca+h    Ca  1.500
Ca15    32.861237730   21.584980306   13.054714390 XXXX 1      ca+h    Ca  1.500
Ca16    32.984165686   14.634773890   12.961051217 XXXX 1      ca+h    Ca  1.500
Ca17    28.257836916   35.312814338   21.439544934 XXXX 1      ca+h    Ca  1.500
Ca18    28.174750537   28.526506515   21.381220459 XXXX 1      ca+h    Ca  1.500
Ca19    28.194622706   21.681884597   21.226899420 XXXX 1      ca+h    Ca  1.500
Ca20    28.346344228   14.674632847   21.270311694 XXXX 1      ca+h    Ca  1.500
Ca21    23.785944212   31.811845647    7.456445395 XXXX 1      ca+h    Ca  1.500
Ca22    23.462645992   25.004517095    7.756696219 XXXX 1      ca+h    Ca  1.500
Ca23    23.863099861   18.147367396    7.750506719 XXXX 1      ca+h    Ca  1.500
Ca24    23.653301405   11.302979698    7.841996791 XXXX 1      ca+h    Ca  1.500
Ca25    18.803660985   31.882848661   15.844839262 XXXX 1      ca+h    Ca  1.500
Ca26    18.845836565   24.965836821   15.713043902 XXXX 1      ca+h    Ca  1.500
Ca27    18.739261388   18.195777106   15.698958215 XXXX 1      ca+h    Ca  1.500
Ca28    18.895226342   11.377635969   15.673341412 XXXX 1      ca+h    Ca  1.500
Ca29    14.284888593   31.863446916   23.868456674 XXXX 1      ca+h    Ca  1.500
Ca30    14.139657600   24.986210226   23.796714940 XXXX 1      ca+h    Ca  1.500
Ca31    14.014469144   18.246702904   24.211186565 XXXX 1      ca+h    Ca  1.500
Ca32    13.937197091   11.447867118   23.868507824 XXXX 1      ca+h    Ca  1.500
Ca33    32.789420619   31.985341520    7.566530252 XXXX 1      ca+h    Ca  1.500
Ca34    32.812333675   25.145076296    7.569015993 XXXX 1      ca+h    Ca  1.500
Ca35    33.306107761   18.046562322    7.620205045 XXXX 1      ca+h    Ca  1.500
Ca36    33.043167956   11.316496011    7.552488737 XXXX 1      ca+h    Ca  1.500
Ca37    28.209315600   31.781549960   15.773439405 XXXX 1      ca+h    Ca  1.500
Ca38    28.334781330   24.992352415   15.817500249 XXXX 1      ca+h    Ca  1.500
Ca39    28.404419682   18.186246383   15.843284245 XXXX 1      ca+h    Ca  1.500
Ca40    28.353483092   11.296733142   15.958517128 XXXX 1      ca+h    Ca  1.500
Ca41    23.482029714   31.924395027   24.128730456 XXXX 1      ca+h    Ca  1.500
Ca42    23.464104530   25.223315851   24.077928069 XXXX 1      ca+h    Ca  1.500
Ca43    23.548663162   18.304495826   24.016071518 XXXX 1      ca+h    Ca  1.500
Ca44    23.537223342   11.213005060   24.071371389 XXXX 1      ca+h    Ca  1.500
Ca45    33.002896589   31.978475714   23.827010559 XXXX 1      ca+h    Ca  1.500
Ca46    32.903696988   25.197588474   24.027827424 XXXX 1      ca+h    Ca  1.500
Ca47    32.746939250   18.146637842   23.848519393 XXXX 1      ca+h    Ca  1.500
Ca48    32.804279791   11.305460560   23.875141905 XXXX 1      ca+h    Ca  1.500
Ca49    23.473535049   28.552969486    7.500485318 XXXX 1      ca+h    Ca  1.500
Ca50    23.515489995   21.604912714    7.738365398 XXXX 1      ca+h    Ca  1.500
Ca51    23.429943042   14.761761932    7.853223803 XXXX 1      ca+h    Ca  1.500
Ca52    23.645226251    7.808354807    7.675814436 XXXX 1      ca+h    Ca  1.500
Ca53    18.822469344   28.486841659   15.694642436 XXXX 1      ca+h    Ca  1.500
Ca54    18.793138698   21.619976555   15.828825543 XXXX 1      ca+h    Ca  1.500
Ca55    18.931951955   14.840364784   15.818161603 XXXX 1      ca+h    Ca  1.500
Ca56    18.992770783    7.863677509   15.686330943 XXXX 1      ca+h    Ca  1.500
Ca57    14.167777382   28.405839198   23.929957123 XXXX 1      ca+h    Ca  1.500
Ca58    14.200123272   21.625980826   23.933253783 XXXX 1      ca+h    Ca  1.500
Ca59    14.136951106   14.870937772   23.841891214 XXXX 1      ca+h    Ca  1.500
Ca60    14.207726105    7.927739055   24.028768193 XXXX 1      ca+h    Ca  1.500
Ca61    32.975900601   28.571173111    7.751613288 XXXX 1      ca+h    Ca  1.500
Ca62    32.866561751   21.638195931    7.871423640 XXXX 1      ca+h    Ca  1.500
Ca63    32.900991422   14.631087404    7.658635848 XXXX 1      ca+h    Ca  1.500
Ca64    33.054473770    8.039986621    7.287312681 XXXX 1      ca+h    Ca  1.500
Ca65    28.290757057   28.542479315   15.591978281 XXXX 1      ca+h    Ca  1.500
Ca66    28.131974155   21.725480737   15.826633613 XXXX 1      ca+h    Ca  1.500
Ca67    28.173622486   14.696299015   15.840525969 XXXX 1      ca+h    Ca  1.500
Ca68    28.156923661    7.948173331   15.925267425 XXXX 1      ca+h    Ca  1.500
Ca69    23.489298351   28.572675165   24.013662975 XXXX 1      ca+h    Ca  1.500
Ca70    23.611336981   21.652579742   23.997439684 XXXX 1      ca+h    Ca  1.500
Ca71    23.550078736   14.802934631   23.902345900 XXXX 1      ca+h    Ca  1.500
Ca72    23.523824083    7.769187226   23.912411953 XXXX 1      ca+h    Ca  1.500
Ca73    32.950579988   28.612021908   24.141116546 XXXX 1      ca+h    Ca  1.500
Ca74    32.903781470   21.683375911   23.987264576 XXXX 1      ca+h    Ca  1.500
Ca75    32.884677584   14.751133333   23.983764584 XXXX 1      ca+h    Ca  1.500
Ca76    33.006248846    7.865905085   23.848412748 XXXX 1      ca+h    Ca  1.500
Ca77    27.757252564   31.972115805    4.856248320 XXXX 1      ca+h    Ca  1.500
Ca78    27.915112130   25.192502571    5.150850523 XXXX 1      ca+h    Ca  1.500
Ca79    28.298981021   11.428392649    4.824076168 XXXX 1      ca+h    Ca  1.500
Ca80    23.532468017   31.874996591   12.908390399 XXXX 1      ca+h    Ca  1.500
Ca81    23.633837608   25.114570573   13.151835630 XXXX 1      ca+h    Ca  1.500
Ca82    23.610878401   18.065684851   13.060770300 XXXX 1      ca+h    Ca  1.500
Ca83    23.531842213   11.255457651   13.085564271 XXXX 1      ca+h    Ca  1.500
Ca84    18.834147088   32.005512375   21.194018063 XXXX 1      ca+h    Ca  1.500
Ca85    19.031795487   25.136362383   21.322959308 XXXX 1      ca+h    Ca  1.500
Ca86    18.864288600   18.078471555   21.184612833 XXXX 1      ca+h    Ca  1.500
Ca87    19.046495655   11.354800299   21.246290755 XXXX 1      ca+h    Ca  1.500
Ca88    32.946239223   31.918931762   13.048887131 XXXX 1      ca+h    Ca  1.500
Ca89    32.933937704   25.038873915   12.965970075 XXXX 1      ca+h    Ca  1.500
Ca90    32.808467137   18.104888238   13.059544259 XXXX 1      ca+h    Ca  1.500
Ca91    32.964959922   11.248918476   13.078730549 XXXX 1      ca+h    Ca  1.500
Ca92    28.075492250   31.850545959   21.249119230 XXXX 1      ca+h    Ca  1.500
Ca93    28.162620147   25.197083496   21.309517380 XXXX 1      ca+h    Ca  1.500
Ca94    27.847035215   18.168140290   21.119331790 XXXX 1      ca+h    Ca  1.500
Ca95    28.170104433   11.297859749   21.241903043 XXXX 1      ca+h    Ca  1.500
Ca96    22.280729038   33.347727111    4.327761714 XXXX 1      ca+h    Ca  1.500
Ca97    22.477382828   26.801833876    4.138510191 XXXX 1      ca+h    Ca  1.500
Ca98    22.360093998   12.878833871    4.309131928 XXXX 1      ca+h    Ca  1.500
Ca99    17.566311416   33.759152425   12.381185680 XXXX 1      ca+h    Ca  1.500
Ca100   17.551264497   26.842587096   12.154087837 XXXX 1      ca+h    Ca  1.500
Ca101   17.676551689   19.992083307   12.167224655 XXXX 1      ca+h    Ca  1.500
Ca102   17.674576311   13.058173592   12.164285984 XXXX 1      ca+h    Ca  1.500
Ca103   12.783404834   33.628285228   20.555955399 XXXX 1      ca+h    Ca  1.500
Ca104   12.713164815   26.673340615   20.477069107 XXXX 1      ca+h    Ca  1.500
Ca105   13.015811818   19.907288102   20.503385337 XXXX 1      ca+h    Ca  1.500
Ca106   12.887607423   13.120817106   20.485623872 XXXX 1      ca+h    Ca  1.500
Ca107   31.953347016   33.739772750    4.071154712 XXXX 1      ca+h    Ca  1.500
Ca108   31.901331188   26.463685828    3.916417455 XXXX 1      ca+h    Ca  1.500
Ca109   31.553276300   19.606918820    4.590544200 XXXX 1      ca+h    Ca  1.500
Ca110   32.019034958   12.842376237    4.146923428 XXXX 1      ca+h    Ca  1.500
Ca111   26.941765205   33.532579359   12.235118914 XXXX 1      ca+h    Ca  1.500
Ca112   26.969998638   26.774183988   12.329241243 XXXX 1      ca+h    Ca  1.500
Ca113   26.786252779   19.909601226   12.414532012 XXXX 1      ca+h    Ca  1.500
Ca114   26.982436689   13.082064527   12.481755516 XXXX 1      ca+h    Ca  1.500
Ca115   22.308790677   33.708829233   20.463291958 XXXX 1      ca+h    Ca  1.500
Ca116   22.294681038   26.753935208   20.220230080 XXXX 1      ca+h    Ca  1.500
Ca117   22.257268254   19.896591099   20.420043786 XXXX 1      ca+h    Ca  1.500
Ca118   22.250399838   13.028053898   20.492412905 XXXX 1      ca+h    Ca  1.500
Ca119   36.219675568   33.848331148   12.456022808 XXXX 1      ca+h    Ca  1.500
Ca120   36.331182521   26.816199463   12.364554496 XXXX 1      ca+h    Ca  1.500
Ca121   36.390853833   19.878147427   12.343206132 XXXX 1      ca+h    Ca  1.500
Ca122   36.372343330   13.142898387   12.327554323 XXXX 1      ca+h    Ca  1.500
Ca123   31.706259940   33.546352403   20.446146275 XXXX 1      ca+h    Ca  1.500
Ca124   31.703598896   26.755607445   20.498914417 XXXX 1      ca+h    Ca  1.500
Ca125   31.505433265   19.840730674   20.418407918 XXXX 1      ca+h    Ca  1.500
Ca126   31.632206642   12.957371900   20.394157522 XXXX 1      ca+h    Ca  1.500
P1      25.172746338   33.708779408    5.257884874 XXXX 1      pap     P   1.000
P2      25.146839916   26.743993232    5.455554667 XXXX 1      pap     P   1.000
P3      25.053040223   20.039094963    5.295616511 XXXX 1      pap     P   1.000
P4      25.270604033   13.099564383    5.532192951 XXXX 1      pap     P   1.000
P5      20.403980784   33.639612872   13.610517150 XXXX 1      pap     P   1.000
P6      20.436885801   26.744912209   13.557413227 XXXX 1      pap     P   1.000
P7      20.491382369   19.894092241   13.688112342 XXXX 1      pap     P   1.000
P8      20.496608939   12.999359478   13.643295334 XXXX 1      pap     P   1.000
P9      15.801822224   33.626351344   21.754906279 XXXX 1      pap     P   1.000
P10     15.771620422   26.758553313   21.771858803 XXXX 1      pap     P   1.000
P11     15.806493013   19.935668898   21.689981465 XXXX 1      pap     P   1.000
P12     15.655605932   13.022528164   21.876443344 XXXX 1      pap     P   1.000
P13     34.667678332   33.750153549    5.387025409 XXXX 1      pap     P   1.000
P14     34.629623324   26.702738057    5.568581991 XXXX 1      pap     P   1.000
P15     34.474256624   20.038706429    5.487597611 XXXX 1      pap     P   1.000
P16     34.858759877   13.163122221    5.495855027 XXXX 1      pap     P   1.000
P17     29.783212126   33.624788917   13.589307589 XXXX 1      pap     P   1.000
P18     29.824587664   26.757422178   13.658903561 XXXX 1      pap     P   1.000
P19     29.771692810   19.856502608   13.635919404 XXXX 1      pap     P   1.000
P20     29.902946035   12.969409332   13.690602531 XXXX 1      pap     P   1.000
P21     25.082942422   33.715032932   21.822948501 XXXX 1      pap     P   1.000
P22     25.108275042   26.840415030   21.817255655 XXXX 1      pap     P   1.000
P23     25.121979659   20.056273944   21.761865426 XXXX 1      pap     P   1.000
P24     25.081762431   13.041599783   21.844964562 XXXX 1      pap     P   1.000
P25     34.506668248   33.671992880   21.747536626 XXXX 1      pap     P   1.000
P26     34.545321586   26.865946126   21.758090226 XXXX 1      pap     P   1.000
P27     34.429164624   19.945615286   21.764063635 XXXX 1      pap     P   1.000
P28     34.567515540   12.994475476   21.845607505 XXXX 1      pap     P   1.000
O329    25.086093530   33.653302011    6.769010929 XXXX 1      oap1    O  -0.800
O330    25.110853254   26.529886682    6.950083857 XXXX 1      oap1    O  -0.800
O331    25.111810694   19.956090219    6.851970788 XXXX 1      oap1    O  -0.800
O332    24.962012077   13.138878408    7.065417766 XXXX 1      oap1    O  -0.800
O333    20.267587910   33.790457791   15.155061022 XXXX 1      oap1    O  -0.800
O334    20.352677952   26.689539840   15.118596630 XXXX 1      oap1    O  -0.800
O335    20.459234984   20.091108365   15.185196425 XXXX 1      oap1    O  -0.800
O336    20.424121819   13.143766992   15.167716915 XXXX 1      oap1    O  -0.800
O337    15.945107950   33.526701472   23.279321958 XXXX 1      oap1    O  -0.800
O338    15.784983857   26.733334529   23.339685229 XXXX 1      oap1    O  -0.800
O339    15.737218978   19.885067797   23.220948900 XXXX 1      oap1    O  -0.800
O340    15.602059331   13.145786282   23.405385999 XXXX 1      oap1    O  -0.800
O341    34.256103645   33.627678409    6.780213024 XXXX 1      oap1    O  -0.800
O342    34.540321926   26.930027391    7.027857115 XXXX 1      oap1    O  -0.800
O343    34.475391721   20.171976580    7.057337591 XXXX 1      oap1    O  -0.800
O344    34.630629380   13.116142974    7.022451425 XXXX 1      oap1    O  -0.800
O345    29.745173439   33.528285797   15.138918607 XXXX 1      oap1    O  -0.800
O346    30.039814830   26.818439090   15.152877234 XXXX 1      oap1    O  -0.800
O347    29.985235161   19.727475153   15.138428928 XXXX 1      oap1    O  -0.800
O348    29.934049605   12.937410328   15.262066964 XXXX 1      oap1    O  -0.800
O349    24.996118163   33.532131907   23.347404228 XXXX 1      oap1    O  -0.800
O350    25.221859463   26.740448966   23.391672316 XXXX 1      oap1    O  -0.800
O351    25.250420421   19.951949317   23.273021273 XXXX 1      oap1    O  -0.800
O352    25.189101047   12.856118308   23.333991497 XXXX 1      oap1    O  -0.800
O353    34.646663925   33.737674304   23.286419892 XXXX 1      oap1    O  -0.800
O354    34.572902216   27.145921997   23.327118739 XXXX 1      oap1    O  -0.800
O355    34.480541153   20.057616599   23.313204466 XXXX 1      oap1    O  -0.800
O356    34.613828879   13.091761921   23.328008441 XXXX 1      oap1    O  -0.800
O357    26.617733549   33.961922016    4.697598272 XXXX 1      oap1    O  -0.800
O358    26.592874674   27.095080800    5.174596260 XXXX 1      oap1    O  -0.800
O359    26.435773951   20.511314759    4.744780412 XXXX 1      oap1    O  -0.800
O360    26.762976181   13.175627940    5.282197403 XXXX 1      oap1    O  -0.800
O361    21.940329091   33.627697641   13.165283798 XXXX 1      oap1    O  -0.800
O362    21.873784171   26.700367519   13.084779455 XXXX 1      oap1    O  -0.800
O363    21.957346738   19.727736453   13.155473843 XXXX 1      oap1    O  -0.800
O364    21.965119356   12.923659065   13.145165565 XXXX 1      oap1    O  -0.800
O365    17.176977395   33.605983314   21.131653919 XXXX 1      oap1    O  -0.800
O366    17.196415921   26.786637298   21.197243422 XXXX 1      oap1    O  -0.800
O367    17.321084821   19.877347647   21.171789817 XXXX 1      oap1    O  -0.800
O368    17.092841451   12.983745143   21.415533083 XXXX 1      oap1    O  -0.800
O369    36.189358487   33.812256991    5.288763480 XXXX 1      oap1    O  -0.800
O370    36.114055728   26.713886551    5.028772669 XXXX 1      oap1    O  -0.800
O371    35.873935342   19.892702427    4.934512144 XXXX 1      oap1    O  -0.800
O372    36.380850296   13.147491027    5.154618290 XXXX 1      oap1    O  -0.800
O373    31.154009464   33.818461359   12.931301853 XXXX 1      oap1    O  -0.800
O374    31.168518603   26.918103710   12.918209275 XXXX 1      oap1    O  -0.800
O375    31.119298655   20.047906841   12.952589005 XXXX 1      oap1    O  -0.800
O376    31.318851031   13.059884799   13.012906995 XXXX 1      oap1    O  -0.800
O377    26.526245513   33.678476884   21.266580444 XXXX 1      oap1    O  -0.800
O378    26.493689966   27.030626384   21.110346061 XXXX 1      oap1    O  -0.800
O379    26.487115603   20.098893557   21.040732788 XXXX 1      oap1    O  -0.800
O380    26.459600750   13.134200420   21.107637272 XXXX 1      oap1    O  -0.800
O381    35.900792736   33.648051184   21.001607504 XXXX 1      oap1    O  -0.800
O382    35.989409890   26.808771363   21.219109456 XXXX 1      oap1    O  -0.800
O383    35.847358320   19.752031962   21.168258266 XXXX 1      oap1    O  -0.800
O384    35.928037913   13.038556299   21.125056925 XXXX 1      oap1    O  -0.800
Ca127   27.086453006   33.591273898    8.197663822 XXXX 1      ca+h    Ca  1.500
Ca128   27.070711156   26.752875938    8.181992716 XXXX 1      ca+h    Ca  1.500
Ca129   27.216595279   19.887382255    8.284325116 XXXX 1      ca+h    Ca  1.500
Ca130   27.094659137   13.117862916    8.227519758 XXXX 1      ca+h    Ca  1.500
Ca131   22.335729803   33.580944329   16.289655113 XXXX 1      ca+h    Ca  1.500
Ca132   22.417405983   26.696112927   16.348117038 XXXX 1      ca+h    Ca  1.500
Ca133   22.508381269   19.873832745   16.432920303 XXXX 1      ca+h    Ca  1.500
Ca134   22.539931304   12.962314093   16.260500498 XXXX 1      ca+h    Ca  1.500
Ca135   17.818215585   33.700411126   24.711352315 XXXX 1      ca+h    Ca  1.500
Ca136   17.683349942   26.844604399   24.741024656 XXXX 1      ca+h    Ca  1.500
Ca137   17.723481951   19.849491447   24.534373216 XXXX 1      ca+h    Ca  1.500
Ca138   17.607650659   13.070289296   24.744023252 XXXX 1      ca+h    Ca  1.500
Ca139   36.292876026   33.653808656    8.347668426 XXXX 1      ca+h    Ca  1.500
Ca140   36.632517468   26.847407681    8.515680761 XXXX 1      ca+h    Ca  1.500
Ca141   36.582935577   19.795143239    8.021543799 XXXX 1      ca+h    Ca  1.500
Ca142   36.575996154   12.913162190    8.442898721 XXXX 1      ca+h    Ca  1.500
Ca143   31.820800469   33.749998998   16.402935474 XXXX 1      ca+h    Ca  1.500
Ca144   31.939498418   26.748535752   16.471051899 XXXX 1      ca+h    Ca  1.500
Ca145   31.963208796   19.806458905   16.422605462 XXXX 1      ca+h    Ca  1.500
Ca146   31.957060583   13.152847918   16.592537830 XXXX 1      ca+h    Ca  1.500
Ca147   27.100897563   33.678137886   24.651845236 XXXX 1      ca+h    Ca  1.500
Ca148   27.116550624   26.769343787   24.682492270 XXXX 1      ca+h    Ca  1.500
Ca149   27.161998995   19.921665092   24.590171596 XXXX 1      ca+h    Ca  1.500
Ca150   27.233294204   12.988187355   24.640284358 XXXX 1      ca+h    Ca  1.500
Ca151   36.579496926   33.679689063   24.536838591 XXXX 1      ca+h    Ca  1.500
Ca152   36.563108839   26.897709687   24.668265752 XXXX 1      ca+h    Ca  1.500
Ca153   36.486847517   19.982224011   24.670670032 XXXX 1      ca+h    Ca  1.500
Ca154   36.638593149   13.162228295   24.673394000 XXXX 1      ca+h    Ca  1.500
P29     24.558466025   33.567848574    9.963618628 XXXX 1      pap     P   1.000
P30     24.762946498   26.693455251   10.079001955 XXXX 1      pap     P   1.000
P31     24.566794707   19.942531846   10.197924264 XXXX 1      pap     P   1.000
P32     24.567892160   13.011201557   10.258315550 XXXX 1      pap     P   1.000
P33     19.833683190   33.675700483   18.219423166 XXXX 1      pap     P   1.000
P34     19.875619519   26.814528555   18.264326775 XXXX 1      pap     P   1.000
P35     19.949302046   19.926026741   18.264481589 XXXX 1      pap     P   1.000
P36     19.987217697   13.009356062   18.098880236 XXXX 1      pap     P   1.000
P37     15.270366494   33.650063930   26.509453704 XXXX 1      pap     P   1.000
P38     15.170836624   26.805547334   26.443553488 XXXX 1      pap     P   1.000
P39     15.246600792   20.096223550   26.356032839 XXXX 1      pap     P   1.000
P40     15.106625533   13.222383463   26.525958439 XXXX 1      pap     P   1.000
P41     33.910547783   33.680210917   10.118519732 XXXX 1      pap     P   1.000
P42     33.980394423   26.735412515   10.148475905 XXXX 1      pap     P   1.000
P43     33.992715819   19.869946904   10.204995082 XXXX 1      pap     P   1.000
P44     34.013211720   12.942369148   10.164003330 XXXX 1      pap     P   1.000
P45     29.305429805   33.542128505   18.364487738 XXXX 1      pap     P   1.000
P46     29.362477211   26.825786231   18.290402299 XXXX 1      pap     P   1.000
P47     29.185651703   19.822984416   18.329460298 XXXX 1      pap     P   1.000
P48     29.319432796   12.965359367   18.338648892 XXXX 1      pap     P   1.000
P49     24.590834504   33.725503202   26.506679480 XXXX 1      pap     P   1.000
P50     24.596357129   27.017623883   26.533388524 XXXX 1      pap     P   1.000
P51     24.771349438   20.053173523   26.511242224 XXXX 1      pap     P   1.000
P52     24.695907185   13.047901123   26.406998244 XXXX 1      pap     P   1.000
P53     33.945962705   33.677017071   26.303041707 XXXX 1      pap     P   1.000
P54     34.007613359   26.835979056   26.483292380 XXXX 1      pap     P   1.000
P55     33.963851643   19.983829518   26.354188732 XXXX 1      pap     P   1.000
P56     34.002350468   13.164497419   26.453790245 XXXX 1      pap     P   1.000
O385    23.187288762   33.520625332    9.309724974 XXXX 1      oap1    O  -0.800
O386    23.387651480   26.565613511    9.402426266 XXXX 1      oap1    O  -0.800
O387    23.124276677   19.910006394    9.551008487 XXXX 1      oap1    O  -0.800
O388    23.143768518   13.108235887    9.600365196 XXXX 1      oap1    O  -0.800
O389    18.454390446   33.379833583   17.664198632 XXXX 1      oap1    O  -0.800
O390    18.580913841   26.686907295   17.448445150 XXXX 1      oap1    O  -0.800
O391    18.573875728   19.784795248   17.515014048 XXXX 1      oap1    O  -0.800
O392    18.589554044   12.985008737   17.448895395 XXXX 1      oap1    O  -0.800
O393    14.013410313   33.440721925   25.682115712 XXXX 1      oap1    O  -0.800
O394    13.799176540   26.768868019   25.736785294 XXXX 1      oap1    O  -0.800
O395    13.820549985   20.084206269   25.819850285 XXXX 1      oap1    O  -0.800
O396    13.910357200   13.280553750   25.556970078 XXXX 1      oap1    O  -0.800
O397    32.599839314   33.630775909    9.384158490 XXXX 1      oap1    O  -0.800
O398    32.593487111   26.478361435    9.431447061 XXXX 1      oap1    O  -0.800
O399    32.581261024   20.125841359    9.592450938 XXXX 1      oap1    O  -0.800
O400    32.652399497   13.006054716    9.432378924 XXXX 1      oap1    O  -0.800
O401    27.921062370   33.691114784   17.740350427 XXXX 1      oap1    O  -0.800
O402    28.017583787   27.049314462   17.517148006 XXXX 1      oap1    O  -0.800
O403    27.882932647   20.005489316   17.508902349 XXXX 1      oap1    O  -0.800
O404    27.954212334   13.082743411   17.642331052 XXXX 1      oap1    O  -0.800
O405    23.273555593   33.797628826   25.756482232 XXXX 1      oap1    O  -0.800
O406    23.199034917   27.033676014   25.879579489 XXXX 1      oap1    O  -0.800
O407    23.335362102   20.032170343   25.936094655 XXXX 1      oap1    O  -0.800
O408    23.464426813   13.144571320   25.569017158 XXXX 1      oap1    O  -0.800
O409    32.629903373   33.682578686   25.504869452 XXXX 1      oap1    O  -0.800
O410    32.656723995   26.756565219   25.720292301 XXXX 1      oap1    O  -0.800
O411    32.618209631   19.881374407   25.616648869 XXXX 1      oap1    O  -0.800
O412    32.645678673   13.103399652   25.715517824 XXXX 1      oap1    O  -0.800
O413    24.523589325   33.587284157   11.547639954 XXXX 1      oap1    O  -0.800
O414    24.615771696   26.669517712   11.621122003 XXXX 1      oap1    O  -0.800
O415    24.590550476   20.012016542   11.727200077 XXXX 1      oap1    O  -0.800
O416    24.561813457   12.962722966   11.766944672 XXXX 1      oap1    O  -0.800
O417    19.760966455   33.792138576   19.769537297 XXXX 1      oap1    O  -0.800
O418    19.716672274   26.910151519   19.817163073 XXXX 1      oap1    O  -0.800
O419    19.857810737   19.821128504   19.787937530 XXXX 1      oap1    O  -0.800
O420    19.862630536   12.956846023   19.633772871 XXXX 1      oap1    O  -0.800
O421    14.954494783   33.729873248   28.027434357 XXXX 1      oap1    O  -0.800
O422    15.130012220   26.832233482   27.978864757 XXXX 1      oap1    O  -0.800
O423    15.380473738   20.262178241   27.938393072 XXXX 1      oap1    O  -0.800
O424    14.737557647   13.270837469   28.030182645 XXXX 1      oap1    O  -0.800
O425    33.697709932   33.773556837   11.709365688 XXXX 1      oap1    O  -0.800
O426    33.802288754   26.877885477   11.660015234 XXXX 1      oap1    O  -0.800
O427    33.911757696   19.885344709   11.759825472 XXXX 1      oap1    O  -0.800
O428    33.897350727   12.809693560   11.704504000 XXXX 1      oap1    O  -0.800
O429    29.209009005   33.459522579   19.910010090 XXXX 1      oap1    O  -0.800
O430    29.193768766   26.923332927   19.847123658 XXXX 1      oap1    O  -0.800
O431    28.984315233   19.854224642   19.860447042 XXXX 1      oap1    O  -0.800
O432    29.304308675   12.896623800   19.871006660 XXXX 1      oap1    O  -0.800
O433    24.403654779   33.677390554   28.032900615 XXXX 1      oap1    O  -0.800
O434    24.453205315   26.991678693   28.107620546 XXXX 1      oap1    O  -0.800
O435    24.739154836   20.082051726   28.044294462 XXXX 1      oap1    O  -0.800
O436    24.457536015   12.968995394   27.935389999 XXXX 1      oap1    O  -0.800
O437    33.826136118   33.653850178   27.871344045 XXXX 1      oap1    O  -0.800
O438    33.747626396   26.943604304   28.024236212 XXXX 1      oap1    O  -0.800
O439    33.795156383   19.954362826   27.868273386 XXXX 1      oap1    O  -0.800
O440    33.873532702   13.213236779   28.009515483 XXXX 1      oap1    O  -0.800
Ca155   21.019035275   33.662471638   10.483199811 XXXX 1      ca+h    Ca  1.500
Ca156   21.213059485   26.874352615   10.470668350 XXXX 1      ca+h    Ca  1.500
Ca157   20.994030441   19.896363691   10.559491480 XXXX 1      ca+h    Ca  1.500
Ca158   20.874920511   12.989491745   10.517574184 XXXX 1      ca+h    Ca  1.500
Ca159   16.274114081   33.661096598   18.657116231 XXXX 1      ca+h    Ca  1.500
Ca160   16.539627414   26.736059734   18.416291835 XXXX 1      ca+h    Ca  1.500
Ca161   16.442638959   19.845865482   18.693361603 XXXX 1      ca+h    Ca  1.500
Ca162   16.405430554   12.959250096   18.564477534 XXXX 1      ca+h    Ca  1.500
Ca163   11.895203057   33.649319392   26.652717915 XXXX 1      ca+h    Ca  1.500
Ca164   11.676032355   26.764455035   26.828786745 XXXX 1      ca+h    Ca  1.500
Ca165   11.692929413   19.996935111   26.856638867 XXXX 1      ca+h    Ca  1.500
Ca166   11.560920234   13.097328564   26.785929132 XXXX 1      ca+h    Ca  1.500
Ca167   30.580087999   33.763744558   10.482153520 XXXX 1      ca+h    Ca  1.500
Ca168   30.466903685   26.680746068   10.525681112 XXXX 1      ca+h    Ca  1.500
Ca169   30.442467815   19.914228356   10.491384815 XXXX 1      ca+h    Ca  1.500
Ca170   30.479796275   12.919885498   10.366145220 XXXX 1      ca+h    Ca  1.500
Ca171   25.750649807   33.526877073   18.610289146 XXXX 1      ca+h    Ca  1.500
Ca172   25.857544192   26.784941422   18.574542882 XXXX 1      ca+h    Ca  1.500
Ca173   25.851632157   20.027634604   18.620550317 XXXX 1      ca+h    Ca  1.500
Ca174   25.758879657   12.944477146   18.630093280 XXXX 1      ca+h    Ca  1.500
Ca175   21.133142924   33.799705414   26.749797957 XXXX 1      ca+h    Ca  1.500
Ca176   21.094024477   26.824713879   26.965184515 XXXX 1      ca+h    Ca  1.500
Ca177   21.151302474   20.014401684   26.687213298 XXXX 1      ca+h    Ca  1.500
Ca178   21.173738215   13.126618250   26.714533357 XXXX 1      ca+h    Ca  1.500
Ca179   35.159430338   33.723426280   18.512522951 XXXX 1      ca+h    Ca  1.500
Ca180   35.104061433   26.844834815   18.715060285 XXXX 1      ca+h    Ca  1.500
Ca181   35.102052155   19.832512248   18.673224685 XXXX 1      ca+h    Ca  1.500
Ca182   35.374271216   13.000145490   18.770885531 XXXX 1      ca+h    Ca  1.500
Ca183   30.564027278   33.693248822   26.823307478 XXXX 1      ca+h    Ca  1.500
Ca184   30.671078252   26.842914712   26.862940958 XXXX 1      ca+h    Ca  1.500
Ca185   30.603836137   19.958270203   26.959561674 XXXX 1      ca+h    Ca  1.500
Ca186   30.473417704   13.029271064   26.816842678 XXXX 1      ca+h    Ca  1.500
P57     20.804557190   33.616712881    7.147588056 XXXX 1      pap     P   1.000
P58     20.892155931   26.796928848    7.409788430 XXXX 1      pap     P   1.000
P59     20.820611443   19.997776668    7.279106427 XXXX 1      pap     P   1.000
P60     20.923851107   13.057136493    7.316243387 XXXX 1      pap     P   1.000
P61     16.066150730   33.671396992   15.472013692 XXXX 1      pap     P   1.000
P62     16.113615067   26.746933190   15.343724181 XXXX 1      pap     P   1.000
P63     16.193959533   19.951266306   15.468964157 XXXX 1      pap     P   1.000
P64     16.210600225   13.011526290   15.376885241 XXXX 1      pap     P   1.000
P65     11.610909765   33.682072726   23.674346831 XXXX 1      pap     P   1.000
P66     11.471901202   26.723348168   23.604746324 XXXX 1      pap     P   1.000
P67     11.556416302   19.888011263   23.717301126 XXXX 1      pap     P   1.000
P68     11.303380019   13.098818020   23.636531477 XXXX 1      pap     P   1.000
P69     30.313352030   33.683282814    7.151527980 XXXX 1      pap     P   1.000
P70     30.290783681   26.792012889    7.224874494 XXXX 1      pap     P   1.000
P71     30.171741671   20.017262309    7.406292930 XXXX 1      pap     P   1.000
P72     30.368832122   13.013883037    7.283017720 XXXX 1      pap     P   1.000
P73     25.573943716   33.580052070   15.438113705 XXXX 1      pap     P   1.000
P74     25.601294481   26.837784505   15.456202919 XXXX 1      pap     P   1.000
P75     25.542105187   19.920525905   15.569473085 XXXX 1      pap     P   1.000
P76     25.666112832   12.976168001   15.547519996 XXXX 1      pap     P   1.000
P77     20.890229233   33.640715611   23.559925881 XXXX 1      pap     P   1.000
P78     20.858319521   26.782645515   23.747300000 XXXX 1      pap     P   1.000
P79     20.908791814   19.901023349   23.545038582 XXXX 1      pap     P   1.000
P80     20.961968738   12.953752359   23.635587800 XXXX 1      pap     P   1.000
P81     34.905155948   33.677952937   15.528642644 XXXX 1      pap     P   1.000
P82     34.869451222   26.738189886   15.506615302 XXXX 1      pap     P   1.000
P83     34.930010276   19.826300552   15.486611856 XXXX 1      pap     P   1.000
P84     34.973082918   13.005605634   15.518702394 XXXX 1      pap     P   1.000
P85     30.247482595   33.624996581   23.725918832 XXXX 1      pap     P   1.000
P86     30.250442152   26.846317696   23.698137203 XXXX 1      pap     P   1.000
P87     30.204595242   19.955565353   23.687022546 XXXX 1      pap     P   1.000
P88     30.197094422   13.059617414   23.680977056 XXXX 1      pap     P   1.000
O441    22.213891386   33.438904242    6.624594007 XXXX 1      oap1    O  -0.800
O442    22.128786648   26.658972870    6.531088939 XXXX 1      oap1    O  -0.800
O443    22.278143498   19.551403380    6.820137702 XXXX 1      oap1    O  -0.800
O444    22.269990508   12.906873716    6.537226174 XXXX 1      oap1    O  -0.800
O445    17.467554835   33.576343054   14.783939161 XXXX 1      oap1    O  -0.800
O446    17.329068301   26.931024511   14.469101157 XXXX 1      oap1    O  -0.800
O447    17.439226539   20.029768278   14.595105140 XXXX 1      oap1    O  -0.800
O448    17.500432644   12.868176269   14.489713594 XXXX 1      oap1    O  -0.800
O449    12.961575016   33.728395386   22.900337164 XXXX 1      oap1    O  -0.800
O450    12.800107836   26.737400970   22.826148258 XXXX 1      oap1    O  -0.800
O451    12.904960479   19.881599381   22.912724787 XXXX 1      oap1    O  -0.800
O452    12.627159396   13.229343065   22.865146629 XXXX 1      oap1    O  -0.800
O453    31.555013308   33.712471248    6.280134921 XXXX 1      oap1    O  -0.800
O454    31.412168684   26.499634120    6.196425017 XXXX 1      oap1    O  -0.800
O455    31.658646773   19.642178919    7.065724263 XXXX 1      oap1    O  -0.800
O456    31.623323403   13.023461628    6.504548802 XXXX 1      oap1    O  -0.800
O457    26.864235157   33.389988352   14.566642460 XXXX 1      oap1    O  -0.800
O458    26.946785192   26.635403936   14.769153635 XXXX 1      oap1    O  -0.800
O459    26.859131332   19.765774587   14.775352061 XXXX 1      oap1    O  -0.800
O460    26.999993872   12.870677962   14.753719063 XXXX 1      oap1    O  -0.800
O461    22.187591314   33.548098842   22.755457419 XXXX 1      oap1    O  -0.800
O462    22.061981256   26.648344859   22.810972231 XXXX 1      oap1    O  -0.800
O463    22.245154969   20.011634172   22.843984504 XXXX 1      oap1    O  -0.800
O464    22.283162945   12.915302639   22.903340034 XXXX 1      oap1    O  -0.800
O465    36.202737632   33.754796744   14.767938266 XXXX 1      oap1    O  -0.800
O466    36.171284531   27.107450734   14.756990332 XXXX 1      oap1    O  -0.800
O467    36.340888127   20.058491795   14.813237355 XXXX 1      oap1    O  -0.800
O468    36.226324914   13.163272695   14.639788069 XXXX 1      oap1    O  -0.800
O469    31.528583095   33.789870032   22.877388883 XXXX 1      oap1    O  -0.800
O470    31.536639752   26.976478013   22.920916839 XXXX 1      oap1    O  -0.800
O471    31.514427668   20.005616637   22.910590445 XXXX 1      oap1    O  -0.800
O472    31.540383192   13.108108733   22.897378712 XXXX 1      oap1    O  -0.800
O473    19.805517487   33.497764589    5.986127762 XXXX 1      oap1    O  -0.800
O474    19.541598061   26.777544782    6.604846305 XXXX 1      oap1    O  -0.800
O475    19.972257307   20.309455476    6.005179635 XXXX 1      oap1    O  -0.800
O476    19.721052655   13.111612135    6.390494770 XXXX 1      oap1    O  -0.800
O477    14.915694772   33.716352818   14.437188555 XXXX 1      oap1    O  -0.800
O478    14.740668963   26.704639147   14.569825797 XXXX 1      oap1    O  -0.800
O479    14.893217745   20.011517222   14.657539925 XXXX 1      oap1    O  -0.800
O480    14.949158176   12.946380860   14.470104431 XXXX 1      oap1    O  -0.800
O481    10.414422343   33.625503018   22.709177891 XXXX 1      oap1    O  -0.800
O482    10.253615767   26.817477123   22.694900206 XXXX 1      oap1    O  -0.800
O483    10.321439381   19.920393562   22.850216645 XXXX 1      oap1    O  -0.800
O484    10.031765392   13.026892722   22.695004899 XXXX 1      oap1    O  -0.800
O485    28.998099901   33.638325454    6.365476219 XXXX 1      oap1    O  -0.800
O486    28.954838725   26.849991626    6.434037734 XXXX 1      oap1    O  -0.800
O487    29.429668567   19.906875058    6.070743281 XXXX 1      oap1    O  -0.800
O488    29.192922730   13.036207035    6.374753137 XXXX 1      oap1    O  -0.800
O489    24.344091087   33.479469255   14.490034932 XXXX 1      oap1    O  -0.800
O490    24.490221259   26.939841339   14.446550645 XXXX 1      oap1    O  -0.800
O491    24.323343731   20.062973113   14.606659518 XXXX 1      oap1    O  -0.800
O492    24.439168023   12.984216959   14.613675692 XXXX 1      oap1    O  -0.800
O493    19.657259834   33.647959018   22.696620381 XXXX 1      oap1    O  -0.800
O494    19.558744953   26.816821666   22.957590626 XXXX 1      oap1    O  -0.800
O495    19.706148612   19.908875199   22.508445746 XXXX 1      oap1    O  -0.800
O496    19.811520642   13.122656680   22.576916154 XXXX 1      oap1    O  -0.800
O497    33.747267408   33.765760771   14.504773873 XXXX 1      oap1    O  -0.800
O498    33.646494344   26.650147509   14.575629322 XXXX 1      oap1    O  -0.800
O499    33.769940931   19.854622819   14.488413093 XXXX 1      oap1    O  -0.800
O500    33.694974056   12.952907479   14.648665588 XXXX 1      oap1    O  -0.800
O501    28.920890037   33.618182449   22.892384033 XXXX 1      oap1    O  -0.800
O502    29.037415337   26.792643642   22.724307507 XXXX 1      oap1    O  -0.800
O503    28.947891091   19.919042763   22.789531031 XXXX 1      oap1    O  -0.800
O504    28.989861521   12.963631838   22.736033263 XXXX 1      oap1    O  -0.800
Ca187   29.599666245   30.269321146    8.404277004 XXXX 1      ca+h    Ca  1.500
Ca188   29.442200872   23.560680320    8.265348223 XXXX 1      ca+h    Ca  1.500
Ca189   29.632341910   16.506848394    8.280206508 XXXX 1      ca+h    Ca  1.500
Ca190   29.581788993    9.608643938    8.451478878 XXXX 1      ca+h    Ca  1.500
Ca191   24.850339934   30.231291180   16.579071556 XXXX 1      ca+h    Ca  1.500
Ca192   24.755694355   23.333658317   16.525225610 XXXX 1      ca+h    Ca  1.500
Ca193   24.739594723   16.442167218   16.569514563 XXXX 1      ca+h    Ca  1.500
Ca194   24.790630277    9.678189394   16.458557538 XXXX 1      ca+h    Ca  1.500
Ca195   20.078313447   30.300291747   24.642042486 XXXX 1      ca+h    Ca  1.500
Ca196   20.086424631   23.300715581   24.898597244 XXXX 1      ca+h    Ca  1.500
Ca197   20.127731324   16.404402996   24.725328746 XXXX 1      ca+h    Ca  1.500
Ca198   19.947534660    9.534468606   24.818961247 XXXX 1      ca+h    Ca  1.500
Ca199   34.006295065   30.084017902   16.702778664 XXXX 1      ca+h    Ca  1.500
Ca200   34.182818950   23.247355094   16.544066505 XXXX 1      ca+h    Ca  1.500
Ca201   34.084852975   16.396637035   16.579599882 XXXX 1      ca+h    Ca  1.500
Ca202   34.319798415    9.733420284   16.668558919 XXXX 1      ca+h    Ca  1.500
Ca203   29.423323092   30.249685565   24.704846821 XXXX 1      ca+h    Ca  1.500
Ca204   29.457698324   23.445800324   24.544177671 XXXX 1      ca+h    Ca  1.500
Ca205   29.430701848   16.539259063   24.595265969 XXXX 1      ca+h    Ca  1.500
Ca206   29.556934223    9.543817306   24.767200731 XXXX 1      ca+h    Ca  1.500
P89     26.723407242   30.090731693    7.054440909 XXXX 1      pap     P   1.000
P90     26.636513648   23.302383486    6.951243249 XXXX 1      pap     P   1.000
P91     26.660490003   16.395034800    7.234065369 XXXX 1      pap     P   1.000
P92     26.626517717    9.609754969    7.131549569 XXXX 1      pap     P   1.000
P93     21.950710638   30.165734163   15.182015446 XXXX 1      pap     P   1.000
P94     21.982605059   23.382939670   15.228197141 XXXX 1      pap     P   1.000
P95     21.901617024   16.453218905   15.176610876 XXXX 1      pap     P   1.000
P96     21.978235985    9.548822356   15.200237947 XXXX 1      pap     P   1.000
P97     17.282143913   30.127326199   23.400211421 XXXX 1      pap     P   1.000
P98     17.282436357   23.402676603   23.472615711 XXXX 1      pap     P   1.000
P99     17.290569219   16.468332763   23.392628606 XXXX 1      pap     P   1.000
P100    17.150215271    9.656982571   23.458601676 XXXX 1      pap     P   1.000
P101    35.971334031   30.284061157    6.943493757 XXXX 1      pap     P   1.000
P102    35.865170106   23.382691518    7.408882862 XXXX 1      pap     P   1.000
P103    36.042424861   16.348443893    7.445264107 XXXX 1      pap     P   1.000
P104    36.183469917    9.690403513    7.174492855 XXXX 1      pap     P   1.000
P105    31.386785046   30.240359011   15.228686478 XXXX 1      pap     P   1.000
P106    31.326796639   23.285609059   15.310450926 XXXX 1      pap     P   1.000
P107    31.331269633   16.427228016   15.225840534 XXXX 1      pap     P   1.000
P108    31.354042250    9.768717135   15.340222457 XXXX 1      pap     P   1.000
P109    26.550995997   30.174664554   23.526578372 XXXX 1      pap     P   1.000
P110    26.627166765   23.456643756   23.382379135 XXXX 1      pap     P   1.000
P111    26.560823381   16.521464951   23.386456477 XXXX 1      pap     P   1.000
P112    26.638225948    9.524929552   23.553565161 XXXX 1      pap     P   1.000
P113    35.999790075   30.231205873   23.381898817 XXXX 1      pap     P   1.000
P114    35.920676310   23.479527205   23.428016396 XXXX 1      pap     P   1.000
P115    35.996950187   16.498917786   23.431168468 XXXX 1      pap     P   1.000
P116    35.977411967    9.569190956   23.339849955 XXXX 1      pap     P   1.000
O505    26.708105436   29.881965556    5.542761479 XXXX 1      oap1    O  -0.800
O506    26.439387183   23.377234347    5.441432229 XXXX 1      oap1    O  -0.800
O507    26.469804548   16.357346484    5.718585145 XXXX 1      oap1    O  -0.800
O508    26.507142352    9.716623064    5.598129604 XXXX 1      oap1    O  -0.800
O509    22.030458105   30.067926472   13.727479851 XXXX 1      oap1    O  -0.800
O510    21.813624249   23.270583287   13.688684413 XXXX 1      oap1    O  -0.800
O511    21.756575961   16.425945800   13.663787891 XXXX 1      oap1    O  -0.800
O512    21.763264615    9.422030154   13.685013460 XXXX 1      oap1    O  -0.800
O513    17.117235751   29.987005805   21.936984069 XXXX 1      oap1    O  -0.800
O514    17.282231042   23.661367024   21.960060449 XXXX 1      oap1    O  -0.800
O515    17.237462645   16.354837500   21.846599870 XXXX 1      oap1    O  -0.800
O516    17.261548280    9.604103946   21.923684672 XXXX 1      oap1    O  -0.800
O517    35.812861630   30.073276195    5.432513395 XXXX 1      oap1    O  -0.800
O518    35.713933034   23.041705842    5.907917244 XXXX 1      oap1    O  -0.800
O519    35.779683520   16.734471028    5.967913995 XXXX 1      oap1    O  -0.800
O520    36.088334919    9.739532553    5.647935859 XXXX 1      oap1    O  -0.800
O521    31.205177306   30.244376947   13.683520593 XXXX 1      oap1    O  -0.800
O522    31.263908048   23.327552539   13.748684660 XXXX 1      oap1    O  -0.800
O523    31.278689913   16.351789681   13.669988545 XXXX 1      oap1    O  -0.800
O524    31.312547150    9.793116269   13.808345535 XXXX 1      oap1    O  -0.800
O525    26.484756693   30.206180172   21.955407278 XXXX 1      oap1    O  -0.800
O526    26.475291636   23.519003736   21.835350430 XXXX 1      oap1    O  -0.800
O527    26.376911770   16.515643472   21.878616605 XXXX 1      oap1    O  -0.800
O528    26.513646715    9.910778263   22.053850959 XXXX 1      oap1    O  -0.800
O529    36.045696568   30.178098242   21.890069930 XXXX 1      oap1    O  -0.800
O530    35.908007521   23.309681851   21.900061530 XXXX 1      oap1    O  -0.800
O531    35.862079088   16.279041319   21.925347449 XXXX 1      oap1    O  -0.800
O532    35.952013478    9.553892539   21.797399946 XXXX 1      oap1    O  -0.800
O533    25.361198287   30.007347344    7.657310516 XXXX 1      oap1    O  -0.800
O534    25.267605922   23.292188308    7.664703139 XXXX 1      oap1    O  -0.800
O535    25.301418983   16.303004625    7.990323204 XXXX 1      oap1    O  -0.800
O536    25.243151183    9.585249869    7.803606062 XXXX 1      oap1    O  -0.800
O537    20.556502770   30.291042635   15.672744129 XXXX 1      oap1    O  -0.800
O538    20.596129080   23.459618587   15.976985067 XXXX 1      oap1    O  -0.800
O539    20.552611042   16.519587117   15.951762929 XXXX 1      oap1    O  -0.800
O540    20.596420077    9.720295145   15.863071067 XXXX 1      oap1    O  -0.800
O541    15.974469158   30.091778661   24.228886185 XXXX 1      oap1    O  -0.800
O542    15.830002730   23.368711227   24.017685356 XXXX 1      oap1    O  -0.800
O543    15.853182179   16.556224648   24.053936960 XXXX 1      oap1    O  -0.800
O544    15.719182511    9.732100519   24.051611206 XXXX 1      oap1    O  -0.800
O545    34.606545470   30.412166805    7.631322540 XXXX 1      oap1    O  -0.800
O546    34.388878982   23.534023360    7.994753694 XXXX 1      oap1    O  -0.800
O547    34.663113692   16.218269987    8.062474472 XXXX 1      oap1    O  -0.800
O548    34.737524660    9.604117775    7.798314612 XXXX 1      oap1    O  -0.800
O549    30.004245118   30.239623721   15.838998266 XXXX 1      oap1    O  -0.800
O550    29.974712906   23.161792907   16.043657362 XXXX 1      oap1    O  -0.800
O551    29.965884573   16.369001122   15.947505679 XXXX 1      oap1    O  -0.800
O552    30.007787105    9.664198939   16.000492344 XXXX 1      oap1    O  -0.800
O553    25.123896641   30.215261476   24.163600860 XXXX 1      oap1    O  -0.800
O554    25.233947859   23.557763157   24.135534414 XXXX 1      oap1    O  -0.800
O555    25.206456112   16.590895583   24.114146079 XXXX 1      oap1    O  -0.800
O556    25.195438891    9.401098746   24.191095263 XXXX 1      oap1    O  -0.800
O557    34.641553002   30.306377534   24.033715899 XXXX 1      oap1    O  -0.800
O558    34.531090223   23.504142335   24.074229813 XXXX 1      oap1    O  -0.800
O559    34.594733598   16.557124174   24.026615762 XXXX 1      oap1    O  -0.800
O560    34.556072556    9.667420802   23.994503878 XXXX 1      oap1    O  -0.800
Ca207   24.370705596   23.278839794    4.358050012 XXXX 1      ca+h    Ca  1.500
Ca208   24.747111142   16.420313280    4.262181763 XXXX 1      ca+h    Ca  1.500
Ca209   24.535779176    9.546483259    4.360241682 XXXX 1      ca+h    Ca  1.500
Ca210   19.876440108   30.168955598   12.515937229 XXXX 1      ca+h    Ca  1.500
Ca211   19.866720023   23.247641545   12.277359416 XXXX 1      ca+h    Ca  1.500
Ca212   19.781968457   16.596521307   12.200922993 XXXX 1      ca+h    Ca  1.500
Ca213   19.759581612    9.583295821   12.263715852 XXXX 1      ca+h    Ca  1.500
Ca214   15.261211560   30.250993194   20.551857478 XXXX 1      ca+h    Ca  1.500
Ca215   15.271794835   23.431127991   20.511260984 XXXX 1      ca+h    Ca  1.500
Ca216   15.191596967   16.439708783   20.527788881 XXXX 1      ca+h    Ca  1.500
Ca217   15.101021036    9.676561920   20.651379775 XXXX 1      ca+h    Ca  1.500
Ca218   33.824376771   30.078681361    4.238821860 XXXX 1      ca+h    Ca  1.500
Ca219   33.907791139   23.375410542    4.365429963 XXXX 1      ca+h    Ca  1.500
Ca220   34.136588700   16.664272112    4.199995545 XXXX 1      ca+h    Ca  1.500
Ca221   29.256078276   30.170938621   12.465360854 XXXX 1      ca+h    Ca  1.500
Ca222   29.275030342   23.317801264   12.373751531 XXXX 1      ca+h    Ca  1.500
Ca223   29.318850819   16.427442468   12.461726807 XXXX 1      ca+h    Ca  1.500
Ca224   29.326475769    9.545321721   12.369634627 XXXX 1      ca+h    Ca  1.500
Ca225   24.495851940   30.241883076   20.602746643 XXXX 1      ca+h    Ca  1.500
Ca226   24.519511080   23.492499492   20.444373618 XXXX 1      ca+h    Ca  1.500
Ca227   24.395209188   16.418187186   20.610519063 XXXX 1      ca+h    Ca  1.500
Ca228   24.594622213    9.683394198   20.647604728 XXXX 1      ca+h    Ca  1.500
Ca229   34.014759341   30.205335316   20.615918615 XXXX 1      ca+h    Ca  1.500
Ca230   34.049982637   23.466972392   20.552740036 XXXX 1      ca+h    Ca  1.500
Ca231   33.859185918   16.451609595   20.551709986 XXXX 1      ca+h    Ca  1.500
Ca232   33.876900637    9.640470849   20.485452996 XXXX 1      ca+h    Ca  1.500
P117    29.339756935   32.607570602    2.244529138 XXXX 1      pap     P   1.000
P118    29.050886296   25.586245849    2.297238529 XXXX 1      pap     P   1.000
P119    27.510687159   13.710231064    2.396992460 XXXX 1      pap     P   1.000
P120    27.062432444    9.123686343    1.965632282 XXXX 1      pap     P   1.000
P121    22.515312880   30.209379336   10.519632533 XXXX 1      pap     P   1.000
P122    22.445835795   23.380756603   10.670997773 XXXX 1      pap     P   1.000
P123    22.396174556   16.503771173   10.578805291 XXXX 1      pap     P   1.000
P124    22.349932081    9.617803408   10.567129858 XXXX 1      pap     P   1.000
P125    17.667333507   30.296737321   18.757821067 XXXX 1      pap     P   1.000
P126    17.779921518   23.411051734   18.807933721 XXXX 1      pap     P   1.000
P127    17.677241176   16.417872173   18.794152317 XXXX 1      pap     P   1.000
P128    17.859322219    9.596785814   18.639207162 XXXX 1      pap     P   1.000
P129    36.531098301   29.982185359    1.864922435 XXXX 1      pap     P   1.000
P130    35.206146115   25.605524619    2.228692495 XXXX 1      pap     P   1.000
P131    36.505744156   17.741332635    2.672919261 XXXX 1      pap     P   1.000
P132    38.513679383    7.562948679    2.197737779 XXXX 1      pap     P   1.000
P133    31.783512263   30.237122606   10.600715347 XXXX 1      pap     P   1.000
P134    31.772757201   23.381117407   10.537694090 XXXX 1      pap     P   1.000
P135    31.779939080   16.429416461   10.550321455 XXXX 1      pap     P   1.000
P136    31.926481411    9.589183887   10.558601881 XXXX 1      pap     P   1.000
P137    27.150934544   30.168428817   18.814681079 XXXX 1      pap     P   1.000
P138    27.126956784   23.389191419   18.733251398 XXXX 1      pap     P   1.000
P139    27.056865094   16.502306444   18.784190706 XXXX 1      pap     P   1.000
P140    27.215203488    9.529389039   18.966532211 XXXX 1      pap     P   1.000
P141    36.450327049   30.247891781   18.725632983 XXXX 1      pap     P   1.000
P142    36.588195392   23.242808611   18.765909763 XXXX 1      pap     P   1.000
P143    36.380085877   16.447119000   18.790252106 XXXX 1      pap     P   1.000
P144    36.573397784    9.565924625   18.731383970 XXXX 1      pap     P   1.000
O561    28.473717615   31.402732845    2.625923320 XXXX 1      oap1    O  -0.675
O562    30.394707150   24.977824281    1.850741734 XXXX 1      oap1    O  -0.650
O563    28.716231936   13.384095396    3.253630990 XXXX 1      oap1    O  -0.675
O564    27.829106841    9.605042395    3.226375506 XXXX 1      oap1    O  -0.675
O565    23.897672978   30.240641708   11.180161514 XXXX 1      oap1    O  -0.800
O566    23.735191603   23.522780955   11.485170241 XXXX 1      oap1    O  -0.800
O567    23.784175817   16.388369963   11.253208637 XXXX 1      oap1    O  -0.800
O568    23.735792644    9.694635290   11.304089807 XXXX 1      oap1    O  -0.800
O569    19.097983022   30.261371219   19.472466475 XXXX 1      oap1    O  -0.800
O570    19.089240714   23.450638060   19.674338344 XXXX 1      oap1    O  -0.800
O571    19.022470421   16.376171922   19.494552230 XXXX 1      oap1    O  -0.800
O572    19.148652992    9.609888722   19.409215237 XXXX 1      oap1    O  -0.800
O573    37.303937173   30.134126538    3.198424309 XXXX 1      oap1    O  -0.675
O574    35.794128320   26.944056142    2.636433715 XXXX 1      oap1    O  -0.650
O575    36.541186111   16.350331338    3.408768483 XXXX 1      oap1    O  -0.675
O576    39.815391581    8.042578686    1.549075546 XXXX 1      oap1    O  -0.650
O577    33.137665705   30.112611487   11.338962715 XXXX 1      oap1    O  -0.800
O578    33.203718644   23.135427154   11.097222310 XXXX 1      oap1    O  -0.800
O579    33.155183172   16.154766924   11.172269295 XXXX 1      oap1    O  -0.800
O580    33.315962428    9.782790739   11.162305391 XXXX 1      oap1    O  -0.800
O581    28.388493543   29.953603976   19.689418972 XXXX 1      oap1    O  -0.800
O582    28.482597385   23.129135423   19.329775634 XXXX 1      oap1    O  -0.800
O583    28.401531616   16.400710684   19.471464773 XXXX 1      oap1    O  -0.800
O584    28.530016059    9.463339384   19.718926205 XXXX 1      oap1    O  -0.800
O585    37.858153459   30.319584592   19.343180847 XXXX 1      oap1    O  -0.800
O586    37.850354873   23.468802135   19.515243857 XXXX 1      oap1    O  -0.800
O587    37.735406414   16.739083609   19.486297271 XXXX 1      oap1    O  -0.800
O588    37.871467437    9.524138741   19.530598401 XXXX 1      oap1    O  -0.800
O589    30.786519607   32.211334167    1.994767424 XXXX 1      oap1    O  -0.650
O590    28.210897638   26.245960940    1.216913434 XXXX 1      oap1    O  -0.650
O591    27.925910505   13.823008769    0.957925061 XXXX 1      oap1    O  -0.650
O592    27.597568497    7.787358508    1.434690254 XXXX 1      oap1    O  -0.650
O593    22.621629627   30.327594522    8.969089035 XXXX 1      oap1    O  -0.800
O594    22.685876202   23.349649598    9.186458672 XXXX 1      oap1    O  -0.800
O595    22.578855494   16.604505643    9.037253918 XXXX 1      oap1    O  -0.800
O596    22.557148264    9.550283251    9.031474996 XXXX 1      oap1    O  -0.800
O597    17.824810521   30.170948737   17.239436504 XXXX 1      oap1    O  -0.800
O598    18.117983371   23.362644526   17.305350218 XXXX 1      oap1    O  -0.800
O599    17.837608230   16.529692272   17.263203476 XXXX 1      oap1    O  -0.800
O600    18.157393808    9.578593026   17.078606659 XXXX 1      oap1    O  -0.800
O601    37.065394246   28.734307554    1.152066778 XXXX 1      oap1    O  -0.650
O602    35.562132829   25.291894183    0.821513784 XXXX 1      oap1    O  -0.650
O603    37.272395561   18.846601659    3.438725451 XXXX 1      oap1    O  -0.650
O604    37.626823344    6.757948458    1.213119634 XXXX 1      oap1    O  -0.650
O605    31.975635722   30.375310788    9.089131016 XXXX 1      oap1    O  -0.800
O606    31.706255011   23.479852964    8.953533505 XXXX 1      oap1    O  -0.800
O607    31.916663722   16.367558214    8.990387893 XXXX 1      oap1    O  -0.800
O608    32.015158399    9.455307638    9.007157776 XXXX 1      oap1    O  -0.800
O609    27.380783202   30.184934383   17.239282955 XXXX 1      oap1    O  -0.800
O610    27.277148195   23.441465719   17.162683843 XXXX 1      oap1    O  -0.800
O611    27.270047168   16.625453107   17.247797166 XXXX 1      oap1    O  -0.800
O612    27.412195619    9.594242374   17.454650104 XXXX 1      oap1    O  -0.800
O613    36.563643599   30.180008619   17.149916172 XXXX 1      oap1    O  -0.800
O614    36.807632524   23.214715916   17.238788545 XXXX 1      oap1    O  -0.800
O615    36.648287053   16.356871530   17.258293330 XXXX 1      oap1    O  -0.800
O616    36.879345586    9.630223241   17.223060735 XXXX 1      oap1    O  -0.800
Ca233   26.021528589   30.110133769   10.285248505 XXXX 1      ca+h    Ca  1.500
Ca234   25.900789956   23.270811445   10.266910278 XXXX 1      ca+h    Ca  1.500
Ca235   25.931854635   16.526489583   10.289626739 XXXX 1      ca+h    Ca  1.500
Ca236   25.909700512    9.628740060   10.386979527 XXXX 1      ca+h    Ca  1.500
Ca237   21.316527442   30.198881703   18.448830003 XXXX 1      ca+h    Ca  1.500
Ca238   21.086538677   23.406612184   18.459965388 XXXX 1      ca+h    Ca  1.500
Ca239   21.090769130   16.461670039   18.463725119 XXXX 1      ca+h    Ca  1.500
Ca240   21.284950087    9.462559648   18.348273150 XXXX 1      ca+h    Ca  1.500
Ca241   35.252612637   30.143587861   10.288770784 XXXX 1      ca+h    Ca  1.500
Ca242   35.358671685   23.297013501   10.337711641 XXXX 1      ca+h    Ca  1.500
Ca243   35.508444131   16.435624465   10.292857913 XXXX 1      ca+h    Ca  1.500
Ca244   35.437779526    9.611226000   10.188927026 XXXX 1      ca+h    Ca  1.500
Ca245   30.457298607   30.028040619   18.537173427 XXXX 1      ca+h    Ca  1.500
Ca246   30.667401537   23.185240991   18.492335733 XXXX 1      ca+h    Ca  1.500
Ca247   30.592081393   16.351265282   18.420619027 XXXX 1      ca+h    Ca  1.500
Ca248   30.624439851    9.578587879   18.450053133 XXXX 1      ca+h    Ca  1.500
P145    31.081521330   30.364124469    5.065536409 XXXX 1      pap     P   1.000
P146    30.950794772   23.213224009    4.950970723 XXXX 1      pap     P   1.000
P147    31.344796351   16.359626855    5.057131150 XXXX 1      pap     P   1.000
P148    30.791608430    9.675771177    5.116032937 XXXX 1      pap     P   1.000
P149    26.274682850   30.219683973   13.355748939 XXXX 1      pap     P   1.000
P150    26.294546547   23.332671717   13.383848373 XXXX 1      pap     P   1.000
P151    26.279928254   16.473355521   13.337750510 XXXX 1      pap     P   1.000
P152    26.226431844    9.631989203   13.497881442 XXXX 1      pap     P   1.000
P153    21.591170773   30.244985276   21.516324412 XXXX 1      pap     P   1.000
P154    21.495310666   23.353062955   21.541955080 XXXX 1      pap     P   1.000
P155    21.473104184   16.515467137   21.616639737 XXXX 1      pap     P   1.000
P156    21.417467991    9.599402282   21.614691928 XXXX 1      pap     P   1.000
P157    35.587782548   30.178757777   13.445180999 XXXX 1      pap     P   1.000
P158    35.523771306   23.368993032   13.443223406 XXXX 1      pap     P   1.000
P159    35.530835972   16.492948777   13.364770058 XXXX 1      pap     P   1.000
P160    35.755985889    9.623663674   13.411132142 XXXX 1      pap     P   1.000
P161    30.947192548   30.148895063   21.630134817 XXXX 1      pap     P   1.000
P162    30.837002687   23.384185673   21.484266063 XXXX 1      pap     P   1.000
P163    30.889462803   16.471455614   21.531959302 XXXX 1      pap     P   1.000
P164    30.970709711    9.490686126   21.542602800 XXXX 1      pap     P   1.000
O617    29.709988986   30.662713927    5.660857643 XXXX 1      oap1    O  -0.800
O618    29.612406142   23.742611778    5.625754465 XXXX 1      oap1    O  -0.800
O619    30.032927313   16.599402515    5.782929187 XXXX 1      oap1    O  -0.800
O620    29.568232177    9.714258471    5.998630034 XXXX 1      oap1    O  -0.800
O621    25.000517880   30.203585218   14.205371617 XXXX 1      oap1    O  -0.800
O622    25.005315587   23.150634433   14.186464683 XXXX 1      oap1    O  -0.800
O623    24.939669439   16.421480560   14.141209342 XXXX 1      oap1    O  -0.800
O624    24.845240845    9.415894370   14.101951485 XXXX 1      oap1    O  -0.800
O625    20.245299682   30.172105739   22.261564725 XXXX 1      oap1    O  -0.800
O626    20.260309622   23.328913694   22.502827348 XXXX 1      oap1    O  -0.800
O627    20.210369814   16.472327842   22.397670766 XXXX 1      oap1    O  -0.800
O628    20.136243102    9.679816590   22.475907185 XXXX 1      oap1    O  -0.800
O629    34.317020897   30.115557499   14.336122010 XXXX 1      oap1    O  -0.800
O630    34.156892060   23.180865711   14.082700850 XXXX 1      oap1    O  -0.800
O631    34.198448706   16.515177946   14.163431828 XXXX 1      oap1    O  -0.800
O632    34.435772301    9.769768998   14.207915781 XXXX 1      oap1    O  -0.800
O633    29.683083551   30.351226217   22.392776181 XXXX 1      oap1    O  -0.800
O634    29.443764776   23.488954880   22.133000900 XXXX 1      oap1    O  -0.800
O635    29.462984712   16.631774557   22.075134286 XXXX 1      oap1    O  -0.800
O636    29.672380422    9.524304262   22.387280249 XXXX 1      oap1    O  -0.800
O637    32.131233118   30.103718009    6.137039918 XXXX 1      oap1    O  -0.800
O638    32.040458294   23.238657472    6.037130775 XXXX 1      oap1    O  -0.800
O639    32.462606711   16.346063187    6.110095157 XXXX 1      oap1    O  -0.800
O640    32.047369515    9.845001699    6.021842171 XXXX 1      oap1    O  -0.800
O641    27.603220094   30.359347474   14.110375462 XXXX 1      oap1    O  -0.800
O642    27.577613642   23.328634735   14.312614632 XXXX 1      oap1    O  -0.800
O643    27.542157522   16.497309339   14.263254133 XXXX 1      oap1    O  -0.800
O644    27.337445088    9.692678226   14.556326758 XXXX 1      oap1    O  -0.800
O645    22.806620631   30.319505502   22.382104088 XXXX 1      oap1    O  -0.800
O646    22.800738292   23.378899079   22.333867017 XXXX 1      oap1    O  -0.800
O647    22.791786322   16.559155193   22.436114370 XXXX 1      oap1    O  -0.800
O648    22.771521321    9.602354068   22.443594443 XXXX 1      oap1    O  -0.800
O649    36.868426255   30.161567461   14.274390922 XXXX 1      oap1    O  -0.800
O650    36.691867055   23.413269089   14.457096085 XXXX 1      oap1    O  -0.800
O651    36.755085890   16.474555113   14.293797295 XXXX 1      oap1    O  -0.800
O652    36.983156210    9.577561568   14.339703583 XXXX 1      oap1    O  -0.800
O653    32.249652269   30.153325867   22.459113739 XXXX 1      oap1    O  -0.800
O654    31.898360933   23.583779375   22.610418191 XXXX 1      oap1    O  -0.800
O655    31.947352013   16.421992389   22.621905396 XXXX 1      oap1    O  -0.800
O656    32.216401995    9.487673828   22.396280167 XXXX 1      oap1    O  -0.800
O657    18.795984025   36.499742375   10.203683745 XXXX 1      oap2    O  -1.100
O658    18.949532082   30.684325516   10.398607426 XXXX 1      oap2    O  -1.100
O659    18.913654255   22.413729238   10.065553664 XXXX 1      oap2    O  -1.100
O660    18.945895635   15.167944153   10.207918711 XXXX 1      oap2    O  -1.100
O661    13.976718011    3.485898145   18.416582819 XXXX 1      oap2    O  -1.100
O662    14.076227900   30.691118289   18.433020770 XXXX 1      oap2    O  -1.100
O663    14.086255018   23.298813781   18.504291357 XXXX 1      oap2    O  -1.100
O664    14.053306786   17.203591577   18.610167088 XXXX 1      oap2    O  -1.100
O665    28.138829503    3.007857207   10.415047229 XXXX 1      oap2    O  -1.100
O666    28.234607392   30.686917305   10.284781166 XXXX 1      oap2    O  -1.100
O667    28.153869165   24.155937616   10.301216595 XXXX 1      oap2    O  -1.100
O668    28.322982072   16.944197946   10.346319169 XXXX 1      oap2    O  -1.100
O669    23.498295683    3.267916121   18.463524646 XXXX 1      oap2    O  -1.100
O670    23.575307301   30.869315497   18.434255169 XXXX 1      oap2    O  -1.100
O671    23.408612330   24.276513686   18.387745518 XXXX 1      oap2    O  -1.100
O672    23.462405974   17.028091822   18.458243751 XXXX 1      oap2    O  -1.100
O673    32.973298149   36.532604041   18.491982968 XXXX 1      oap2    O  -1.100
O674    32.897593347   29.433668818   18.699308808 XXXX 1      oap2    O  -1.100
O675    33.022445580   22.684629980   18.536651832 XXXX 1      oap2    O  -1.100
O676    32.848604479   15.386427708   18.657075832 XXXX 1      oap2    O  -1.100
O677    18.697390900   33.652741642   10.368680182 XXXX 1      oap2    O  -1.100
O678    18.787509131   27.353242834   10.216210342 XXXX 1      oap2    O  -1.100
O679    18.991065703   18.534390195   10.719380985 XXXX 1      oap2    O  -1.100
O680    18.677475266   11.944875923   10.276154022 XXXX 1      oap2    O  -1.100
O681    13.956419728   34.376651600   18.615679050 XXXX 1      oap2    O  -1.100
O682    14.160715140   26.486532495   18.538261802 XXXX 1      oap2    O  -1.100
O683    14.203575844   20.404741380   18.363863042 XXXX 1      oap2    O  -1.100
O684    14.121235897   13.811375162   18.549517174 XXXX 1      oap2    O  -1.100
O685    28.206558123   34.105112748   10.310790872 XXXX 1      oap2    O  -1.100
O686    28.208342214   27.397845878   10.340756876 XXXX 1      oap2    O  -1.100
O687    27.976102118   20.633441581   10.501472687 XXXX 1      oap2    O  -1.100
O688    28.009815648   12.515255299   10.434803603 XXXX 1      oap2    O  -1.100
O689    23.424425703   33.999208029   18.350850156 XXXX 1      oap2    O  -1.100
O690    23.507012470   27.445124621   18.362881854 XXXX 1      oap2    O  -1.100
O691    23.433548584   20.745964041   18.527220869 XXXX 1      oap2    O  -1.100
O692    23.374688667   13.581780364   18.415119285 XXXX 1      oap2    O  -1.100
O693    32.764107736   32.895821207   18.395595488 XXXX 1      oap2    O  -1.100
O694    32.997020406   25.899659122   18.495104974 XXXX 1      oap2    O  -1.100
O695    32.714003908   18.980687085   18.596074262 XXXX 1      oap2    O  -1.100
O696    33.004941449   12.061114955   18.631493549 XXXX 1      oap2    O  -1.100
H1      18.548490450   35.627894763   10.287133779 XXXX 1      hop     H   0.200
H2      18.881043053   31.615915558   10.191564178 XXXX 1      hop     H   0.200
H3      18.425103053   21.689104047    9.621782138 XXXX 1      hop     H   0.200
H4      18.903392373   14.656684907   11.005464306 XXXX 1      hop     H   0.200
H5      13.504434233    4.319990681   18.351398322 XXXX 1      hop     H   0.200
H6      13.943483868   31.394045517   17.793232229 XXXX 1      hop     H   0.200
H7      13.984162933   22.418950485   18.235064037 XXXX 1      hop     H   0.200
H8      14.398885845   18.041768155   18.969498751 XXXX 1      hop     H   0.200
H9      27.687545449    3.883676290   10.383463232 XXXX 1      hop     H   0.200
H10     28.381996444   31.597885142   10.218429977 XXXX 1      hop     H   0.200
H11     28.093593081   25.080343461   10.231942683 XXXX 1      hop     H   0.200
H12     28.621078108   17.806864434   10.132924114 XXXX 1      hop     H   0.200
H13     23.706760561    4.180784420   18.385600878 XXXX 1      hop     H   0.200
H14     23.417186434   31.844000473   18.521584452 XXXX 1      hop     H   0.200
H15     23.437414828   25.130379737   17.971950218 XXXX 1      hop     H   0.200
H16     23.237406348   17.946696349   18.612775963 XXXX 1      hop     H   0.200
H17     32.900012303   35.595260151   18.566846323 XXXX 1      hop     H   0.200
H18     32.525516117   28.564486342   18.763862425 XXXX 1      hop     H   0.200
H19     33.413687106   21.896577903   18.319193034 XXXX 1      hop     H   0.200
H20     32.669181106   14.510230398   18.970281705 XXXX 1      hop     H   0.200
H21     18.680390200   32.718674086   10.584185850 XXXX 1      hop     H   0.200
H22     18.829171222   28.297269999   10.185009783 XXXX 1      hop     H   0.200
H23     18.521002258   18.737419638    9.923631729 XXXX 1      hop     H   0.200
H24     19.180155875   11.369802705    9.700205731 XXXX 1      hop     H   0.200
H25     14.121885477   35.291654629   18.495511126 XXXX 1      hop     H   0.200
H26     14.527515285   25.678404675   18.350608229 XXXX 1      hop     H   0.200
H27     14.325531526   21.242871785   18.814053721 XXXX 1      hop     H   0.200
H28     13.887376139   14.676203578   18.778966686 XXXX 1      hop     H   0.200
H29     28.221508582   35.078665626   10.107972067 XXXX 1      hop     H   0.200
H30     28.215330047   28.293973120   10.169195870 XXXX 1      hop     H   0.200
H31     28.347553060   21.513027278   10.666082992 XXXX 1      hop     H   0.200
H32     27.194949325   11.991424344   10.431385322 XXXX 1      hop     H   0.200
H33     23.349371561   34.977533321   18.352532398 XXXX 1      hop     H   0.200
H34     23.214626128   28.386030484   18.320817089 XXXX 1      hop     H   0.200
H35     23.135309129   21.634852444   18.375011665 XXXX 1      hop     H   0.200
H36     23.278062121   14.527421874   18.555650033 XXXX 1      hop     H   0.200
H37     32.838545046   32.011656120   18.301234583 XXXX 1      hop     H   0.200
H38     32.648468119   25.063413424   18.533668678 XXXX 1      hop     H   0.200
H39     32.898425103   18.134467501   18.886348093 XXXX 1      hop     H   0.200
H40     33.134863400   11.173635688   18.394627893 XXXX 1      hop     H   0.200
H41     27.397494449    7.730553892    0.534462364 XXXX 1      hop     H   0.400
H42     27.954701982   14.749624568    0.876377667 XXXX 1      hop     H   0.400
H43     28.430338151   25.680313875    0.480176006 XXXX 1      hop     H   0.400
H44     31.063943693   31.597566083    2.737166446 XXXX 1      hop     H   0.400
H45     37.096549206    7.447776648    0.968559014 XXXX 1      hop     H   0.400
H46     36.608351024   19.208224047    4.041198998 XXXX 1      hop     H   0.400
H47     35.778165440   24.409194471    0.707175217 XXXX 1      hop     H   0.400
H48     36.604508600   28.022497302    1.535577369 XXXX 1      hop     H   0.400
H49     26.652094811   11.062776718    1.417576652 XXXX 1      hop     H   0.400
H50     26.170038665   12.868272657    3.402495248 XXXX 1      hop     H   0.400
H51     30.622264022   24.435628790    2.607459236 XXXX 1      hop     H   0.400
H52     28.012377247   33.174764358    1.086069660 XXXX 1      hop     H   0.400
H53     40.137921230    8.630970472    2.165384361 XXXX 1      hop     H   0.400
H54     36.462678555   17.689662000    0.746880531 XXXX 1      hop     H   0.400
H55     35.668964833   26.957768357    3.599460669 XXXX 1      hop     H   0.400
H56     36.948131338   30.889232428    0.188717099 XXXX 1      hop     H   0.400
end
O1      24.340662691    7.346157250    4.910937554 XXXX 1      oap1    O  -0.800
O2      19.677762717    7.426518521   13.043016832 XXXX 1      oap1    O  -0.800
O3      14.962981109    7.444992783   21.334878139 XXXX 1      oap1    O  -0.800
O4      33.795243337    7.415726318    4.793261156 XXXX 1      oap1    O  -0.800
O5      28.935195602    7.367350657   13.205562330 XXXX 1      oap1    O  -0.800
O6      24.257836727    7.334863377   21.350509933 XXXX 1      oap1    O  -0.800
O7      33.760324277    7.234176984   21.164687550 XXXX 1      oap1    O  -0.800
O8      25.366627508    7.334165637    9.489605303 XXXX 1      oap1    O  -0.800
O9      20.569183017    7.415076020   17.634544948 XXXX 1      oap1    O  -0.800
O10     15.740150916    7.471428480   25.782170083 XXXX 1      oap1    O  -0.800
O11     35.012737166    7.404649510    9.513189586 XXXX 1      oap1    O  -0.800
O12     29.999199088    7.303582906   17.727596586 XXXX 1      oap1    O  -0.800
O13     25.528221947    7.404788219   26.230276848 XXXX 1      oap1    O  -0.800
O14     34.853887923    7.477558359   25.883465662 XXXX 1      oap1    O  -0.800
O15     21.146493859    7.460836674    7.963609872 XXXX 1      oap1    O  -0.800
O16     16.135333336    7.479705246   16.295357559 XXXX 1      oap1    O  -0.800
O17     11.352180481    7.301337079   24.538287588 XXXX 1      oap1    O  -0.800
O18     29.986788293    7.371965489    8.249034593 XXXX 1      oap1    O  -0.800
O19     25.560372460    7.511908028   16.403221759 XXXX 1      oap1    O  -0.800
O20     20.885183506    7.331817059   24.602713484 XXXX 1      oap1    O  -0.800
O21     35.174837371    7.347610690   16.348844821 XXXX 1      oap1    O  -0.800
O22     30.050553476    7.284362851   24.662431423 XXXX 1      oap1    O  -0.800
O23     27.420677208    3.793788797    7.332296504 XXXX 1      oap1    O  -0.800
O24     22.687222694    3.992618128   15.443664830 XXXX 1      oap1    O  -0.800
O25     17.922797546    3.969359546   23.756978335 XXXX 1      oap1    O  -0.800
O26     36.894979792    3.943256566    7.813826732 XXXX 1      oap1    O  -0.800
O27     32.080491411    4.037995776   15.834912869 XXXX 1      oap1    O  -0.800
O28     27.484305163    3.855892965   23.932783399 XXXX 1      oap1    O  -0.800
O29     36.876986796    4.017998758   23.743181683 XXXX 1      oap1    O  -0.800
O30     25.807237691    3.310540188    2.424931018 XXXX 1      oap1    O  -0.675
O31     21.590825722    3.935734640   10.677140351 XXXX 1      oap1    O  -0.800
O32     16.883073900    3.903967663   19.244563119 XXXX 1      oap1    O  -0.800
O33     35.221203950    2.462159677    2.215199843 XXXX 1      oap1    O  -0.675
O34     30.847127182    4.045659817   10.899747433 XXXX 1      oap1    O  -0.800
O35     26.411120150    3.964238550   19.040844209 XXXX 1      oap1    O  -0.800
O36     35.659693143    3.783169420   19.132487745 XXXX 1      oap1    O  -0.800
O37     31.119947246    4.133252535    4.369120482 XXXX 1      oap1    O  -0.800
O38     26.102863672    3.792152977   12.418478665 XXXX 1      oap1    O  -0.800
O39     21.345046506    3.973477138   20.495706563 XXXX 1      oap1    O  -0.800
O40     35.660156845    3.981804086   12.422061565 XXXX 1      oap1    O  -0.800
O41     30.934824802    3.891473505   20.632331244 XXXX 1      oap1    O  -0.800
O42     27.541123071    1.298958733    7.489624956 XXXX 1      oap1    O  -0.800
O43     22.720081135    1.443391177   15.609241820 XXXX 1      oap1    O  -0.800
O44     17.803507193    1.563438002   23.888662963 XXXX 1      oap1    O  -0.800
O45     36.811532435    1.537548318    7.495477816 XXXX 1      oap1    O  -0.800
O46     32.098894527    1.551522973   15.525192462 XXXX 1      oap1    O  -0.800
O47     27.466595607    1.403436379   23.756038267 XXXX 1      oap1    O  -0.800
O48     36.841875702    1.554967899   23.832048854 XXXX 1      oap1    O  -0.800
O49     28.040949158    2.649528287    3.378290698 XXXX 1      oap1    O  -0.675
O50     21.655199782    1.536547754   10.850094664 XXXX 1      oap1    O  -0.800
O51     17.010830885    1.457942179   19.216231527 XXXX 1      oap1    O  -0.800
O52     36.693686518    0.548222710    2.310681668 XXXX 1      oap1    O  -0.650
O53     31.184603438    1.675272908   11.150676100 XXXX 1      oap1    O  -0.800
O54     26.105776102    1.480277999   19.090555471 XXXX 1      oap1    O  -0.800
O55     35.873067183    1.335046333   19.273954136 XXXX 1      oap1    O  -0.800
O56     31.007442719    1.520989649    4.447708363 XXXX 1      oap1    O  -0.800
O57     26.065323923    1.365834850   12.498877527 XXXX 1      oap1    O  -0.800
O58     21.491753987    1.494580474   20.543832895 XXXX 1      oap1    O  -0.800
O59     35.292878727    1.525939530   12.450656290 XXXX 1      oap1    O  -0.800
O60     30.901572775    1.410043458   20.604506152 XXXX 1      oap1    O  -0.800
O61     24.530265369    4.874968652    4.867520690 XXXX 1      oap1    O  -0.800
O62     19.610668307    4.959471748   12.868987048 XXXX 1      oap1    O  -0.800
O63     14.798234157    5.033347145   21.167733053 XXXX 1      oap1    O  -0.800
O64     33.750418725    5.020654742    5.066926881 XXXX 1      oap1    O  -0.800
O65     29.020315629    4.919453428   13.514466970 XXXX 1      oap1    O  -0.800
O66     24.112980175    4.859720660   21.485483988 XXXX 1      oap1    O  -0.800
O67     33.656746119    4.842001821   21.447038019 XXXX 1      oap1    O  -0.800
O68     25.365004695    4.840838763    9.646823373 XXXX 1      oap1    O  -0.800
O69     20.924792039    4.984674529   17.856533836 XXXX 1      oap1    O  -0.800
O70     15.990646417    4.971465578   25.943702236 XXXX 1      oap1    O  -0.800
O71     34.755638844    5.017053886    9.669997391 XXXX 1      oap1    O  -0.800
O72     29.999856685    4.881627188   17.687157978 XXXX 1      oap1    O  -0.800
O73     25.495703366    5.015129056   26.137201540 XXXX 1      oap1    O  -0.800
O74     34.949950643    4.973873363   26.017119775 XXXX 1      oap1    O  -0.800
O75     20.920553861    4.997545510    8.141113800 XXXX 1      oap1    O  -0.800
O76     16.255186071    5.054678397   16.487020839 XXXX 1      oap1    O  -0.800
O77     11.538520892    4.891198270   24.452049103 XXXX 1      oap1    O  -0.800
O78     30.304890520    4.882997171    8.081512360 XXXX 1      oap1    O  -0.800
O79     25.170014522    4.999218427   16.477973438 XXXX 1      oap1    O  -0.800
O80     20.934520003    4.941510724   24.451092325 XXXX 1      oap1    O  -0.800
O81     35.000121411    4.901333622   16.332893651 XXXX 1      oap1    O  -0.800
O82     30.286425297    4.810668739   24.489936341 XXXX 1      oap1    O  -0.800
Ca1     28.174533020    8.025396564    5.007974693 XXXX 1      ca+h    Ca  1.500
Ca2     23.455187748    7.868619562   13.042590981 XXXX 1      ca+h    Ca  1.500
Ca3     18.838779336    7.958377779   21.111612730 XXXX 1      ca+h    Ca  1.500
Ca4     32.938828021    8.024226558   13.101431007 XXXX 1      ca+h    Ca  1.500
Ca5     28.082343579    7.614669142   21.272103486 XXXX 1      ca+h    Ca  1.500
Ca6     23.681445846    4.376656115    7.508197963 XXXX 1      ca+h    Ca  1.500
Ca7     18.762984823    4.477012861   15.510105509 XXXX 1      ca+h    Ca  1.500
Ca8     13.958308940    4.562591755   23.963451071 XXXX 1      ca+h    Ca  1.500
Ca9     32.989657989    4.623745924    7.653655019 XXXX 1      ca+h    Ca  1.500
Ca10    28.301942680    4.361936585   15.836128875 XXXX 1      ca+h    Ca  1.500
Ca11    23.392759448    4.399722120   23.925912241 XXXX 1      ca+h    Ca  1.500
Ca12    33.017121700    4.439854864   23.951366799 XXXX 1      ca+h    Ca  1.500
Ca13    23.601464428    0.843487385    7.672946156 XXXX 1      ca+h    Ca  1.500
Ca14    18.679047894    1.016404223   15.809490908 XXXX 1      ca+h    Ca  1.500
Ca15    14.303590424    1.012674496   24.023421628 XXXX 1      ca+h    Ca  1.500
Ca16    32.906657208    1.008607017    7.659481042 XXXX 1      ca+h    Ca  1.500
Ca17    28.105483895    0.868904844   15.774360206 XXXX 1      ca+h    Ca  1.500
Ca18    23.458077282    1.013925264   23.886386530 XXXX 1      ca+h    Ca  1.500
Ca19    33.032727032    1.051939397   23.917945535 XXXX 1      ca+h    Ca  1.500
Ca20    28.198626506    4.257070129    5.098895890 XXXX 1      ca+h    Ca  1.500
Ca21    23.464859810    4.373633164   13.032494724 XXXX 1      ca+h    Ca  1.500
Ca22    18.853287706    4.540513531   20.979176976 XXXX 1      ca+h    Ca  1.500
Ca23    32.906659255    4.523489216   13.111959344 XXXX 1      ca+h    Ca  1.500
Ca24    28.266386748    4.454120815   21.203875699 XXXX 1      ca+h    Ca  1.500
Ca25    22.555548157    6.102168839    3.938021543 XXXX 1      ca+h    Ca  1.500
Ca26    17.473896803    6.163981004   12.280967174 XXXX 1      ca+h    Ca  1.500
Ca27    12.910721768    6.224951948   20.394846847 XXXX 1      ca+h    Ca  1.500
Ca28    31.850801300    6.262019682    4.209575977 XXXX 1      ca+h    Ca  1.500
Ca29    26.864610117    6.006115155   12.555470496 XXXX 1      ca+h    Ca  1.500
Ca30    22.236131785    6.194126890   20.371074578 XXXX 1      ca+h    Ca  1.500
Ca31    36.307105374    6.201487076   12.147018700 XXXX 1      ca+h    Ca  1.500
Ca32    31.723494556    6.038134535   20.354503993 XXXX 1      ca+h    Ca  1.500
P1      25.256237944    6.198168834    5.401056269 XXXX 1      pap     P   1.000
P2      20.406692045    6.160636824   13.483019987 XXXX 1      pap     P   1.000
P3      15.681326566    6.168241119   21.749847037 XXXX 1      pap     P   1.000
P4      34.605477788    6.256821205    5.363395709 XXXX 1      pap     P   1.000
P5      29.776899412    6.179651628   13.712657073 XXXX 1      pap     P   1.000
P6      25.074263329    6.048182648   21.757556052 XXXX 1      pap     P   1.000
P7      34.551793890    6.048734952   21.775319884 XXXX 1      pap     P   1.000
O83     25.220676822    6.165475007    6.970481664 XXXX 1      oap1    O  -0.800
O84     20.438292089    5.989425621   15.002616529 XXXX 1      oap1    O  -0.800
O85     15.762377119    6.107649029   23.285195072 XXXX 1      oap1    O  -0.800
O86     34.578553373    6.349571654    6.882580347 XXXX 1      oap1    O  -0.800
O87     29.949900582    6.417651624   15.165218292 XXXX 1      oap1    O  -0.800
O88     25.203945112    6.031038926   23.329934451 XXXX 1      oap1    O  -0.800
O89     34.569262597    6.186682190   23.311077530 XXXX 1      oap1    O  -0.800
O90     26.691626943    6.200096874    4.802461917 XXXX 1      oap1    O  -0.800
O91     21.766894971    6.098502829   12.854515423 XXXX 1      oap1    O  -0.800
O92     17.124638705    6.205324662   21.262286368 XXXX 1      oap1    O  -0.800
O93     36.101226778    6.149675069    4.857768629 XXXX 1      oap1    O  -0.800
O94     31.168456477    6.107930976   13.035767121 XXXX 1      oap1    O  -0.800
O95     26.382064071    5.850126410   20.980614935 XXXX 1      oap1    O  -0.800
O96     35.975011622    5.997057938   21.110549691 XXXX 1      oap1    O  -0.800
Ca33    27.195570042    6.042201652    8.342464945 XXXX 1      ca+h    Ca  1.500
Ca34    22.461860951    6.172884506   16.384722701 XXXX 1      ca+h    Ca  1.500
Ca35    17.732813824    6.174659473   24.561167181 XXXX 1      ca+h    Ca  1.500
Ca36    36.640956071    6.275503903    8.228975775 XXXX 1      ca+h    Ca  1.500
Ca37    31.931553853    6.328954233   16.456708779 XXXX 1      ca+h    Ca  1.500
Ca38    27.130542540    6.159519363   24.774434471 XXXX 1      ca+h    Ca  1.500
Ca39    36.642631691    6.226410715   24.647781293 XXXX 1      ca+h    Ca  1.500
P8      24.614428713    6.115227085   10.141509103 XXXX 1      pap     P   1.000
P9      19.971564568    6.097116350   18.197916855 XXXX 1      pap     P   1.000
P10     15.205358435    6.218445261   26.400517126 XXXX 1      pap     P   1.000
P11     34.030914432    6.342949243   10.008810531 XXXX 1      pap     P   1.000
P12     29.238690619    6.091511780   18.232450266 XXXX 1      pap     P   1.000
P13     24.611649757    6.194086915   26.578024758 XXXX 1      pap     P   1.000
P14     34.108702395    6.189682009   26.355232080 XXXX 1      pap     P   1.000
O97     23.255247609    6.099168619    9.365963207 XXXX 1      oap1    O  -0.800
O98     18.671701857    5.872785822   17.467961811 XXXX 1      oap1    O  -0.800
O99     13.798561864    6.129779555   25.778602781 XXXX 1      oap1    O  -0.800
O100    32.684378785    6.491752885    9.218421873 XXXX 1      oap1    O  -0.800
O101    27.857284873    6.153306603   17.625284647 XXXX 1      oap1    O  -0.800
O102    23.323849884    6.193875053   25.762585313 XXXX 1      oap1    O  -0.800
O103    32.741777109    6.094189010   25.612238801 XXXX 1      oap1    O  -0.800
O104    24.411606964    6.136081404   11.693432541 XXXX 1      oap1    O  -0.800
O105    19.759566682    6.222469629   19.768902319 XXXX 1      oap1    O  -0.800
O106    15.217983360    6.342589190   27.980294995 XXXX 1      oap1    O  -0.800
O107    33.785188036    6.322082244   11.569600313 XXXX 1      oap1    O  -0.800
O108    29.232607584    6.076520092   19.799256994 XXXX 1      oap1    O  -0.800
O109    24.371509163    6.046226167   28.105037256 XXXX 1      oap1    O  -0.800
O110    33.765347015    6.255838802   27.884133960 XXXX 1      oap1    O  -0.800
Ca40    21.113859360    6.276518617   10.398357700 XXXX 1      ca+h    Ca  1.500
Ca41    16.474980981    6.185233597   18.502912299 XXXX 1      ca+h    Ca  1.500
Ca42    11.618173549    6.209679579   26.802598586 XXXX 1      ca+h    Ca  1.500
Ca43    30.505244034    6.348438195   10.501343070 XXXX 1      ca+h    Ca  1.500
Ca44    25.624482856    6.176193851   18.604477988 XXXX 1      ca+h    Ca  1.500
Ca45    21.134519219    6.348121274   26.793416850 XXXX 1      ca+h    Ca  1.500
Ca46    35.246862122    6.089881965   18.504146051 XXXX 1      ca+h    Ca  1.500
Ca47    30.586014193    6.160011549   26.662989832 XXXX 1      ca+h    Ca  1.500
P15     21.039350854    6.151560669    7.119049802 XXXX 1      pap     P   1.000
P16     16.203706270    6.224147388   15.439206483 XXXX 1      pap     P   1.000
P17     11.453787815    6.097091559   23.613363759 XXXX 1      pap     P   1.000
P18     30.161671274    6.195040352    7.320698918 XXXX 1      pap     P   1.000
P19     25.487285931    6.180225962   15.547501263 XXXX 1      pap     P   1.000
P20     20.818034974    6.159532526   23.552854552 XXXX 1      pap     P   1.000
P21     34.959978165    6.158518457   15.376847125 XXXX 1      pap     P   1.000
P22     30.194453734    6.082004448   23.690466575 XXXX 1      pap     P   1.000
O111    22.366108230    6.086142432    6.304500118 XXXX 1      oap1    O  -0.800
O112    17.523923784    6.304746234   14.616366462 XXXX 1      oap1    O  -0.800
O113    12.701993626    6.191920933   22.729773429 XXXX 1      oap1    O  -0.800
O114    31.477709466    6.446985203    6.558672541 XXXX 1      oap1    O  -0.800
O115    26.810136588    5.959219534   14.903500911 XXXX 1      oap1    O  -0.800
O116    22.097081321    6.180089150   22.707776681 XXXX 1      oap1    O  -0.800
O117    36.163561133    6.137574219   14.530368795 XXXX 1      oap1    O  -0.800
O118    31.518337346    6.171727254   22.946326730 XXXX 1      oap1    O  -0.800
O119    19.737842682    6.171432472    6.282766049 XXXX 1      oap1    O  -0.800
O120    14.946618973    6.107469845   14.462017617 XXXX 1      oap1    O  -0.800
O121    10.209223287    6.169081156   22.685425098 XXXX 1      oap1    O  -0.800
O122    28.998733250    6.189590845    6.408502036 XXXX 1      oap1    O  -0.800
O123    24.311418429    6.248335811   14.507423028 XXXX 1      oap1    O  -0.800
O124    19.478728361    6.165941187   22.694784402 XXXX 1      oap1    O  -0.800
O125    33.662330523    6.237320775   14.574602150 XXXX 1      oap1    O  -0.800
O126    28.997176761    6.067394179   22.722735076 XXXX 1      oap1    O  -0.800
Ca48    29.629458687    2.666052533    8.496722402 XXXX 1      ca+h    Ca  1.500
Ca49    24.766213299    2.647306424   16.534875089 XXXX 1      ca+h    Ca  1.500
Ca50    19.979469635    2.724939365   24.619962025 XXXX 1      ca+h    Ca  1.500
Ca51    34.243158761    2.748258945   16.513998641 XXXX 1      ca+h    Ca  1.500
Ca52    29.375802270    2.720403907   24.696807108 XXXX 1      ca+h    Ca  1.500
P23     26.603895053    2.495957688    7.109933473 XXXX 1      pap     P   1.000
P24     21.865483580    2.681845325   15.194328894 XXXX 1      pap     P   1.000
P25     17.109717541    2.803010638   23.290070305 XXXX 1      pap     P   1.000
P26     36.041782749    2.809594211    7.240409763 XXXX 1      pap     P   1.000
P27     31.274206644    2.830721340   15.310894548 XXXX 1      pap     P   1.000
P28     26.672127586    2.675834902   23.382886786 XXXX 1      pap     P   1.000
P29     36.069059730    2.767605474   23.434651815 XXXX 1      pap     P   1.000
O127    26.427386265    2.525459958    5.549235052 XXXX 1      oap1    O  -0.800
O128    21.783164651    2.581904786   13.644152187 XXXX 1      oap1    O  -0.800
O129    17.165554204    2.785586277   21.783405557 XXXX 1      oap1    O  -0.800
O130    35.935818675    3.064917373    5.781800380 XXXX 1      oap1    O  -0.800
O131    31.210387531    2.895090059   13.779821895 XXXX 1      oap1    O  -0.800
O132    26.680883913    2.709898575   21.835240345 XXXX 1      oap1    O  -0.800
O133    35.920708383    2.582675765   21.949751419 XXXX 1      oap1    O  -0.800
O134    25.236756070    2.602008296    7.862516078 XXXX 1      oap1    O  -0.800
O135    20.506692643    2.772245984   15.876437702 XXXX 1      oap1    O  -0.800
O136    15.702155904    2.860858595   23.930801680 XXXX 1      oap1    O  -0.800
O137    34.654427907    2.581140458    7.936261676 XXXX 1      oap1    O  -0.800
O138    29.855078487    2.628966121   16.010749686 XXXX 1      oap1    O  -0.800
O139    25.234556357    2.664295815   23.994236213 XXXX 1      oap1    O  -0.800
O140    34.733996035    2.773903852   24.165864001 XXXX 1      oap1    O  -0.800
Ca53    24.546863790    2.679219110    4.224670208 XXXX 1      ca+h    Ca  1.500
Ca54    20.086064292    2.723155451   12.191170540 XXXX 1      ca+h    Ca  1.500
Ca55    15.085524513    2.876701756   20.640856183 XXXX 1      ca+h    Ca  1.500
Ca56    34.113842810    2.845104085    4.227082381 XXXX 1      ca+h    Ca  1.500
Ca57    29.238095738    2.797130936   12.528144275 XXXX 1      ca+h    Ca  1.500
Ca58    24.616154450    2.804242590   20.604067068 XXXX 1      ca+h    Ca  1.500
Ca59    33.970808216    2.648691939   20.675193578 XXXX 1      ca+h    Ca  1.500
P30     27.347489225    3.610493476    2.312351670 XXXX 1      pap     P   1.000
P31     22.421761929    2.755149260   10.393859401 XXXX 1      pap     P   1.000
P32     17.714332576    2.711969708   18.716211904 XXXX 1      pap     P   1.000
P33     36.671204030    2.036750027    2.213599159 XXXX 1      pap     P   1.000
P34     31.807929907    2.954042896   10.583619546 XXXX 1      pap     P   1.000
P35     27.005003340    2.627069775   18.684452515 XXXX 1      pap     P   1.000
P36     36.591182255    2.631221517   18.759181353 XXXX 1      pap     P   1.000
O141    27.681671936    4.933979541    2.886220127 XXXX 1      oap1    O  -0.650
O142    23.672872667    2.834451089   11.293884384 XXXX 1      oap1    O  -0.800
O143    19.060180871    2.820442656   19.420433721 XXXX 1      oap1    O  -0.800
O144    37.405022061    2.664450320    3.396174526 XXXX 1      oap1    O  -0.675
O145    33.200605278    3.092348320   11.346956169 XXXX 1      oap1    O  -0.800
O146    28.325757886    2.513653362   19.440935673 XXXX 1      oap1    O  -0.800
O147    37.923230502    2.647823326   19.573345886 XXXX 1      oap1    O  -0.800
O148    28.006877800    3.467160310    0.896755938 XXXX 1      oap1    O  -0.650
O149    22.775322161    2.658579993    8.871681580 XXXX 1      oap1    O  -0.800
O150    17.801280116    2.727639114   17.138861842 XXXX 1      oap1    O  -0.800
O151    37.347926979    2.429110737    0.923974336 XXXX 1      oap1    O  -0.650
O152    32.021341997    2.735720270    9.051034622 XXXX 1      oap1    O  -0.800
O153    27.219094784    2.583507693   17.126824058 XXXX 1      oap1    O  -0.800
O154    36.783408645    2.572326730   17.215797244 XXXX 1      oap1    O  -0.800
Ca60    25.858739582    2.663020076   10.318528094 XXXX 1      ca+h    Ca  1.500
Ca61    21.174401082    2.647701943   18.285505174 XXXX 1      ca+h    Ca  1.500
Ca62    35.346906043    2.893724838   10.256063734 XXXX 1      ca+h    Ca  1.500
Ca63    30.510472405    2.641516465   18.465576501 XXXX 1      ca+h    Ca  1.500
P37     31.043238592    2.842396751    5.271334504 XXXX 1      pap     P   1.000
P38     26.138631546    2.610686305   13.364282486 XXXX 1      pap     P   1.000
P39     21.464989171    2.748802645   21.446353543 XXXX 1      pap     P   1.000
P40     35.603383947    2.718019579   13.285061769 XXXX 1      pap     P   1.000
P41     30.935963918    2.629443902   21.506943977 XXXX 1      pap     P   1.000
O155    29.771574867    2.842359098    6.107973456 XXXX 1      oap1    O  -0.800
O156    24.833467687    2.649960357   14.175795303 XXXX 1      oap1    O  -0.800
O157    20.130319474    2.663539861   22.270724962 XXXX 1      oap1    O  -0.800
O158    34.290447785    2.936355710   14.123846898 XXXX 1      oap1    O  -0.800
O159    29.627191919    2.745932153   22.299232381 XXXX 1      oap1    O  -0.800
O160    32.308006152    2.788717872    6.140898310 XXXX 1      oap1    O  -0.800
O161    27.355815150    2.686086843   14.239206840 XXXX 1      oap1    O  -0.800
O162    22.758451954    2.818124300   22.338119003 XXXX 1      oap1    O  -0.800
O163    36.884391119    2.539771412   14.139372823 XXXX 1      oap1    O  -0.800
O164    32.185570869    2.704692605   22.439184509 XXXX 1      oap1    O  -0.800
O165    18.954744601    8.682082864   10.054244730 XXXX 1      oap2    O  -1.100
O166    14.199151817   10.572832627   18.504673023 XXXX 1      oap2    O  -1.100
O167    28.256263403    8.995892109   10.369759995 XXXX 1      oap2    O  -1.100
O168    23.678789040   10.199261189   18.621798933 XXXX 1      oap2    O  -1.100
O169    32.957013582    8.708395064   18.398993338 XXXX 1      oap2    O  -1.100
O170    18.729989269    5.746459104   10.248574985 XXXX 1      oap2    O  -1.100
O171    14.181192716    6.855267889   18.397781431 XXXX 1      oap2    O  -1.100
O172    28.135206302    5.832569556   10.467191626 XXXX 1      oap2    O  -1.100
O173    23.281730919    7.102564577   18.469102159 XXXX 1      oap2    O  -1.100
O174    33.001305044    5.340207171   18.396535482 XXXX 1      oap2    O  -1.100
H1      19.081786037    7.805510021   10.276851541 XXXX 1      hop     H   0.200
H2      13.929944756   11.498747335   18.647489987 XXXX 1      hop     H   0.200
H3      28.185133550    8.044501005   10.256949320 XXXX 1      hop     H   0.200
H4      23.423326269   10.939961817   18.114751510 XXXX 1      hop     H   0.200
H5      32.983420006    7.734905234   18.491038700 XXXX 1      hop     H   0.200
H6      18.763262272    4.795625272   10.571151832 XXXX 1      hop     H   0.200
H7      14.081384861    7.688148293   18.840703396 XXXX 1      hop     H   0.200
H8      28.498316802    4.926059170   10.446651074 XXXX 1      hop     H   0.200
H9      23.635366872    7.999660069   18.509472250 XXXX 1      hop     H   0.200
H10     32.848291531    4.429931195   18.149240187 XXXX 1      hop     H   0.200
H11     28.334595242    2.552325940    0.871839008 XXXX 1      hop     H   0.400
H12     36.761057074    3.076291157    0.649478732 XXXX 1      hop     H   0.400
H13     27.222084891    5.511872643    2.325730207 XXXX 1      hop     H   0.400
H14     36.001829656    0.203234478    1.781191243 XXXX 1      hop     H   0.400
end
O1       5.317704834   34.851239578    5.032597663 XXXX 1      oap1    O  -0.800
O2       5.138810569   27.965969715    4.992253841 XXXX 1      oap1    O  -0.800
O3       6.496508520   21.110083369    3.804272376 XXXX 1      oap1    O  -0.800
O4       5.458004783   14.423673741    5.130828655 XXXX 1      oap1    O  -0.800
O5       0.768786643   34.802451336   13.132623776 XXXX 1      oap1    O  -0.800
O6       0.859900832   28.103113584   13.460310596 XXXX 1      oap1    O  -0.800
O7       0.815469524   20.979651127   12.885018818 XXXX 1      oap1    O  -0.800
O8       0.808795890   14.286401645   13.087044680 XXXX 1      oap1    O  -0.800
O9      14.951347103   34.820381048    4.808030701 XXXX 1      oap1    O  -0.800
O10     14.442714530   27.952502533    4.953029104 XXXX 1      oap1    O  -0.800
O11     15.020788990   21.399956217    5.289271871 XXXX 1      oap1    O  -0.800
O12     15.003054131   14.331380106    4.965387972 XXXX 1      oap1    O  -0.800
O13     10.259072033   34.986303800   13.376052067 XXXX 1      oap1    O  -0.800
O14     10.048155502   28.153774529   13.101597433 XXXX 1      oap1    O  -0.800
O15     10.202789777   21.211910625   13.150955059 XXXX 1      oap1    O  -0.800
O16     10.311404654   14.215884935   13.216350206 XXXX 1      oap1    O  -0.800
O17      5.650380414   34.909151548   21.408132590 XXXX 1      oap1    O  -0.800
O18      5.571075342   28.216245041   21.463854290 XXXX 1      oap1    O  -0.800
O19      5.442354318   21.211524690   21.245817524 XXXX 1      oap1    O  -0.800
O20      5.573681748   14.434447486   21.260840148 XXXX 1      oap1    O  -0.800
O21      6.409256685   34.876475260    9.450863043 XXXX 1      oap1    O  -0.800
O22      6.159219921   28.064967566    9.479923352 XXXX 1      oap1    O  -0.800
O23      6.785186369   20.983375913    9.567400259 XXXX 1      oap1    O  -0.800
O24      6.565728546   14.208613874    9.542386716 XXXX 1      oap1    O  -0.800
O25      1.706212626   34.929657244   17.905738515 XXXX 1      oap1    O  -0.800
O26      1.622892334   28.076523161   17.864666151 XXXX 1      oap1    O  -0.800
O27      1.774842407   21.077425683   17.759261350 XXXX 1      oap1    O  -0.800
O28      1.778392677   14.348398409   17.828148167 XXXX 1      oap1    O  -0.800
O29     15.866763060   34.862294575    9.569673256 XXXX 1      oap1    O  -0.800
O30     15.769871214   27.898539607    9.575435041 XXXX 1      oap1    O  -0.800
O31     16.684304493   20.655428695    9.795449370 XXXX 1      oap1    O  -0.800
O32     15.998828517   14.222226675    9.564679388 XXXX 1      oap1    O  -0.800
O33     11.088633227   34.808424508   17.518614670 XXXX 1      oap1    O  -0.800
O34     11.279941441   27.972467956   17.760377801 XXXX 1      oap1    O  -0.800
O35     11.107331483   21.172258874   17.759393811 XXXX 1      oap1    O  -0.800
O36     11.217533111   14.325797083   17.693202250 XXXX 1      oap1    O  -0.800
O37      6.610929159   34.894140427   25.834350434 XXXX 1      oap1    O  -0.800
O38      6.574312395   27.984327140   25.848702216 XXXX 1      oap1    O  -0.800
O39      6.381237893   21.090811624   25.858295140 XXXX 1      oap1    O  -0.800
O40      6.341871898   14.254528702   25.704351567 XXXX 1      oap1    O  -0.800
O41      1.784319706   34.950133341    7.650064511 XXXX 1      oap1    O  -0.800
O42      2.026600357   28.137823713    7.519323399 XXXX 1      oap1    O  -0.800
O43      1.568297690   20.968168778    8.350076514 XXXX 1      oap1    O  -0.800
O44      1.694786639   14.074854162    8.374191081 XXXX 1      oap1    O  -0.800
O45     11.625911101   34.937683329    8.209511520 XXXX 1      oap1    O  -0.800
O46     11.548227505   28.104399233    8.015763664 XXXX 1      oap1    O  -0.800
O47     11.643681039   21.129322288    8.183952491 XXXX 1      oap1    O  -0.800
O48     11.646386074   14.303197946    8.227333975 XXXX 1      oap1    O  -0.800
O49      6.890597791   34.868712246   16.184060248 XXXX 1      oap1    O  -0.800
O50      6.691262655   28.071956499   16.307397973 XXXX 1      oap1    O  -0.800
O51      6.805866586   21.174626882   16.315287240 XXXX 1      oap1    O  -0.800
O52      6.847801242   14.277295860   16.291573204 XXXX 1      oap1    O  -0.800
O53      2.066480801   34.777125791   24.567105083 XXXX 1      oap1    O  -0.800
O54      2.325186299   28.026846249   24.628653077 XXXX 1      oap1    O  -0.800
O55      2.109387603   21.242951734   24.509369017 XXXX 1      oap1    O  -0.800
O56      1.920908274   14.383537311   24.430647875 XXXX 1      oap1    O  -0.800
O57      8.116108934   31.545944369    7.362994013 XXXX 1      oap1    O  -0.800
O58      7.816597969   24.639613728    7.415753225 XXXX 1      oap1    O  -0.800
O59      8.617456611   17.579995674    8.077469168 XXXX 1      oap1    O  -0.800
O60      8.396500646   10.731841844    7.881495464 XXXX 1      oap1    O  -0.800
O61      3.750547718   31.515732302   15.769214493 XXXX 1      oap1    O  -0.800
O62      3.853576328   24.683404382   15.641531653 XXXX 1      oap1    O  -0.800
O63      3.708901552   17.792904772   15.419508928 XXXX 1      oap1    O  -0.800
O64      3.995199453   10.863930320   15.298070740 XXXX 1      oap1    O  -0.800
O65     17.778754268   31.518891291    7.195412303 XXXX 1      oap1    O  -0.800
O66     17.818987153   24.460146890    7.938426880 XXXX 1      oap1    O  -0.800
O67     17.859590660   17.560372637    8.075886344 XXXX 1      oap1    O  -0.800
O68     18.045748251   10.991347368    7.202759698 XXXX 1      oap1    O  -0.800
O69     13.293321660   31.520504646   15.499501251 XXXX 1      oap1    O  -0.800
O70     13.387197271   24.407608462   15.613993717 XXXX 1      oap1    O  -0.800
O71     13.300354999   17.722757432   15.672869064 XXXX 1      oap1    O  -0.800
O72     13.344316801   10.898777492   15.575860755 XXXX 1      oap1    O  -0.800
O73      8.668557840   31.460388111   23.800895409 XXXX 1      oap1    O  -0.800
O74      8.462919834   24.726759510   23.693061398 XXXX 1      oap1    O  -0.800
O75      8.635423759   17.756157946   23.985444233 XXXX 1      oap1    O  -0.800
O76      8.476584485   10.735129665   24.083201237 XXXX 1      oap1    O  -0.800
O77     10.472660355   33.195683637    3.514603060 XXXX 1      oap1    O  -0.675
O78     10.331756280   26.338902137    3.370350487 XXXX 1      oap1    O  -0.675
O79      7.995045490   17.495493970    1.908991125 XXXX 1      oap1    O  -0.650
O80     10.879430147    5.931800759    3.516189562 XXXX 1      oap1    O  -0.675
O81      2.788146383   31.371562785   10.947444047 XXXX 1      oap1    O  -0.800
O82      2.804732338   24.532128622   11.517290066 XXXX 1      oap1    O  -0.800
O83      3.039961146   17.633473277   11.166122243 XXXX 1      oap1    O  -0.800
O84      2.688528427   10.787742522   10.890994220 XXXX 1      oap1    O  -0.800
O85     18.378721481   32.190071170    2.461951163 XXXX 1      oap1    O  -0.650
O86     18.200814772   26.002363228    3.266701883 XXXX 1      oap1    O  -0.650
O87     19.077741335   14.856827475    2.869727035 XXXX 1      oap1    O  -0.675
O88     16.355715589    9.520732972    2.159065250 XXXX 1      oap1    O  -0.675
O89     12.258086069   31.463047457   11.206587101 XXXX 1      oap1    O  -0.800
O90     12.227710168   24.568902537   11.074514442 XXXX 1      oap1    O  -0.800
O91     12.159590193   17.591580207   11.043438906 XXXX 1      oap1    O  -0.800
O92     12.221957715   10.625897123   11.056960764 XXXX 1      oap1    O  -0.800
O93      7.532798679   31.620542293   19.040125546 XXXX 1      oap1    O  -0.800
O94      7.721823629   24.671382239   19.463323228 XXXX 1      oap1    O  -0.800
O95      7.299852799   17.690538229   19.218554240 XXXX 1      oap1    O  -0.800
O96      7.763774516   11.039726234   19.055706382 XXXX 1      oap1    O  -0.800
O97      2.934677748   31.373222954    4.171369152 XXXX 1      oap1    O  -0.800
O98      2.019099937   24.284416949    3.962791026 XXXX 1      oap1    O  -0.800
O99      3.177510233   17.913079726    4.535157276 XXXX 1      oap1    O  -0.800
O100     2.291096162   11.056649036    4.286000893 XXXX 1      oap1    O  -0.800
O101    12.565862066   31.067164541    4.136981160 XXXX 1      oap1    O  -0.800
O102    12.785763710   24.198956896    3.973702333 XXXX 1      oap1    O  -0.800
O103    12.398218995   17.304502475    4.203239924 XXXX 1      oap1    O  -0.800
O104    12.642605968   10.655850729    4.096150784 XXXX 1      oap1    O  -0.800
O105     7.334348532   31.365109901   12.317778021 XXXX 1      oap1    O  -0.800
O106     7.225268728   24.602075902   12.486047919 XXXX 1      oap1    O  -0.800
O107     7.689938215   17.663446515   12.493903523 XXXX 1      oap1    O  -0.800
O108     7.230092939   10.854120860   12.568635384 XXXX 1      oap1    O  -0.800
O109     2.546499968   31.480949160   20.680688868 XXXX 1      oap1    O  -0.800
O110     2.594019241   24.652980998   20.692052508 XXXX 1      oap1    O  -0.800
O111     2.894314622   17.624293169   20.619741298 XXXX 1      oap1    O  -0.800
O112     2.653757388   10.958409038   20.724271792 XXXX 1      oap1    O  -0.800
O113    20.934183854   31.378349602    4.170648921 XXXX 1      oap1    O  -0.800
O114    22.136942887   24.428816293    4.129213692 XXXX 1      oap1    O  -0.800
O115    22.052358175   17.587040608    4.282159988 XXXX 1      oap1    O  -0.800
O116    22.167268257   10.559191735    4.098844790 XXXX 1      oap1    O  -0.800
O117    16.877129976   31.481585571   12.437264720 XXXX 1      oap1    O  -0.800
O118    17.020004040   24.503635599   12.300315572 XXXX 1      oap1    O  -0.800
O119    16.934696855   17.692147976   12.503919708 XXXX 1      oap1    O  -0.800
O120    16.849882992   10.879409350   12.451278929 XXXX 1      oap1    O  -0.800
O121    11.932211674   31.474901149   20.519240735 XXXX 1      oap1    O  -0.800
O122    11.904015186   24.480902851   20.635797488 XXXX 1      oap1    O  -0.800
O123    11.887940017   17.829982520   20.815207014 XXXX 1      oap1    O  -0.800
O124    12.000846171   10.965992028   20.838268939 XXXX 1      oap1    O  -0.800
O125     8.648854610   29.127494589    7.275731077 XXXX 1      oap1    O  -0.800
O126     8.570791588   22.335258145    7.742202417 XXXX 1      oap1    O  -0.800
O127     8.416093620   15.252525451    7.496596564 XXXX 1      oap1    O  -0.800
O128     8.552692237    8.406600523    7.229292021 XXXX 1      oap1    O  -0.800
O129     3.742594608   29.095126106   15.888338005 XXXX 1      oap1    O  -0.800
O130     3.890558248   22.242393670   15.849228679 XXXX 1      oap1    O  -0.800
O131     3.976247006   15.289941544   15.707830141 XXXX 1      oap1    O  -0.800
O132     3.965387481    8.428541975   15.719439774 XXXX 1      oap1    O  -0.800
O133    17.888487719   29.104437602    7.816959164 XXXX 1      oap1    O  -0.800
O134    18.157825918   22.090615807    7.366391059 XXXX 1      oap1    O  -0.800
O135    17.904357061   15.216554459    7.348961753 XXXX 1      oap1    O  -0.800
O136    18.281197942    8.452886062    7.035396507 XXXX 1      oap1    O  -0.800
O137    13.211192670   28.973308788   15.721996878 XXXX 1      oap1    O  -0.800
O138    13.215431001   22.001223277   15.313099946 XXXX 1      oap1    O  -0.800
O139    13.442417042   15.343482429   15.651052156 XXXX 1      oap1    O  -0.800
O140    13.403340189    8.441407424   15.868253102 XXXX 1      oap1    O  -0.800
O141     8.656319005   29.054230243   23.709271156 XXXX 1      oap1    O  -0.800
O142     8.521993444   22.284086905   24.231977891 XXXX 1      oap1    O  -0.800
O143     8.502057722   15.308189261   23.924179863 XXXX 1      oap1    O  -0.800
O144     8.651248160    8.286686371   23.629827595 XXXX 1      oap1    O  -0.800
O145     9.657331955   30.847954676    3.158611743 XXXX 1      oap1    O  -0.675
O146     9.286079767   25.684146018    1.164438136 XXXX 1      oap1    O  -0.650
O147     9.567348643   16.350255189    3.479677698 XXXX 1      oap1    O  -0.675
O148     9.328505026    7.756458367    2.583503463 XXXX 1      oap1    O  -0.675
O149     2.686322833   28.934434132   10.726067711 XXXX 1      oap1    O  -0.800
O150     2.779008174   22.054634254   11.023433019 XXXX 1      oap1    O  -0.800
O151     2.834748332   15.154849266   11.143182774 XXXX 1      oap1    O  -0.800
O152     3.042269091    8.356529789   10.979697779 XXXX 1      oap1    O  -0.800
O153    16.156555378   31.111888385    2.580477044 XXXX 1      oap1    O  -0.675
O154    15.979556493   24.956264968    2.419299469 XXXX 1      oap1    O  -0.675
O155    19.338894369   13.235474977    0.931949830 XXXX 1      oap1    O  -0.650
O156    18.608058487    9.703798885    3.053051554 XXXX 1      oap1    O  -0.675
O157    12.156044092   29.078440315   10.807249575 XXXX 1      oap1    O  -0.800
O158    12.375879269   22.076261868   11.171563323 XXXX 1      oap1    O  -0.800
O159    12.320293347   15.179246789   11.286520269 XXXX 1      oap1    O  -0.800
O160    12.533521149    8.230376453   10.988348493 XXXX 1      oap1    O  -0.800
O161     7.326499287   29.135685999   19.049872357 XXXX 1      oap1    O  -0.800
O162     7.259885342   22.316860111   19.074765120 XXXX 1      oap1    O  -0.800
O163     7.530583996   15.155269475   19.245135622 XXXX 1      oap1    O  -0.800
O164     7.356103260    8.532650972   19.100063014 XXXX 1      oap1    O  -0.800
O165     2.591417089   28.834052543    4.153031074 XXXX 1      oap1    O  -0.800
O166     2.675348701   21.906893322    4.400774263 XXXX 1      oap1    O  -0.800
O167     2.774177211   15.407775937    4.283830854 XXXX 1      oap1    O  -0.800
O168     3.363647138    8.753089299    3.798336836 XXXX 1      oap1    O  -0.800
O169    11.867774532   28.749231459    4.577559842 XXXX 1      oap1    O  -0.800
O170    11.417078359   22.093428983    4.432306328 XXXX 1      oap1    O  -0.800
O171    11.992895025   14.959323449    4.509060218 XXXX 1      oap1    O  -0.800
O172    12.248965436    8.239972067    4.544276025 XXXX 1      oap1    O  -0.800
O173     7.254600564   28.918646319   12.426332891 XXXX 1      oap1    O  -0.800
O174     7.236390920   22.186984132   12.301161823 XXXX 1      oap1    O  -0.800
O175     7.539957314   15.206934270   12.486334518 XXXX 1      oap1    O  -0.800
O176     7.370977387    8.428534036   12.327920709 XXXX 1      oap1    O  -0.800
O177     2.622226458   28.998711539   20.684360789 XXXX 1      oap1    O  -0.800
O178     2.674691833   22.162264478   20.590133256 XXXX 1      oap1    O  -0.800
O179     2.347371293   15.215700090   20.539419699 XXXX 1      oap1    O  -0.800
O180     2.628267630    8.456408143   20.556597061 XXXX 1      oap1    O  -0.800
O181    21.232971212   28.800011403    4.359654177 XXXX 1      oap1    O  -0.800
O182    21.479441641   22.117093080    4.348242619 XXXX 1      oap1    O  -0.800
O183    21.603252815   15.216745273    4.467635514 XXXX 1      oap1    O  -0.800
O184    21.452204763    8.167049047    4.328084181 XXXX 1      oap1    O  -0.800
O185    16.840654592   28.984590413   12.420913058 XXXX 1      oap1    O  -0.800
O186    16.611513517   22.060509472   12.480851360 XXXX 1      oap1    O  -0.800
O187    16.922734542   15.247963253   12.471770161 XXXX 1      oap1    O  -0.800
O188    16.804209396    8.475481033   12.330604879 XXXX 1      oap1    O  -0.800
O189    11.939995338   29.002133110   20.534565775 XXXX 1      oap1    O  -0.800
O190    11.989407792   22.061833535   20.653139882 XXXX 1      oap1    O  -0.800
O191    12.460697505   15.479534793   20.527324200 XXXX 1      oap1    O  -0.800
O192    12.125660043    8.565632567   20.475228530 XXXX 1      oap1    O  -0.800
O193     5.709291877   32.462634518    4.587880600 XXXX 1      oap1    O  -0.800
O194     5.884576128   25.621335452    4.547177627 XXXX 1      oap1    O  -0.800
O195     6.478568790   18.563203448    3.452592200 XXXX 1      oap1    O  -0.800
O196     5.671265643   12.034301840    4.611905101 XXXX 1      oap1    O  -0.800
O197     0.773025454   32.333091959   13.336061180 XXXX 1      oap1    O  -0.800
O198     0.712229889   25.671793397   12.989986460 XXXX 1      oap1    O  -0.800
O199     0.785791493   18.631091353   13.355180149 XXXX 1      oap1    O  -0.800
O200     0.759952242   11.778338806   13.388933896 XXXX 1      oap1    O  -0.800
O201    14.986530329   32.386874163    5.038174202 XXXX 1      oap1    O  -0.800
O202    14.662178748   25.463029999    5.214724394 XXXX 1      oap1    O  -0.800
O203    15.314965962   19.180569844    4.048240763 XXXX 1      oap1    O  -0.800
O204    15.432355728   12.013533652    4.524901377 XXXX 1      oap1    O  -0.800
O205    10.082675293   32.568047224   13.026014365 XXXX 1      oap1    O  -0.800
O206    10.174787120   25.662325129   13.024450540 XXXX 1      oap1    O  -0.800
O207    10.280780674   18.717826744   12.998045018 XXXX 1      oap1    O  -0.800
O208    10.382698671   11.712957870   13.224261695 XXXX 1      oap1    O  -0.800
O209     5.445383445   32.453579276   21.289029369 XXXX 1      oap1    O  -0.800
O210     5.467327270   25.722064034   21.211141735 XXXX 1      oap1    O  -0.800
O211     5.463594834   18.769097118   21.510397020 XXXX 1      oap1    O  -0.800
O212     5.404243069   11.898925785   21.270533956 XXXX 1      oap1    O  -0.800
O213     6.429154024   32.425842877    9.485313973 XXXX 1      oap1    O  -0.800
O214     6.593019952   25.608651358    9.632675155 XXXX 1      oap1    O  -0.800
O215     6.469300815   18.519413243    9.450990761 XXXX 1      oap1    O  -0.800
O216     6.562577896   11.796945991    9.587710240 XXXX 1      oap1    O  -0.800
O217     1.971648027   32.468794707   17.984801705 XXXX 1      oap1    O  -0.800
O218     1.802468082   25.617965907   17.781727588 XXXX 1      oap1    O  -0.800
O219     1.726107670   18.705659799   17.715328361 XXXX 1      oap1    O  -0.800
O220     1.952573684   11.926788928   17.795490875 XXXX 1      oap1    O  -0.800
O221    15.955083278   32.332789444    9.590971263 XXXX 1      oap1    O  -0.800
O222    15.885651021   25.482114644    9.656866480 XXXX 1      oap1    O  -0.800
O223    15.531395846   18.431265492    9.729493932 XXXX 1      oap1    O  -0.800
O224    15.936767203   11.784278577    9.511633074 XXXX 1      oap1    O  -0.800
O225    11.302083207   32.404673603   17.716704229 XXXX 1      oap1    O  -0.800
O226    11.292071549   25.543521098   17.637638030 XXXX 1      oap1    O  -0.800
O227    11.277484727   18.723914689   17.689881823 XXXX 1      oap1    O  -0.800
O228    11.306122888   11.865172448   17.815890716 XXXX 1      oap1    O  -0.800
O229     6.594780877   32.409264079   26.095161906 XXXX 1      oap1    O  -0.800
O230     6.477845737   25.513219411   25.803473658 XXXX 1      oap1    O  -0.800
O231     6.560487791   18.618692512   26.141603126 XXXX 1      oap1    O  -0.800
O232     6.360813048   11.727755790   25.906670938 XXXX 1      oap1    O  -0.800
O233     1.733273259   32.489387541    7.914682376 XXXX 1      oap1    O  -0.800
O234     1.288660996   25.953897714    8.330952214 XXXX 1      oap1    O  -0.800
O235     2.202133563   18.634579753    8.238871712 XXXX 1      oap1    O  -0.800
O236     2.054609074   11.756927111    8.058115749 XXXX 1      oap1    O  -0.800
O237    11.244302661   32.511564984    8.389202224 XXXX 1      oap1    O  -0.800
O238    10.679466935   25.797572696    8.312971743 XXXX 1      oap1    O  -0.800
O239    11.693245110   18.650995978    8.423787889 XXXX 1      oap1    O  -0.800
O240    11.434567376   11.767664014    8.384186940 XXXX 1      oap1    O  -0.800
O241     6.729966324   32.429235239   16.365104093 XXXX 1      oap1    O  -0.800
O242     6.447370712   25.714301450   16.540926555 XXXX 1      oap1    O  -0.800
O243     6.670331132   18.699510864   16.323024985 XXXX 1      oap1    O  -0.800
O244     6.601539061   11.774098799   16.443611959 XXXX 1      oap1    O  -0.800
O245     2.137813621   32.346271272   24.369537758 XXXX 1      oap1    O  -0.800
O246     1.832193003   25.591703460   24.655399581 XXXX 1      oap1    O  -0.800
O247     1.917469232   18.775480201   24.666763385 XXXX 1      oap1    O  -0.800
O248     1.744675929   11.930300981   24.578747058 XXXX 1      oap1    O  -0.800
Ca1      0.137703933   35.521548613    5.338985944 XXXX 1      ca+h    Ca  1.500
Ca2     -0.033926080   28.467342736    4.879773592 XXXX 1      ca+h    Ca  1.500
Ca3     -0.215745153   15.200340209    5.209195801 XXXX 1      ca+h    Ca  1.500
Ca4      9.553617132   35.507399347    4.951941771 XXXX 1      ca+h    Ca  1.500
Ca5      9.486377891   28.842532587    4.694892346 XXXX 1      ca+h    Ca  1.500
Ca6      8.990576313   21.837502439    3.912665194 XXXX 1      ca+h    Ca  1.500
Ca7      9.648993674   14.721528127    5.320402479 XXXX 1      ca+h    Ca  1.500
Ca8      4.561702249   35.383104096   12.991454007 XXXX 1      ca+h    Ca  1.500
Ca9      4.596966989   28.570974503   13.014976216 XXXX 1      ca+h    Ca  1.500
Ca10     4.785670672   21.592304708   12.876703171 XXXX 1      ca+h    Ca  1.500
Ca11     4.680273011   14.658512346   13.017879312 XXXX 1      ca+h    Ca  1.500
Ca12    -0.081172398   35.297160688   21.202647130 XXXX 1      ca+h    Ca  1.500
Ca13     0.028548682   28.555779355   21.105355839 XXXX 1      ca+h    Ca  1.500
Ca14    -0.237996981   21.650717001   21.246733670 XXXX 1      ca+h    Ca  1.500
Ca15    -0.060643218   14.824831337   21.124770162 XXXX 1      ca+h    Ca  1.500
Ca16    18.876139816   35.474807465    5.193295225 XXXX 1      ca+h    Ca  1.500
Ca17    18.772523318   28.119122974    4.828889632 XXXX 1      ca+h    Ca  1.500
Ca18    18.890235434   22.186900239    4.840078901 XXXX 1      ca+h    Ca  1.500
Ca19    18.933659431   15.236239912    5.143975149 XXXX 1      ca+h    Ca  1.500
Ca20    14.054087352   35.392642703   13.074912105 XXXX 1      ca+h    Ca  1.500
Ca21    14.254078126   28.379256106   13.012225751 XXXX 1      ca+h    Ca  1.500
Ca22    14.105771023   21.735949678   13.033090141 XXXX 1      ca+h    Ca  1.500
Ca23    14.162902720   14.748169367   13.221667735 XXXX 1      ca+h    Ca  1.500
Ca24     9.440523166   35.304660196   21.279958096 XXXX 1      ca+h    Ca  1.500
Ca25     9.353180844   28.507206703   21.195290892 XXXX 1      ca+h    Ca  1.500
Ca26     9.516943772   21.476880151   21.271179432 XXXX 1      ca+h    Ca  1.500
Ca27     9.207002178   14.707327239   21.275896666 XXXX 1      ca+h    Ca  1.500
Ca28     4.854942236   31.858943486    7.690180532 XXXX 1      ca+h    Ca  1.500
Ca29     4.876670039   24.689932704    7.630900191 XXXX 1      ca+h    Ca  1.500
Ca30     4.547882454   18.365462520    7.587760500 XXXX 1      ca+h    Ca  1.500
Ca31     4.910471079   11.426273541    7.836882854 XXXX 1      ca+h    Ca  1.500
Ca32    -0.123758510   31.959204271   15.754777979 XXXX 1      ca+h    Ca  1.500
Ca33    -0.153594577   25.039630705   15.949222310 XXXX 1      ca+h    Ca  1.500
Ca34     0.002167941   18.171590227   15.822045490 XXXX 1      ca+h    Ca  1.500
Ca35     0.024968972   11.369461269   15.740629560 XXXX 1      ca+h    Ca  1.500
Ca36    14.170366719   31.965475686    7.505535419 XXXX 1      ca+h    Ca  1.500
Ca37    14.304732353   24.818916860    7.690049208 XXXX 1      ca+h    Ca  1.500
Ca38    14.074405285   18.020561976    7.823708309 XXXX 1      ca+h    Ca  1.500
Ca39    14.169539175   11.299653799    7.796206779 XXXX 1      ca+h    Ca  1.500
Ca40     9.395471597   31.962926095   15.713418182 XXXX 1      ca+h    Ca  1.500
Ca41     9.438762562   25.130167232   15.677152534 XXXX 1      ca+h    Ca  1.500
Ca42     9.387672059   18.167346141   15.851321566 XXXX 1      ca+h    Ca  1.500
Ca43     9.475023296   11.319348409   15.800445383 XXXX 1      ca+h    Ca  1.500
Ca44     4.670286080   31.993184841   24.023713233 XXXX 1      ca+h    Ca  1.500
Ca45     4.705118050   25.111368324   23.965571781 XXXX 1      ca+h    Ca  1.500
Ca46     4.537757967   18.101539543   23.782910615 XXXX 1      ca+h    Ca  1.500
Ca47     4.773386585   11.328074421   23.829703453 XXXX 1      ca+h    Ca  1.500
Ca48     4.484879857   28.291212254    7.690310389 XXXX 1      ca+h    Ca  1.500
Ca49     4.912453552   21.583434961    5.616104140 XXXX 1      ca+h    Ca  1.500
Ca50     4.985519348   14.874405683    7.786179485 XXXX 1      ca+h    Ca  1.500
Ca51     4.569499304    7.838183123    7.569569265 XXXX 1      ca+h    Ca  1.500
Ca52    -0.011930258   28.515205796   15.901001644 XXXX 1      ca+h    Ca  1.500
Ca53     0.008066175   21.604458326   15.803779501 XXXX 1      ca+h    Ca  1.500
Ca54     0.001422473   14.737897403   15.768547452 XXXX 1      ca+h    Ca  1.500
Ca55     0.006478713    7.911768604   15.755591510 XXXX 1      ca+h    Ca  1.500
Ca56    13.940623748   28.442574456    7.796083270 XXXX 1      ca+h    Ca  1.500
Ca57    13.965746169   21.485039196    7.411345526 XXXX 1      ca+h    Ca  1.500
Ca58    14.148960634   14.553841844    7.701082210 XXXX 1      ca+h    Ca  1.500
Ca59    14.138184183    7.883780197    7.717269844 XXXX 1      ca+h    Ca  1.500
Ca60     9.251647044   28.540153167   15.773396646 XXXX 1      ca+h    Ca  1.500
Ca61     9.359174713   21.668419292   15.707760891 XXXX 1      ca+h    Ca  1.500
Ca62     9.443251690   14.731056479   15.927959862 XXXX 1      ca+h    Ca  1.500
Ca63     9.418893135    7.931340194   15.717462545 XXXX 1      ca+h    Ca  1.500
Ca64     4.619652708   28.481840603   23.983509764 XXXX 1      ca+h    Ca  1.500
Ca65     4.466379070   21.673232283   24.080787092 XXXX 1      ca+h    Ca  1.500
Ca66     4.687659468   14.805864806   23.947643603 XXXX 1      ca+h    Ca  1.500
Ca67     4.718444231    7.851222447   23.880445666 XXXX 1      ca+h    Ca  1.500
Ca68    -0.346024772   31.822114048    4.830711414 XXXX 1      ca+h    Ca  1.500
Ca69    -0.281524086   24.601160457    4.963799898 XXXX 1      ca+h    Ca  1.500
Ca70     1.690086609   19.638215895    4.440057713 XXXX 1      ca+h    Ca  1.500
Ca71    -0.008684086   11.228056637    4.900479619 XXXX 1      ca+h    Ca  1.500
Ca72     9.121834885   32.024495889    5.133542493 XXXX 1      ca+h    Ca  1.500
Ca73     8.778296252   25.316284655    4.967956760 XXXX 1      ca+h    Ca  1.500
Ca74    10.228278758   18.270447183    4.708545191 XXXX 1      ca+h    Ca  1.500
Ca75     4.615250599   31.937417663   12.893731885 XXXX 1      ca+h    Ca  1.500
Ca76     4.575398388   25.070468471   13.041523450 XXXX 1      ca+h    Ca  1.500
Ca77     4.633823763   18.148473455   13.165044209 XXXX 1      ca+h    Ca  1.500
Ca78     4.868460466   11.277487604   13.031149127 XXXX 1      ca+h    Ca  1.500
Ca79    -0.011196514   31.907839826   21.277523668 XXXX 1      ca+h    Ca  1.500
Ca80     0.020638720   25.050398809   21.239556876 XXXX 1      ca+h    Ca  1.500
Ca81    -0.014480116   18.230307488   21.356603865 XXXX 1      ca+h    Ca  1.500
Ca82    -0.040604386   11.316491658   21.252981572 XXXX 1      ca+h    Ca  1.500
Ca83    18.584628293   31.761811840    5.044881488 XXXX 1      ca+h    Ca  1.500
Ca84    21.955739449   19.837153406    4.445893108 XXXX 1      ca+h    Ca  1.500
Ca85    18.636659998   11.514970543    4.801049759 XXXX 1      ca+h    Ca  1.500
Ca86    14.049007357   31.866596942   13.136614237 XXXX 1      ca+h    Ca  1.500
Ca87    14.057432885   25.049192125   12.921359553 XXXX 1      ca+h    Ca  1.500
Ca88    14.281871216   18.220317496   13.137726608 XXXX 1      ca+h    Ca  1.500
Ca89    14.147944015   11.301818256   13.074530728 XXXX 1      ca+h    Ca  1.500
Ca90     9.465424865   32.016835820   21.285241858 XXXX 1      ca+h    Ca  1.500
Ca91     9.346892798   25.058403308   21.151678969 XXXX 1      ca+h    Ca  1.500
Ca92     9.444166737   18.183608764   21.418741650 XXXX 1      ca+h    Ca  1.500
Ca93     9.487862473   11.259537549   20.996764243 XXXX 1      ca+h    Ca  1.500
Ca94     3.303010509   33.625461504    4.338672155 XXXX 1      ca+h    Ca  1.500
Ca95     3.457498191   26.288865684    4.486437985 XXXX 1      ca+h    Ca  1.500
Ca96     3.413600600   13.191296790    4.520990360 XXXX 1      ca+h    Ca  1.500
Ca97    12.895916883   33.443918252    4.197289125 XXXX 1      ca+h    Ca  1.500
Ca98    12.469490602   26.484389566    4.416277449 XXXX 1      ca+h    Ca  1.500
Ca99    13.145993925   12.893671977    4.304963464 XXXX 1      ca+h    Ca  1.500
Ca100    8.108621205   33.602700652   12.191940556 XXXX 1      ca+h    Ca  1.500
Ca101    8.065996942   26.760334849   12.229241164 XXXX 1      ca+h    Ca  1.500
Ca102    8.186458683   20.071530922   12.271340909 XXXX 1      ca+h    Ca  1.500
Ca103    8.261253957   12.954247617   12.409433401 XXXX 1      ca+h    Ca  1.500
Ca104    3.486523471   33.642417192   20.404092788 XXXX 1      ca+h    Ca  1.500
Ca105    3.387836382   26.802339109   20.428845183 XXXX 1      ca+h    Ca  1.500
Ca106    3.352805188   19.976964994   20.383031128 XXXX 1      ca+h    Ca  1.500
Ca107    3.365290686   13.063784566   20.406671096 XXXX 1      ca+h    Ca  1.500
P1       6.312694909   33.704233385    5.224528682 XXXX 1      pap     P   1.000
P2       6.226908732   26.934596259    5.279951897 XXXX 1      pap     P   1.000
P3       6.869725516   19.736938592    4.380259280 XXXX 1      pap     P   1.000
P4       6.337574611   13.215127164    5.314171532 XXXX 1      pap     P   1.000
P5       1.588108971   33.615356953   13.605086852 XXXX 1      pap     P   1.000
P6       1.567548217   26.755355409   13.652502864 XXXX 1      pap     P   1.000
P7       1.623701532   19.884155122   13.530358624 XXXX 1      pap     P   1.000
P8       1.583074616   13.058447176   13.588663930 XXXX 1      pap     P   1.000
P9      15.726930921   33.688286586    5.463131583 XXXX 1      pap     P   1.000
P10     15.337836722   26.833353222    5.428431776 XXXX 1      pap     P   1.000
P11     15.822376026   20.054118615    5.215041490 XXXX 1      pap     P   1.000
P12     15.903034597   13.170706378    5.367164545 XXXX 1      pap     P   1.000
P13     10.960919591   33.669102926   13.631781390 XXXX 1      pap     P   1.000
P14     10.890257181   26.934154923   13.484268942 XXXX 1      pap     P   1.000
P15     10.994545028   19.888654962   13.512200043 XXXX 1      pap     P   1.000
P16     11.134563728   13.001083080   13.686750908 XXXX 1      pap     P   1.000
P17      6.322056217   33.595404213   21.753645410 XXXX 1      pap     P   1.000
P18      6.294058744   26.861611508   21.764924334 XXXX 1      pap     P   1.000
P19      6.287655559   20.041155884   21.771881341 XXXX 1      pap     P   1.000
P20      6.244387391   13.124831199   21.708559087 XXXX 1      pap     P   1.000
O249     6.361129524   33.652700898    6.801696356 XXXX 1      oap1    O  -0.800
O250     6.099685059   26.671699160    6.772060309 XXXX 1      oap1    O  -0.800
O251     6.187599686   19.610530625    5.788834834 XXXX 1      oap1    O  -0.800
O252     6.446348540   12.984528070    6.846335197 XXXX 1      oap1    O  -0.800
O253     1.696478154   33.751073896   15.163910874 XXXX 1      oap1    O  -0.800
O254     1.657063391   26.442272195   15.170526299 XXXX 1      oap1    O  -0.800
O255     1.682451150   20.222541034   15.010250611 XXXX 1      oap1    O  -0.800
O256     1.785986145   13.216969702   15.066806774 XXXX 1      oap1    O  -0.800
O257    15.563668757   33.856901065    6.993370845 XXXX 1      oap1    O  -0.800
O258    15.548230535   27.021629280    6.873294859 XXXX 1      oap1    O  -0.800
O259    15.482668336   19.400393829    6.611624128 XXXX 1      oap1    O  -0.800
O260    15.624181372   12.877126089    6.852029235 XXXX 1      oap1    O  -0.800
O261    10.956832521   33.530062936   15.142777342 XXXX 1      oap1    O  -0.800
O262    10.874603499   26.913489031   15.074479856 XXXX 1      oap1    O  -0.800
O263    10.978018524   19.812599637   15.079538904 XXXX 1      oap1    O  -0.800
O264    11.161006479   13.007082985   15.247846644 XXXX 1      oap1    O  -0.800
O265     6.457146625   33.549816661   23.315408500 XXXX 1      oap1    O  -0.800
O266     6.341344308   26.731504845   23.301013426 XXXX 1      oap1    O  -0.800
O267     6.299064261   20.187509926   23.317410170 XXXX 1      oap1    O  -0.800
O268     6.394627858   13.081318774   23.203306722 XXXX 1      oap1    O  -0.800
O269     7.769958969   34.035301534    4.707844728 XXXX 1      oap1    O  -0.800
O270     7.661703540   27.465904752    4.905676529 XXXX 1      oap1    O  -0.800
O271     8.398323368   19.715405007    4.523448715 XXXX 1      oap1    O  -0.800
O272     7.724280730   13.633203215    4.674865595 XXXX 1      oap1    O  -0.800
O273     3.029811762   33.579134251   12.931875935 XXXX 1      oap1    O  -0.800
O274     2.960178696   26.797464001   13.093558952 XXXX 1      oap1    O  -0.800
O275     3.028205343   19.853394775   12.926886697 XXXX 1      oap1    O  -0.800
O276     2.962480679   12.915450336   12.904799663 XXXX 1      oap1    O  -0.800
O277    17.179154199   33.715915948    5.007028000 XXXX 1      oap1    O  -0.800
O278    16.693169921   26.967681883    4.751413533 XXXX 1      oap1    O  -0.800
O279    17.357520119   20.366616743    5.140095963 XXXX 1      oap1    O  -0.800
O280    17.406281205   13.413542644    5.152016980 XXXX 1      oap1    O  -0.800
O281    12.385885053   33.573866345   13.036530833 XXXX 1      oap1    O  -0.800
O282    12.355930350   27.009834878   12.916582468 XXXX 1      oap1    O  -0.800
O283    12.498421785   19.869836654   12.917599509 XXXX 1      oap1    O  -0.800
O284    12.549265129   13.074957232   13.026378911 XXXX 1      oap1    O  -0.800
O285     7.759839878   33.548404877   21.091692539 XXXX 1      oap1    O  -0.800
O286     7.711899168   26.918309790   21.172217695 XXXX 1      oap1    O  -0.800
O287     7.743334512   19.960679917   21.152556311 XXXX 1      oap1    O  -0.800
O288     7.665815693   12.894507523   21.053584448 XXXX 1      oap1    O  -0.800
Ca108    8.292250450   33.835085957    8.300518986 XXXX 1      ca+h    Ca  1.500
Ca109    8.134848559   26.890858242    8.128856086 XXXX 1      ca+h    Ca  1.500
Ca110    8.267788354   19.917116474    8.115889482 XXXX 1      ca+h    Ca  1.500
Ca111    8.422833332   12.964865610    8.387853800 XXXX 1      ca+h    Ca  1.500
Ca112    3.678366259   33.673750660   16.611379636 XXXX 1      ca+h    Ca  1.500
Ca113    3.650140930   26.820385704   16.492775151 XXXX 1      ca+h    Ca  1.500
Ca114    3.555662709   19.978345770   16.336941018 XXXX 1      ca+h    Ca  1.500
Ca115    3.626580623   12.977121370   16.418263442 XXXX 1      ca+h    Ca  1.500
Ca116   17.608928135   33.667909927    8.231282208 XXXX 1      ca+h    Ca  1.500
Ca117   17.625281477   26.757354059    8.106728507 XXXX 1      ca+h    Ca  1.500
Ca118   17.833392000   19.808472537    7.500571609 XXXX 1      ca+h    Ca  1.500
Ca119   17.714448252   13.098413214    8.103975426 XXXX 1      ca+h    Ca  1.500
Ca120   12.922387165   33.724124353   16.446911298 XXXX 1      ca+h    Ca  1.500
Ca121   13.019022685   26.664212066   16.346642486 XXXX 1      ca+h    Ca  1.500
Ca122   13.023147885   19.935732126   16.389877984 XXXX 1      ca+h    Ca  1.500
Ca123   13.205759122   13.033510069   16.438380184 XXXX 1      ca+h    Ca  1.500
Ca124    8.333404703   33.567177347   24.678885120 XXXX 1      ca+h    Ca  1.500
Ca125    8.378418774   26.841640936   24.531237062 XXXX 1      ca+h    Ca  1.500
Ca126    8.283286973   20.004096154   24.601995949 XXXX 1      ca+h    Ca  1.500
Ca127    8.307333765   13.097853046   24.734740703 XXXX 1      ca+h    Ca  1.500
P21      5.647749021   33.672727461    9.993869275 XXXX 1      pap     P   1.000
P22      5.597323963   26.674935748   10.042360689 XXXX 1      pap     P   1.000
P23      5.956415091   19.777501156   10.098218705 XXXX 1      pap     P   1.000
P24      5.862071723   13.023099130   10.191036964 XXXX 1      pap     P   1.000
P25      1.004419067   33.654405138   18.330964888 XXXX 1      pap     P   1.000
P26      0.985284906   26.746000356   18.356862450 XXXX 1      pap     P   1.000
P27      0.964134907   19.905851067   18.229688906 XXXX 1      pap     P   1.000
P28      1.104815447   13.086419545   18.255716917 XXXX 1      pap     P   1.000
P29     15.174131657   33.587737829   10.090967976 XXXX 1      pap     P   1.000
P30     15.099775471   26.701445805   10.149280541 XXXX 1      pap     P   1.000
P31     15.313071027   19.904225448   10.181581739 XXXX 1      pap     P   1.000
P32     15.275787196   13.029193080   10.120499834 XXXX 1      pap     P   1.000
P33     10.487307905   33.580366309   18.153054854 XXXX 1      pap     P   1.000
P34     10.529821827   26.769876352   18.164735473 XXXX 1      pap     P   1.000
P35     10.360533559   19.861652862   18.205762777 XXXX 1      pap     P   1.000
P36     10.534536912   13.087960573   18.312694720 XXXX 1      pap     P   1.000
P37      5.857803030   33.716451902   26.449694191 XXXX 1      pap     P   1.000
P38      5.759208774   26.779289319   26.279568019 XXXX 1      pap     P   1.000
P39      5.674372732   19.892425288   26.387907983 XXXX 1      pap     P   1.000
P40      5.646224388   13.008754639   26.347699373 XXXX 1      pap     P   1.000
O289     4.227320181   33.620343704    9.285655026 XXXX 1      oap1    O  -0.800
O290     4.184808890   26.545612294    9.391792414 XXXX 1      oap1    O  -0.800
O291     4.502504472   19.919227977    9.508166517 XXXX 1      oap1    O  -0.800
O292     4.460918526   13.024180061    9.611604518 XXXX 1      oap1    O  -0.800
O293    -0.302725760   33.518753668   17.490060204 XXXX 1      oap1    O  -0.800
O294    -0.448649487   26.622421010   17.767582912 XXXX 1      oap1    O  -0.800
O295    -0.431693874   19.900246813   17.542345010 XXXX 1      oap1    O  -0.800
O296    -0.207039374   13.026588023   17.424862649 XXXX 1      oap1    O  -0.800
O297    13.803613682   33.533621131    9.433367012 XXXX 1      oap1    O  -0.800
O298    13.683298391   26.667637101    9.586144413 XXXX 1      oap1    O  -0.800
O299    14.112755691   20.460777136    9.422984389 XXXX 1      oap1    O  -0.800
O300    13.844563414   13.086994800    9.615340511 XXXX 1      oap1    O  -0.800
O301     9.112773867   33.512337354   17.501987263 XXXX 1      oap1    O  -0.800
O302     9.060395230   26.858477165   17.569788766 XXXX 1      oap1    O  -0.800
O303     9.107744876   19.957137095   17.409008614 XXXX 1      oap1    O  -0.800
O304     9.112066813   13.026670030   17.630641714 XXXX 1      oap1    O  -0.800
O305     4.488765585   33.729186319   25.738530958 XXXX 1      oap1    O  -0.800
O306     4.407468813   26.819061787   25.589320132 XXXX 1      oap1    O  -0.800
O307     4.350805562   19.802916804   25.619813271 XXXX 1      oap1    O  -0.800
O308     4.238834093   13.020352227   25.662283627 XXXX 1      oap1    O  -0.800
O309     5.648731215   33.670906882   11.569809933 XXXX 1      oap1    O  -0.800
O310     5.445622034   26.751459335   11.550749722 XXXX 1      oap1    O  -0.800
O311     5.912105292   19.722769168   11.646491075 XXXX 1      oap1    O  -0.800
O312     5.891799715   13.016963984   11.754164732 XXXX 1      oap1    O  -0.800
O313     0.721601192   33.612365032   19.870926074 XXXX 1      oap1    O  -0.800
O314     1.047861631   26.754963269   19.894685600 XXXX 1      oap1    O  -0.800
O315     0.858910253   19.899276645   19.773591759 XXXX 1      oap1    O  -0.800
O316     0.821754152   13.127002676   19.766929303 XXXX 1      oap1    O  -0.800
O317    15.056171143   33.565923157   11.654241320 XXXX 1      oap1    O  -0.800
O318    15.129469477   26.729894404   11.702247997 XXXX 1      oap1    O  -0.800
O319    14.995650419   19.960161336   11.704801333 XXXX 1      oap1    O  -0.800
O320    15.262194664   13.022370053   11.678916736 XXXX 1      oap1    O  -0.800
O321    10.372105953   33.751168515   19.694795626 XXXX 1      oap1    O  -0.800
O322    10.394371734   26.653632135   19.742931887 XXXX 1      oap1    O  -0.800
O323    10.032498747   19.773904979   19.757478383 XXXX 1      oap1    O  -0.800
O324    10.427049364   13.131559425   19.877963234 XXXX 1      oap1    O  -0.800
O325     5.719565575   33.847734237   27.983850579 XXXX 1      oap1    O  -0.800
O326     5.495325429   26.664544214   27.794662521 XXXX 1      oap1    O  -0.800
O327     5.358894253   20.102349565   27.882723536 XXXX 1      oap1    O  -0.800
O328     5.644869412   13.037763321   27.861130512 XXXX 1      oap1    O  -0.800
Ca128    2.130668259   33.619436400   10.369646285 XXXX 1      ca+h    Ca  1.500
Ca129    2.218333078   26.619575270   10.568625003 XXXX 1      ca+h    Ca  1.500
Ca130    2.289727495   19.940669584   10.369049280 XXXX 1      ca+h    Ca  1.500
Ca131    2.169137440   13.021996679   10.464283985 XXXX 1      ca+h    Ca  1.500
Ca132   11.756600720   33.597780794   10.477168248 XXXX 1      ca+h    Ca  1.500
Ca133   11.392422698   26.887394277   10.398699855 XXXX 1      ca+h    Ca  1.500
Ca134   11.939705077   19.864846231   10.546130400 XXXX 1      ca+h    Ca  1.500
Ca135   11.728172671   12.972113753   10.610192820 XXXX 1      ca+h    Ca  1.500
Ca136    7.025408388   33.793518498   18.478328010 XXXX 1      ca+h    Ca  1.500
Ca137    6.978871999   26.860478696   18.528374009 XXXX 1      ca+h    Ca  1.500
Ca138    7.057932249   19.960973513   18.572075877 XXXX 1      ca+h    Ca  1.500
Ca139    6.957907995   13.088972089   18.547475827 XXXX 1      ca+h    Ca  1.500
Ca140    2.387924354   33.614347500   26.682470610 XXXX 1      ca+h    Ca  1.500
Ca141    2.282604553   26.755309672   26.740777914 XXXX 1      ca+h    Ca  1.500
Ca142    2.357795969   19.982812524   26.759235448 XXXX 1      ca+h    Ca  1.500
Ca143    2.155806835   13.011283254   26.797093568 XXXX 1      ca+h    Ca  1.500
P41      2.040668708   33.615779016    6.913903308 XXXX 1      pap     P   1.000
P42      1.932995983   26.651068167    7.107354914 XXXX 1      pap     P   1.000
P43      1.927731127   19.882423125    7.384821564 XXXX 1      pap     P   1.000
P44      2.135590613   13.039502627    7.338951846 XXXX 1      pap     P   1.000
P45     11.401038108   33.659496471    7.393181501 XXXX 1      pap     P   1.000
P46     11.289865771   26.783206735    7.329373015 XXXX 1      pap     P   1.000
P47     11.487817958   19.775460117    7.434172989 XXXX 1      pap     P   1.000
P48     11.425241729   12.991522012    7.441497635 XXXX 1      pap     P   1.000
P49      6.778738179   33.564582948   15.369357753 XXXX 1      pap     P   1.000
P50      6.574231677   26.820437442   15.520365305 XXXX 1      pap     P   1.000
P51      6.734309217   19.970324212   15.435671780 XXXX 1      pap     P   1.000
P52      6.725403346   12.944824557   15.495179330 XXXX 1      pap     P   1.000
P53      2.044519549   33.612087368   23.559570526 XXXX 1      pap     P   1.000
P54      2.037837354   26.847579911   23.681422415 XXXX 1      pap     P   1.000
P55      1.923272393   19.967575312   23.663119699 XXXX 1      pap     P   1.000
P56      1.913561691   13.074261532   23.616530650 XXXX 1      pap     P   1.000
O329     3.579234606   33.577499934    6.657109693 XXXX 1      oap1    O  -0.800
O330     3.400753214   26.220263928    6.880121824 XXXX 1      oap1    O  -0.800
O331     3.245124733   20.046678305    6.546181445 XXXX 1      oap1    O  -0.800
O332     3.603810258   13.210467549    6.905205761 XXXX 1      oap1    O  -0.800
O333    12.612958139   33.374683902    6.504986890 XXXX 1      oap1    O  -0.800
O334    12.675046737   26.291581085    6.885991941 XXXX 1      oap1    O  -0.800
O335    12.686696801   19.576227452    6.468536024 XXXX 1      oap1    O  -0.800
O336    12.634510786   12.908870620    6.508104654 XXXX 1      oap1    O  -0.800
O337     8.037407171   33.427632316   14.492516122 XXXX 1      oap1    O  -0.800
O338     7.921191833   26.636404102   14.720635020 XXXX 1      oap1    O  -0.800
O339     8.019499616   19.915207934   14.621312291 XXXX 1      oap1    O  -0.800
O340     8.070610847   12.835041295   14.767379474 XXXX 1      oap1    O  -0.800
O341     3.319158606   33.634618074   22.690840173 XXXX 1      oap1    O  -0.800
O342     3.243955915   26.609471130   22.838641715 XXXX 1      oap1    O  -0.800
O343     3.157209993   19.803311203   22.771709040 XXXX 1      oap1    O  -0.800
O344     3.296626524   13.002190435   22.879024964 XXXX 1      oap1    O  -0.800
O345     1.287525665   33.490745833    5.585619545 XXXX 1      oap1    O  -0.800
O346     1.095669410   26.524155881    5.812790734 XXXX 1      oap1    O  -0.800
O347     0.765250719   19.560244394    6.512587644 XXXX 1      oap1    O  -0.800
O348     1.307135284   13.005687550    6.020086806 XXXX 1      oap1    O  -0.800
O349    10.100160694   33.844263011    6.567057718 XXXX 1      oap1    O  -0.800
O350    10.275572262   26.989814296    6.146756915 XXXX 1      oap1    O  -0.800
O351    10.128768195   19.653689218    6.716027985 XXXX 1      oap1    O  -0.800
O352    10.106289350   13.019268237    6.735686470 XXXX 1      oap1    O  -0.800
O353     5.457369289   33.566687049   14.492189054 XXXX 1      oap1    O  -0.800
O354     5.356276795   26.929349767   14.543135190 XXXX 1      oap1    O  -0.800
O355     5.434622081   20.033199571   14.641000231 XXXX 1      oap1    O  -0.800
O356     5.469481766   13.046838163   14.562823116 XXXX 1      oap1    O  -0.800
O357     0.787408312   33.597049581   22.726759581 XXXX 1      oap1    O  -0.800
O358     0.791741393   27.042104088   22.761050806 XXXX 1      oap1    O  -0.800
O359     0.580105837   20.058992112   22.877335043 XXXX 1      oap1    O  -0.800
O360     0.733109129   13.145914010   22.602189768 XXXX 1      oap1    O  -0.800
Ca144    1.266029825   30.265091876    8.130403367 XXXX 1      ca+h    Ca  1.500
Ca145    1.096450832   23.413559838    8.448213569 XXXX 1      ca+h    Ca  1.500
Ca146    1.422103448   16.420607387    8.452883193 XXXX 1      ca+h    Ca  1.500
Ca147    1.334550983    9.532386538    8.312359671 XXXX 1      ca+h    Ca  1.500
Ca148   10.679598423   30.296864160    8.339572416 XXXX 1      ca+h    Ca  1.500
Ca149   10.823691216   23.306477758    8.075713515 XXXX 1      ca+h    Ca  1.500
Ca150   10.677212699   16.451122268    8.506764758 XXXX 1      ca+h    Ca  1.500
Ca151   10.623075711    9.652493487    8.174957809 XXXX 1      ca+h    Ca  1.500
Ca152    5.764852542   30.262075721   16.459186273 XXXX 1      ca+h    Ca  1.500
Ca153    5.934669088   23.427398103   16.612079521 XXXX 1      ca+h    Ca  1.500
Ca154    5.906322333   16.458308479   16.464253868 XXXX 1      ca+h    Ca  1.500
Ca155    5.860538070    9.584331635   16.670674095 XXXX 1      ca+h    Ca  1.500
Ca156    1.140201925   30.116140262   24.744601495 XXXX 1      ca+h    Ca  1.500
Ca157    1.138624683   23.393937764   24.739343258 XXXX 1      ca+h    Ca  1.500
Ca158    1.209588052   16.543999367   24.818655609 XXXX 1      ca+h    Ca  1.500
Ca159    1.239630938    9.593223142   24.534373003 XXXX 1      ca+h    Ca  1.500
Ca160   19.945677487   30.125232573    8.278320377 XXXX 1      ca+h    Ca  1.500
Ca161   19.976502785   23.435858273    8.131658399 XXXX 1      ca+h    Ca  1.500
Ca162   20.050469292   16.660969944    8.488137741 XXXX 1      ca+h    Ca  1.500
Ca163   20.253488987    9.565681852    8.034232387 XXXX 1      ca+h    Ca  1.500
Ca164   15.360912996   30.075278431   16.453801771 XXXX 1      ca+h    Ca  1.500
Ca165   15.313784933   23.281577674   16.515184981 XXXX 1      ca+h    Ca  1.500
Ca166   15.295592341   16.506112466   16.620301317 XXXX 1      ca+h    Ca  1.500
Ca167   15.562496133    9.687597818   16.586652774 XXXX 1      ca+h    Ca  1.500
Ca168   10.683494529   30.169619152   24.658611453 XXXX 1      ca+h    Ca  1.500
Ca169   10.759097546   23.407342809   24.805011074 XXXX 1      ca+h    Ca  1.500
Ca170   10.630043702   16.544341584   24.845250920 XXXX 1      ca+h    Ca  1.500
Ca171   10.584373774    9.625807841   24.653515809 XXXX 1      ca+h    Ca  1.500
P57      7.591938904   30.153893742    6.874972280 XXXX 1      pap     P   1.000
P58      7.662961231   23.210468247    6.944594421 XXXX 1      pap     P   1.000
P59      7.907967928   16.610870930    7.129984228 XXXX 1      pap     P   1.000
P60      7.754092901    9.657340572    6.961785004 XXXX 1      pap     P   1.000
P61      2.962506586   30.278806798   15.275159488 XXXX 1      pap     P   1.000
P62      3.100530350   23.357649472   15.299826018 XXXX 1      pap     P   1.000
P63      3.028439495   16.473217980   15.220254097 XXXX 1      pap     P   1.000
P64      3.177590961    9.587709385   15.062242361 XXXX 1      pap     P   1.000
P65     17.051968031   30.168061518    7.123399390 XXXX 1      pap     P   1.000
P66     17.162008932   23.285314089    7.198688050 XXXX 1      pap     P   1.000
P67     17.155187303   16.547192281    7.190104407 XXXX 1      pap     P   1.000
P68     17.276033448    9.615775206    6.868203400 XXXX 1      pap     P   1.000
P69     12.477525135   30.228343122   15.210910403 XXXX 1      pap     P   1.000
P70     12.409665985   23.295573518   15.133261194 XXXX 1      pap     P   1.000
P71     12.549021430   16.444867109   15.196578028 XXXX 1      pap     P   1.000
P72     12.570663092    9.618602293   15.260567934 XXXX 1      pap     P   1.000
P73      7.782581110   30.294276357   23.352649163 XXXX 1      pap     P   1.000
P74      7.744129071   23.381652522   23.447383109 XXXX 1      pap     P   1.000
P75      7.759507801   16.528894337   23.430690594 XXXX 1      pap     P   1.000
P76      7.784195072    9.595394179   23.354189736 XXXX 1      pap     P   1.000
O361     7.499832354   30.254098686    5.339077617 XXXX 1      oap1    O  -0.800
O362     7.857284498   23.122988887    5.471615545 XXXX 1      oap1    O  -0.800
O363     8.317102895   16.828036795    5.655993825 XXXX 1      oap1    O  -0.800
O364     7.849234841    9.919760729    5.477448816 XXXX 1      oap1    O  -0.800
O365     3.029853805   30.241873214   13.708471042 XXXX 1      oap1    O  -0.800
O366     3.006117587   23.247541446   13.798657942 XXXX 1      oap1    O  -0.800
O367     2.898329553   16.304408197   13.716325190 XXXX 1      oap1    O  -0.800
O368     3.068306277    9.391551899   13.508117822 XXXX 1      oap1    O  -0.800
O369    16.927203652   29.816383290    5.656627440 XXXX 1      oap1    O  -0.800
O370    16.975221010   23.522533789    5.716500107 XXXX 1      oap1    O  -0.800
O371    17.150254108   16.918196870    5.703988638 XXXX 1      oap1    O  -0.800
O372    17.014524254    9.595825086    5.347399351 XXXX 1      oap1    O  -0.800
O373    12.569955531   30.034540030   13.676140486 XXXX 1      oap1    O  -0.800
O374    12.252112298   23.446423988   13.595362134 XXXX 1      oap1    O  -0.800
O375    12.540210564   16.566702070   13.660810723 XXXX 1      oap1    O  -0.800
O376    12.610802876    9.461218191   13.753242986 XXXX 1      oap1    O  -0.800
O377     7.717490906   30.378115895   21.865001172 XXXX 1      oap1    O  -0.800
O378     7.825137569   23.074758195   21.950845273 XXXX 1      oap1    O  -0.800
O379     7.727116157   16.494507654   21.883275835 XXXX 1      oap1    O  -0.800
O380     7.800063390    9.904634146   21.887093100 XXXX 1      oap1    O  -0.800
O381     6.164105463   29.941833489    7.418656184 XXXX 1      oap1    O  -0.800
O382     6.196308741   22.802279082    7.151421866 XXXX 1      oap1    O  -0.800
O383     6.347729419   16.754534746    7.217987632 XXXX 1      oap1    O  -0.800
O384     6.296573923    9.473378776    7.405675950 XXXX 1      oap1    O  -0.800
O385     1.542691259   30.227564353   15.919971499 XXXX 1      oap1    O  -0.800
O386     1.663057986   23.394674874   15.917362443 XXXX 1      oap1    O  -0.800
O387     1.614735625   16.484472683   15.919605941 XXXX 1      oap1    O  -0.800
O388     1.759645772    9.772562055   15.728594829 XXXX 1      oap1    O  -0.800
O389    15.669240729   30.203202927    7.725026855 XXXX 1      oap1    O  -0.800
O390    15.775409399   22.879739489    7.763053804 XXXX 1      oap1    O  -0.800
O391    15.721197891   16.442528352    7.701708917 XXXX 1      oap1    O  -0.800
O392    16.004863805    9.419570091    7.766898524 XXXX 1      oap1    O  -0.800
O393    10.983533180   30.251857387   15.681309296 XXXX 1      oap1    O  -0.800
O394    11.040501424   23.314045198   15.903809344 XXXX 1      oap1    O  -0.800
O395    11.176893895   16.382540126   15.814838364 XXXX 1      oap1    O  -0.800
O396    11.109304747    9.691860598   15.767724429 XXXX 1      oap1    O  -0.800
O397     6.431041735   30.192781528   24.038519395 XXXX 1      oap1    O  -0.800
O398     6.225347848   23.372589633   23.870752333 XXXX 1      oap1    O  -0.800
O399     6.325752141   16.620177522   24.036048162 XXXX 1      oap1    O  -0.800
O400     6.317383632    9.563197673   23.842090134 XXXX 1      oap1    O  -0.800
Ca172    5.422192523   30.164498145    4.329263459 XXXX 1      ca+h    Ca  1.500
Ca173    5.820411451   16.787254532    4.674984834 XXXX 1      ca+h    Ca  1.500
Ca174    5.761856618    9.738900144    4.299002316 XXXX 1      ca+h    Ca  1.500
Ca175    0.940676389   30.138681612   12.260475024 XXXX 1      ca+h    Ca  1.500
Ca176    1.020630768   23.318888866   12.493963977 XXXX 1      ca+h    Ca  1.500
Ca177    0.928681699   16.459777693   12.322344723 XXXX 1      ca+h    Ca  1.500
Ca178    1.138854965    9.655673136   12.268221758 XXXX 1      ca+h    Ca  1.500
Ca179   15.008486806   30.065958847    4.300359846 XXXX 1      ca+h    Ca  1.500
Ca180   15.120027236   23.430104180    4.136417467 XXXX 1      ca+h    Ca  1.500
Ca181   14.931513313   17.054471027    4.589719727 XXXX 1      ca+h    Ca  1.500
Ca182   15.042997862    9.750258029    4.056174977 XXXX 1      ca+h    Ca  1.500
Ca183   10.587825983   30.272394048   12.411032053 XXXX 1      ca+h    Ca  1.500
Ca184   10.533708736   23.219256774   12.178414925 XXXX 1      ca+h    Ca  1.500
Ca185   10.550322262   16.492501525   12.406622022 XXXX 1      ca+h    Ca  1.500
Ca186   10.559668297    9.496282470   12.334873358 XXXX 1      ca+h    Ca  1.500
Ca187    5.805813353   30.252497534   20.535368756 XXXX 1      ca+h    Ca  1.500
Ca188    5.770777929   23.454777749   20.763308532 XXXX 1      ca+h    Ca  1.500
Ca189    5.646834715   16.684282670   20.594665704 XXXX 1      ca+h    Ca  1.500
Ca190    5.857666177    9.768038687   20.560980623 XXXX 1      ca+h    Ca  1.500
P77     10.229128729   32.091425268    2.435897998 XXXX 1      pap     P   1.000
P78     10.070174450   25.165128418    2.354470361 XXXX 1      pap     P   1.000
P79      8.407438939   16.163867825    2.462433455 XXXX 1      pap     P   1.000
P80      9.990623554    6.365333472    2.337971493 XXXX 1      pap     P   1.000
P81      3.560010763   30.133310006   10.405977267 XXXX 1      pap     P   1.000
P82      3.437523479   23.392079130   10.664173956 XXXX 1      pap     P   1.000
P83      3.726313579   16.383576664   10.694062487 XXXX 1      pap     P   1.000
P84      3.674305874    9.622095570   10.466016484 XXXX 1      pap     P   1.000
P85     17.612562893   30.870780072    2.272427670 XXXX 1      pap     P   1.000
P86     17.523394822   24.814068646    2.460006337 XXXX 1      pap     P   1.000
P87     19.926574341   13.765712287    2.257826160 XXXX 1      pap     P   1.000
P88     17.838292731    9.535173454    1.726604109 XXXX 1      pap     P   1.000
P89     13.027620277   30.290782463   10.530662567 XXXX 1      pap     P   1.000
P90     13.022724739   23.315031497   10.560664718 XXXX 1      pap     P   1.000
P91     13.038588390   16.327187030   10.676000854 XXXX 1      pap     P   1.000
P92     13.177669037    9.548937450   10.635255093 XXXX 1      pap     P   1.000
P93      8.236143912   30.287709715   18.682089385 XXXX 1      pap     P   1.000
P94      8.292337059   23.411884273   18.777898556 XXXX 1      pap     P   1.000
P95      8.242705380   16.486412790   18.841207414 XXXX 1      pap     P   1.000
P96      8.301014610    9.631561136   18.663753882 XXXX 1      pap     P   1.000
O401    11.578703929   31.636825755    1.896053616 XXXX 1      oap1    O  -0.650
O402     9.209579471   24.050105575    3.023394243 XXXX 1      oap1    O  -0.675
O403     8.883644240   15.314381540    1.281909576 XXXX 1      oap1    O  -0.650
O404     8.847683271    5.328594259    2.341399437 XXXX 1      oap1    O  -0.675
O405     4.896664622   30.079341312   11.160395277 XXXX 1      oap1    O  -0.800
O406     4.919264307   23.334993177   11.139028058 XXXX 1      oap1    O  -0.800
O407     5.001763671   16.375744489   11.467478236 XXXX 1      oap1    O  -0.800
O408     5.062383506    9.725897830   11.097775680 XXXX 1      oap1    O  -0.800
O409    18.256751975   29.842191685    3.218403645 XXXX 1      oap1    O  -0.675
O410    17.896130961   23.428739830    3.115503030 XXXX 1      oap1    O  -0.675
O411    20.049760980   12.590527354    3.292785780 XXXX 1      oap1    O  -0.675
O412    18.134307983   10.677599145    0.684278303 XXXX 1      oap1    O  -0.650
O413    14.413201372   30.177264510   11.228654587 XXXX 1      oap1    O  -0.800
O414    14.355782178   23.385820211   11.285658424 XXXX 1      oap1    O  -0.800
O415    14.377634422   16.486627584   11.445584409 XXXX 1      oap1    O  -0.800
O416    14.533132580    9.621046262   11.359846894 XXXX 1      oap1    O  -0.800
O417     9.551842898   30.111036047   19.499617144 XXXX 1      oap1    O  -0.800
O418     9.654974044   23.206890229   19.482562071 XXXX 1      oap1    O  -0.800
O419     9.606314497   16.598981699   19.605071130 XXXX 1      oap1    O  -0.800
O420     9.611547964    9.403704849   19.461133302 XXXX 1      oap1    O  -0.800
O421     9.249795253   32.565002697    1.371623658 XXXX 1      oap1    O  -0.650
O422    11.421578305   24.552815597    1.919473921 XXXX 1      oap1    O  -0.650
O423     7.221408747   15.410147793    3.136756340 XXXX 1      oap1    O  -0.650
O424    10.631118842    6.304545530    0.950924648 XXXX 1      oap1    O  -0.650
O425     3.717883717   30.199189327    8.872722333 XXXX 1      oap1    O  -0.800
O426     3.315620363   23.699087534    9.105150670 XXXX 1      oap1    O  -0.800
O427     3.887047917   16.350996227    9.138049428 XXXX 1      oap1    O  -0.800
O428     3.745485901    9.623384255    8.902520231 XXXX 1      oap1    O  -0.800
O429    17.772243038   30.324860134    0.868100862 XXXX 1      oap1    O  -0.650
O430    17.943634003   24.715382825    0.967498025 XXXX 1      oap1    O  -0.650
O431    21.373976824   14.240881087    2.190061313 XXXX 1      oap1    O  -0.650
O432    18.194296760    8.150854208    1.162312059 XXXX 1      oap1    O  -0.650
O433    13.161564745   30.484501074    9.073783653 XXXX 1      oap1    O  -0.800
O434    13.228008405   23.300926118    9.016798751 XXXX 1      oap1    O  -0.800
O435    13.241935595   16.251674506    9.164277970 XXXX 1      oap1    O  -0.800
O436    13.306312548    9.605252456    9.107811426 XXXX 1      oap1    O  -0.800
O437     8.518865535   30.198190259   17.184078153 XXXX 1      oap1    O  -0.800
O438     8.391289577   23.580195557   17.271700084 XXXX 1      oap1    O  -0.800
O439     8.616254261   16.479171352   17.308035914 XXXX 1      oap1    O  -0.800
O440     8.515150520    9.603974342   17.154350777 XXXX 1      oap1    O  -0.800
Ca191    7.075859623   30.045925568   10.374900589 XXXX 1      ca+h    Ca  1.500
Ca192    7.112960274   23.208265656   10.058563361 XXXX 1      ca+h    Ca  1.500
Ca193    7.257263087   16.472392413   10.338720782 XXXX 1      ca+h    Ca  1.500
Ca194    7.241816398    9.580431980   10.152159539 XXXX 1      ca+h    Ca  1.500
Ca195    2.479912370   30.159336265   18.392989277 XXXX 1      ca+h    Ca  1.500
Ca196    2.290372793   23.385964383   18.289455364 XXXX 1      ca+h    Ca  1.500
Ca197    2.243790906   16.547635746   18.444881618 XXXX 1      ca+h    Ca  1.500
Ca198    2.357192880    9.655171562   18.379457700 XXXX 1      ca+h    Ca  1.500
Ca199   16.513941448   30.107316960   10.234101859 XXXX 1      ca+h    Ca  1.500
Ca200   16.565612202   23.151681885   10.337759506 XXXX 1      ca+h    Ca  1.500
Ca201   16.536091538   16.442208496   10.243130806 XXXX 1      ca+h    Ca  1.500
Ca202   16.706886980    9.702514829   10.273487426 XXXX 1      ca+h    Ca  1.500
Ca203   11.698499450   30.209293002   18.485109541 XXXX 1      ca+h    Ca  1.500
Ca204   11.684544147   23.343183777   18.376959872 XXXX 1      ca+h    Ca  1.500
Ca205   11.696995296   16.614877972   18.478921966 XXXX 1      ca+h    Ca  1.500
Ca206   11.779353985    9.609522335   18.371666583 XXXX 1      ca+h    Ca  1.500
P97      2.617613300   30.147719474    4.983530973 XXXX 1      pap     P   1.000
P98      2.408848406   23.303896370    5.035259424 XXXX 1      pap     P   1.000
P99      2.848114202   16.588776633    5.241176725 XXXX 1      pap     P   1.000
P100     2.868924809    9.766529655    4.908769028 XXXX 1      pap     P   1.000
P101    12.111227406   30.159368898    5.241683297 XXXX 1      pap     P   1.000
P102    11.986984732   23.427352844    5.072677433 XXXX 1      pap     P   1.000
P103    12.204791407   16.240764701    5.275397684 XXXX 1      pap     P   1.000
P104    12.400837453    9.636314462    5.146472696 XXXX 1      pap     P   1.000
P105     7.270554952   30.192612559   13.352979302 XXXX 1      pap     P   1.000
P106     7.348298436   23.363267299   13.333905330 XXXX 1      pap     P   1.000
P107     7.548474134   16.443555873   13.387493494 XXXX 1      pap     P   1.000
P108     7.428638043    9.525144999   13.331304315 XXXX 1      pap     P   1.000
P109     2.732795429   30.269896465   21.562591617 XXXX 1      pap     P   1.000
P110     2.597233229   23.366006947   21.573064177 XXXX 1      pap     P   1.000
P111     2.586740170   16.406287302   21.503457729 XXXX 1      pap     P   1.000
P112     2.554940158    9.618913436   21.495504275 XXXX 1      pap     P   1.000
P113    21.149274183   30.123426617    5.089143685 XXXX 1      pap     P   1.000
P114    21.637596168   23.390437581    5.161656435 XXXX 1      pap     P   1.000
P115    21.835213641   16.463181787    5.262644882 XXXX 1      pap     P   1.000
P116    21.645269523    9.512166672    5.008921280 XXXX 1      pap     P   1.000
P117    16.820205879   30.210647630   13.349141295 XXXX 1      pap     P   1.000
P118    16.846555047   23.313765176   13.353526846 XXXX 1      pap     P   1.000
P119    16.905697838   16.439839786   13.394918832 XXXX 1      pap     P   1.000
P120    16.835753201    9.624123911   13.354153922 XXXX 1      pap     P   1.000
P121    12.086923215   30.227496168   21.431821250 XXXX 1      pap     P   1.000
P122    11.986779229   23.284497092   21.570605711 XXXX 1      pap     P   1.000
P123    12.145455917   16.535453888   21.614335036 XXXX 1      pap     P   1.000
P124    12.148342829    9.662551864   21.590138203 XXXX 1      pap     P   1.000
O441     1.180471920   30.334422297    5.672083653 XXXX 1      oap1    O  -0.800
O442     1.262585333   23.250687189    6.073733827 XXXX 1      oap1    O  -0.800
O443     1.443248627   16.668592482    5.980295322 XXXX 1      oap1    O  -0.800
O444     1.712013726    9.127749475    5.704229859 XXXX 1      oap1    O  -0.800
O445    10.747346605   30.528446582    5.883259070 XXXX 1      oap1    O  -0.800
O446    10.807118596   24.263273852    5.462830118 XXXX 1      oap1    O  -0.800
O447    10.939055711   16.507856258    6.136397011 XXXX 1      oap1    O  -0.800
O448    11.103042785    9.864700649    5.917451903 XXXX 1      oap1    O  -0.800
O449     5.970004365   30.310892036   14.091559085 XXXX 1      oap1    O  -0.800
O450     6.123472323   23.335142480   14.210454939 XXXX 1      oap1    O  -0.800
O451     6.203442967   16.554943209   14.162972300 XXXX 1      oap1    O  -0.800
O452     6.107395671    9.409854070   14.144490196 XXXX 1      oap1    O  -0.800
O453     1.427884697   30.139868748   22.433363016 XXXX 1      oap1    O  -0.800
O454     1.208613728   23.395854467   22.335375121 XXXX 1      oap1    O  -0.800
O455     1.285543105   16.573920556   22.274839893 XXXX 1      oap1    O  -0.800
O456     1.260785509    9.578816291   22.299312089 XXXX 1      oap1    O  -0.800
O457    19.817360355   30.028169471    5.851406722 XXXX 1      oap1    O  -0.800
O458    20.275596651   23.820649550    5.749579658 XXXX 1      oap1    O  -0.800
O459    20.583223657   16.678164317    6.135425862 XXXX 1      oap1    O  -0.800
O460    20.248059389    9.931140345    5.539124821 XXXX 1      oap1    O  -0.800
O461    15.518321134   30.172301544   14.196895284 XXXX 1      oap1    O  -0.800
O462    15.550549433   23.485240426   14.127312512 XXXX 1      oap1    O  -0.800
O463    15.538534435   16.527337802   14.177029910 XXXX 1      oap1    O  -0.800
O464    15.504892739    9.594324711   14.164636052 XXXX 1      oap1    O  -0.800
O465    10.783806609   30.210416882   22.268497266 XXXX 1      oap1    O  -0.800
O466    10.760190904   23.264981402   22.436193452 XXXX 1      oap1    O  -0.800
O467    10.809895547   16.178646399   22.340691774 XXXX 1      oap1    O  -0.800
O468    10.827397923    9.637856760   22.327987675 XXXX 1      oap1    O  -0.800
O469     3.772221074   30.042669556    5.993672490 XXXX 1      oap1    O  -0.800
O470     3.693218685   23.777666640    5.681201793 XXXX 1      oap1    O  -0.800
O471     3.941788806   16.261137669    6.251847990 XXXX 1      oap1    O  -0.800
O472     4.034584338   10.050623146    5.899730846 XXXX 1      oap1    O  -0.800
O473    13.173999953   30.083850257    6.327924635 XXXX 1      oap1    O  -0.800
O474    12.797696172   23.365210216    6.423278649 XXXX 1      oap1    O  -0.800
O475    13.434507321   16.204662121    6.196930784 XXXX 1      oap1    O  -0.800
O476    13.596639146    9.787263326    6.049313547 XXXX 1      oap1    O  -0.800
O477     8.447185829   30.211732754   14.320530163 XXXX 1      oap1    O  -0.800
O478     8.630407735   23.328934719   14.263245041 XXXX 1      oap1    O  -0.800
O479     8.790317755   16.472460094   14.325006584 XXXX 1      oap1    O  -0.800
O480     8.761574413    9.495799735   14.155104193 XXXX 1      oap1    O  -0.800
O481     3.973881634   30.298796473   22.407446156 XXXX 1      oap1    O  -0.800
O482     3.708383723   23.399117962   22.627618263 XXXX 1      oap1    O  -0.800
O483     3.794330458   16.282132502   22.462661950 XXXX 1      oap1    O  -0.800
O484     3.756287543    9.488512945   22.466369015 XXXX 1      oap1    O  -0.800
O485    22.279324399   30.275975216    6.172140460 XXXX 1      oap1    O  -0.800
O486    22.730342985   23.305728678    6.273973250 XXXX 1      oap1    O  -0.800
O487    23.058696247   16.275759397    6.152219994 XXXX 1      oap1    O  -0.800
O488    22.683324074    9.400563736    6.168280626 XXXX 1      oap1    O  -0.800
O489    18.077073831   30.173791643   14.324600782 XXXX 1      oap1    O  -0.800
O490    18.140414661   23.185724048   14.177809022 XXXX 1      oap1    O  -0.800
O491    18.167860670   16.412556366   14.333878757 XXXX 1      oap1    O  -0.800
O492    18.114120894    9.571102248   14.192848443 XXXX 1      oap1    O  -0.800
O493    13.333707505   30.262485383   22.405485411 XXXX 1      oap1    O  -0.800
O494    13.291011958   23.314279499   22.357682675 XXXX 1      oap1    O  -0.800
O495    13.316185992   16.623863616   22.544047004 XXXX 1      oap1    O  -0.800
O496    13.392419280    9.690942793   22.411163855 XXXX 1      oap1    O  -0.800
O497    -0.115146590   36.345109617   10.330161224 XXXX 1      oap2    O  -1.100
O498    -0.115235679   30.765461668   10.078861100 XXXX 1      oap2    O  -1.100
O499    -0.071861188   24.158615595   10.485655084 XXXX 1      oap2    O  -1.100
O500     0.098460571   15.408800404   10.376103328 XXXX 1      oap2    O  -1.100
O501     9.270735109    3.079139423   10.152111623 XXXX 1      oap2    O  -1.100
O502     9.364514472   30.739800478   10.258656341 XXXX 1      oap2    O  -1.100
O503     9.390875917   23.782190045   10.094648422 XXXX 1      oap2    O  -1.100
O504     9.498760790   15.598700091   10.430686143 XXXX 1      oap2    O  -1.100
O505     4.734212086    3.483109316   18.345011718 XXXX 1      oap2    O  -1.100
O506     4.649568781   31.270051272   18.521680700 XXXX 1      oap2    O  -1.100
O507     4.725675866   24.051299426   18.661163527 XXXX 1      oap2    O  -1.100
O508     4.600320428   16.566880522   18.468315065 XXXX 1      oap2    O  -1.100
O509     9.362042583   34.281505654   10.286110545 XXXX 1      oap2    O  -1.100
O510     9.188138180   27.690792123   10.228759896 XXXX 1      oap2    O  -1.100
O511     9.457738475   20.104208099   10.214280992 XXXX 1      oap2    O  -1.100
O512     9.443852559   12.111379513   10.439569064 XXXX 1      oap2    O  -1.100
O513     4.779947291   34.565149985   18.576853394 XXXX 1      oap2    O  -1.100
O514     4.661813848   27.665366097   18.521910741 XXXX 1      oap2    O  -1.100
O515     4.619493330   19.542586804   18.447879768 XXXX 1      oap2    O  -1.100
O516     4.631360818   13.722618869   18.477561296 XXXX 1      oap2    O  -1.100
H1      -0.441666521   35.478895196    9.978836078 XXXX 1      hop     H   0.200
H2       0.083008496   31.650194155    9.971877351 XXXX 1      hop     H   0.200
H3      -0.602398634   24.872030470   10.356923422 XXXX 1      hop     H   0.200
H4       0.354875036   14.721085349    9.795990438 XXXX 1      hop     H   0.200
H5       9.025721452    3.915271630    9.782246934 XXXX 1      hop     H   0.200
H6       9.142193247   31.476191881   10.751929091 XXXX 1      hop     H   0.200
H7       9.028241658   24.680067950   10.151111143 XXXX 1      hop     H   0.200
H8       9.538498501   14.701724269   10.885361876 XXXX 1      hop     H   0.200
H9       4.511609422    4.342720039   18.189977209 XXXX 1      hop     H   0.200
H10      5.110982399   32.109299852   18.373720074 XXXX 1      hop     H   0.200
H11      4.824797756   24.709538084   19.349485185 XXXX 1      hop     H   0.200
H12      4.610866192   15.676735018   18.275329573 XXXX 1      hop     H   0.200
H13      9.528813517   35.180021298   10.171816932 XXXX 1      hop     H   0.200
H14      9.433461115   28.597453354   10.282896433 XXXX 1      hop     H   0.200
H15      9.980803368   20.788614163    9.781008495 XXXX 1      hop     H   0.200
H16      9.156112552   11.259485840   10.127739071 XXXX 1      hop     H   0.200
H17      4.390932827   35.428076091   18.649404247 XXXX 1      hop     H   0.200
H18      5.200134363   28.356100472   18.286139285 XXXX 1      hop     H   0.200
H19      4.732588107   18.569009537   18.419118044 XXXX 1      hop     H   0.200
H20      4.733240081   14.652440244   18.663129840 XXXX 1      hop     H   0.200
H21      9.874630840    6.378574599    0.378845682 XXXX 1      hop     H   0.400
H22      7.494007495   14.634464673    3.673564390 XXXX 1      hop     H   0.400
H23     11.951373827   24.346202714    2.692114134 XXXX 1      hop     H   0.400
H24      9.061403335   33.483374299    1.402328423 XXXX 1      hop     H   0.400
H25     17.612085749    8.162193547    0.437677750 XXXX 1      hop     H   0.400
H26     21.449961468   14.915372404    2.882463203 XXXX 1      hop     H   0.400
H27     17.142188165   24.691090084    0.439172494 XXXX 1      hop     H   0.400
H28     17.817672139   29.384185897    0.894143221 XXXX 1      hop     H   0.400
H29     11.949724011   31.258476820    2.693216739 XXXX 1      hop     H   0.400
H30      9.530839175   15.780214229    0.742261041 XXXX 1      hop     H   0.400
H31      9.010247347   24.899496171    0.683078740 XXXX 1      hop     H   0.400
H32      7.450111650   17.969845809    2.532839145 XXXX 1      hop     H   0.400
H33     18.748578285   11.385904724    0.974000401 XXXX 1      hop     H   0.400
H34     19.230599999   14.064264087    0.468447029 XXXX 1      hop     H   0.400
H35     17.456638540   26.438241728    3.800435122 XXXX 1      hop     H   0.400
H36     18.366523899   32.579723690    1.598019079 XXXX 1      hop     H   0.400
end
O1       5.427032130    7.447093419    4.933149094 XXXX 1      oap1    O  -0.800
O2       0.805208824    7.251640642   12.796523037 XXXX 1      oap1    O  -0.800
O3      15.160800167    7.485299285    4.766788765 XXXX 1      oap1    O  -0.800
O4      10.271406286    7.168737325   12.910553474 XXXX 1      oap1    O  -0.800
O5       5.546670334    7.487725441   21.256984940 XXXX 1      oap1    O  -0.800
O6       6.502955404    7.421845390    9.494525162 XXXX 1      oap1    O  -0.800
O7       1.560250495    7.500165382   17.882710088 XXXX 1      oap1    O  -0.800
O8      16.119968526    7.440769789    9.599343045 XXXX 1      oap1    O  -0.800
O9      11.261210016    7.386527008   17.607503472 XXXX 1      oap1    O  -0.800
O10      6.664320865    7.452177729   25.940791183 XXXX 1      oap1    O  -0.800
O11      1.999038014    7.405195347    8.016471892 XXXX 1      oap1    O  -0.800
O12     11.612296441    7.460126742    8.053701997 XXXX 1      oap1    O  -0.800
O13      6.891909568    7.518684102   16.316261646 XXXX 1      oap1    O  -0.800
O14      2.062269995    7.313094790   24.533806145 XXXX 1      oap1    O  -0.800
O15      8.611413569    4.061521380    7.360043943 XXXX 1      oap1    O  -0.800
O16      3.742118463    4.113688388   15.486732545 XXXX 1      oap1    O  -0.800
O17     17.993344148    3.933595988    7.468882740 XXXX 1      oap1    O  -0.800
O18     13.308724684    4.061091414   15.720809516 XXXX 1      oap1    O  -0.800
O19      8.591753718    3.720423209   24.182934040 XXXX 1      oap1    O  -0.800
O20      8.223174496    3.448459931    0.984453165 XXXX 1      oap1    O  -0.650
O21      2.635629055    3.796232503   10.743397514 XXXX 1      oap1    O  -0.800
O22     16.363711652    3.043383104    2.549984526 XXXX 1      oap1    O  -0.675
O23     12.219937183    3.953571840   11.209164085 XXXX 1      oap1    O  -0.800
O24      7.696403208    4.076350037   19.204398318 XXXX 1      oap1    O  -0.800
O25      3.005327868    4.054044609    4.129461218 XXXX 1      oap1    O  -0.800
O26     12.677264481    3.563283313    4.096153447 XXXX 1      oap1    O  -0.800
O27      7.349613428    4.005401085   12.558877983 XXXX 1      oap1    O  -0.800
O28      2.606948526    4.081325151   20.739934929 XXXX 1      oap1    O  -0.800
O29     21.895385428    3.904329794    4.037135094 XXXX 1      oap1    O  -0.800
O30     16.782802627    4.023321351   12.440863967 XXXX 1      oap1    O  -0.800
O31     12.053061352    3.913167303   20.688287203 XXXX 1      oap1    O  -0.800
O32      8.703697835    1.575198759    7.337370035 XXXX 1      oap1    O  -0.800
O33      3.882551385    1.670987436   15.980112820 XXXX 1      oap1    O  -0.800
O34     18.024621234    1.509102564    7.469473372 XXXX 1      oap1    O  -0.800
O35     13.384278765    1.564820203   15.834523649 XXXX 1      oap1    O  -0.800
O36      8.654977166    1.348963195   23.607725118 XXXX 1      oap1    O  -0.800
O37      6.644733677    1.944104378    2.278865282 XXXX 1      oap1    O  -0.675
O38      2.861790776    1.323740294   11.053380199 XXXX 1      oap1    O  -0.800
O39     18.683239849    2.738015587    3.372558148 XXXX 1      oap1    O  -0.675
O40     12.251747851    1.486780666   11.106650939 XXXX 1      oap1    O  -0.800
O41      7.482242644    1.575676923   19.214446713 XXXX 1      oap1    O  -0.800
O42      2.521724048    1.573175932    4.310089140 XXXX 1      oap1    O  -0.800
O43     11.914122477    1.157070181    4.555021059 XXXX 1      oap1    O  -0.800
O44      7.387008808    1.477492813   12.461024046 XXXX 1      oap1    O  -0.800
O45      3.076018332    1.653409661   20.487178147 XXXX 1      oap1    O  -0.800
O46     21.595908344    1.349188255    4.216345791 XXXX 1      oap1    O  -0.800
O47     16.670510632    1.460363994   12.383604471 XXXX 1      oap1    O  -0.800
O48     12.158916202    1.488510987   20.584442374 XXXX 1      oap1    O  -0.800
O49      5.759026535    5.010060368    4.695532155 XXXX 1      oap1    O  -0.800
O50      0.861786110    4.803318678   13.230830035 XXXX 1      oap1    O  -0.800
O51     15.199743013    4.992929348    4.859855593 XXXX 1      oap1    O  -0.800
O52     10.312802944    4.821878677   13.156535569 XXXX 1      oap1    O  -0.800
O53      5.494860177    4.961727063   21.305489066 XXXX 1      oap1    O  -0.800
O54      6.581502363    4.946611406    9.518010933 XXXX 1      oap1    O  -0.800
O55      2.180287469    5.099188524   17.866463751 XXXX 1      oap1    O  -0.800
O56     16.007381531    4.979204609    9.576504953 XXXX 1      oap1    O  -0.800
O57     11.205304619    4.962561413   17.841124119 XXXX 1      oap1    O  -0.800
O58      6.417003135    4.945607830   25.992607656 XXXX 1      oap1    O  -0.800
O59      2.145876202    4.957945965    8.218114762 XXXX 1      oap1    O  -0.800
O60     11.559743589    5.024634945    8.112381644 XXXX 1      oap1    O  -0.800
O61      6.505230767    5.025080378   16.290874592 XXXX 1      oap1    O  -0.800
O62      2.124944212    4.798221875   24.351190349 XXXX 1      oap1    O  -0.800
Ca1     -0.220221388    7.990330226    5.121077558 XXXX 1      ca+h    Ca  1.500
Ca2      9.689280412    8.145989793    5.005744454 XXXX 1      ca+h    Ca  1.500
Ca3      4.709953587    7.865345726   12.888573206 XXXX 1      ca+h    Ca  1.500
Ca4     -0.161613446    7.784432418   21.200274533 XXXX 1      ca+h    Ca  1.500
Ca5     18.942835874    8.073253621    4.699196983 XXXX 1      ca+h    Ca  1.500
Ca6     14.136533179    7.878999232   13.061636985 XXXX 1      ca+h    Ca  1.500
Ca7      9.446935903    7.871711303   21.316200744 XXXX 1      ca+h    Ca  1.500
Ca8      4.678424182    4.331957038    7.535889994 XXXX 1      ca+h    Ca  1.500
Ca9     -0.140894936    4.366733248   15.658842455 XXXX 1      ca+h    Ca  1.500
Ca10    14.251743782    4.508643778    7.696417847 XXXX 1      ca+h    Ca  1.500
Ca11     9.470101060    4.375406486   15.828410715 XXXX 1      ca+h    Ca  1.500
Ca12     4.829372606    4.443322095   23.823574354 XXXX 1      ca+h    Ca  1.500
Ca13     4.811131687    0.973756236    7.435712655 XXXX 1      ca+h    Ca  1.500
Ca14     0.099395040    1.041622545   15.652972128 XXXX 1      ca+h    Ca  1.500
Ca15    14.119085804    1.073903549    7.932061657 XXXX 1      ca+h    Ca  1.500
Ca16     9.359658666    0.975995607   15.640617943 XXXX 1      ca+h    Ca  1.500
Ca17     4.791995336    0.982878550   23.900188338 XXXX 1      ca+h    Ca  1.500
Ca18     0.228690117    4.579671361    4.675588454 XXXX 1      ca+h    Ca  1.500
Ca19     9.327353846    4.529685040    4.724842711 XXXX 1      ca+h    Ca  1.500
Ca20     4.666081476    4.426063596   13.203648052 XXXX 1      ca+h    Ca  1.500
Ca21     0.080962959    4.353013206   21.283775655 XXXX 1      ca+h    Ca  1.500
Ca22    18.770822274    4.410549876    5.099010041 XXXX 1      ca+h    Ca  1.500
Ca23    14.171329414    4.396998305   13.016656307 XXXX 1      ca+h    Ca  1.500
Ca24     9.590414782    4.536688602   21.094921412 XXXX 1      ca+h    Ca  1.500
Ca25     3.676452396    6.312351102    4.025961029 XXXX 1      ca+h    Ca  1.500
Ca26    13.059594156    6.084928294    4.216976067 XXXX 1      ca+h    Ca  1.500
Ca27     8.160526868    6.161899336   12.372141737 XXXX 1      ca+h    Ca  1.500
Ca28     3.561519294    6.328820320   20.373436835 XXXX 1      ca+h    Ca  1.500
P1       6.355373066    6.257022920    5.354370615 XXXX 1      pap     P   1.000
P2       1.571049630    6.105957609   13.491805170 XXXX 1      pap     P   1.000
P3      15.938270669    6.289059284    5.311728937 XXXX 1      pap     P   1.000
P4      11.068950328    6.075596475   13.582258687 XXXX 1      pap     P   1.000
P5       6.304061267    6.214370045   21.699200084 XXXX 1      pap     P   1.000
O63      6.188882253    6.006132738    6.923229781 XXXX 1      oap1    O  -0.800
O64      1.581460338    6.310791893   15.002670207 XXXX 1      oap1    O  -0.800
O65     15.861200233    6.172477027    6.833155404 XXXX 1      oap1    O  -0.800
O66     10.928179593    6.167695065   15.145163926 XXXX 1      oap1    O  -0.800
O67      6.382249184    6.159050441   23.282402999 XXXX 1      oap1    O  -0.800
O68      7.860192360    6.434645285    5.034093213 XXXX 1      oap1    O  -0.800
O69      3.020955524    6.145300809   13.010932296 XXXX 1      oap1    O  -0.800
O70     17.438083203    6.217281240    4.890569132 XXXX 1      oap1    O  -0.800
O71     12.578409322    6.097723804   13.179865474 XXXX 1      oap1    O  -0.800
O72      7.768180168    6.190264175   21.099592302 XXXX 1      oap1    O  -0.800
Ca29     8.195603953    6.258897763    8.099514189 XXXX 1      ca+h    Ca  1.500
Ca30     3.634354622    6.269471406   16.366229945 XXXX 1      ca+h    Ca  1.500
Ca31    17.827812779    6.318026667    8.178447222 XXXX 1      ca+h    Ca  1.500
Ca32    13.002558239    6.241090963   16.277842916 XXXX 1      ca+h    Ca  1.500
Ca33     8.404715092    6.105273804   24.636156290 XXXX 1      ca+h    Ca  1.500
P6       5.770765271    6.128345535    9.963473056 XXXX 1      pap     P   1.000
P7       1.063604876    6.153666394   18.263519630 XXXX 1      pap     P   1.000
P8      15.299076888    6.233024870   10.064513613 XXXX 1      pap     P   1.000
P9      10.516337706    6.254335391   18.213939286 XXXX 1      pap     P   1.000
P10      5.826657469    6.255152270   26.443235440 XXXX 1      pap     P   1.000
O73      4.469180496    6.162264730    9.233662691 XXXX 1      oap1    O  -0.800
O74     -0.158444127    5.932857331   17.395760526 XXXX 1      oap1    O  -0.800
O75     13.903387291    6.256481776    9.388001705 XXXX 1      oap1    O  -0.800
O76      9.109023440    6.134877784   17.538641839 XXXX 1      oap1    O  -0.800
O77      4.545980078    6.314271808   25.698942347 XXXX 1      oap1    O  -0.800
O78      5.529789803    6.023124299   11.509808117 XXXX 1      oap1    O  -0.800
O79      0.733833415    6.125578035   19.756546294 XXXX 1      oap1    O  -0.800
O80     15.164068757    6.124884374   11.548212567 XXXX 1      oap1    O  -0.800
O81     10.515814030    6.339729138   19.789326504 XXXX 1      oap1    O  -0.800
O82      5.615721060    6.236042510   27.991454247 XXXX 1      oap1    O  -0.800
Ca34     2.295714433    6.081138986   10.394941151 XXXX 1      ca+h    Ca  1.500
Ca35    11.733571264    6.221081715   10.384620488 XXXX 1      ca+h    Ca  1.500
Ca36     7.011202959    6.177227909   18.645067113 XXXX 1      ca+h    Ca  1.500
Ca37     2.487611351    6.111095989   26.591424049 XXXX 1      ca+h    Ca  1.500
P11      1.974764072    6.117996418    7.241582135 XXXX 1      pap     P   1.000
P12     11.560375695    6.221379107    7.205743730 XXXX 1      pap     P   1.000
P13      6.729007728    6.269591827   15.393430207 XXXX 1      pap     P   1.000
P14      2.088211286    6.112329503   23.532665435 XXXX 1      pap     P   1.000
O83      3.249486437    6.049954972    6.379679267 XXXX 1      oap1    O  -0.800
O84     12.941290647    6.197021126    6.507200177 XXXX 1      oap1    O  -0.800
O85      8.066773381    6.138416370   14.727536937 XXXX 1      oap1    O  -0.800
O86      3.405537626    6.060755157   22.805069621 XXXX 1      oap1    O  -0.800
O87      0.674285974    6.030606995    6.401853088 XXXX 1      oap1    O  -0.800
O88     10.310828323    6.223667890    6.286512559 XXXX 1      oap1    O  -0.800
O89      5.523933268    6.297487964   14.403823643 XXXX 1      oap1    O  -0.800
O90      0.881472948    6.144669439   22.629824740 XXXX 1      oap1    O  -0.800
Ca38     1.210141346    2.863234465    8.512008355 XXXX 1      ca+h    Ca  1.500
Ca39    10.782266887    2.783302725    8.141339289 XXXX 1      ca+h    Ca  1.500
Ca40     5.987801637    2.665137818   16.516066515 XXXX 1      ca+h    Ca  1.500
Ca41     1.306664341    2.712747653   24.447816222 XXXX 1      ca+h    Ca  1.500
Ca42    20.150178209    2.767567970    8.359205831 XXXX 1      ca+h    Ca  1.500
Ca43    15.385751490    2.824794282   16.532034499 XXXX 1      ca+h    Ca  1.500
Ca44    10.742332346    2.757046314   24.792643362 XXXX 1      ca+h    Ca  1.500
P15      7.811736507    2.780043966    6.958798848 XXXX 1      pap     P   1.000
P16      3.048950660    2.785372508   15.286816479 XXXX 1      pap     P   1.000
P17     17.143076440    2.713615901    7.090314983 XXXX 1      pap     P   1.000
P18     12.567925119    2.785827106   15.315332288 XXXX 1      pap     P   1.000
P19      7.813040599    2.629858688   23.429117317 XXXX 1      pap     P   1.000
O91      7.710352806    2.802765580    5.455517190 XXXX 1      oap1    O  -0.800
O92      2.969872770    2.525252925   13.758577736 XXXX 1      oap1    O  -0.800
O93     16.991945012    2.839578332    5.605701086 XXXX 1      oap1    O  -0.800
O94     12.499541917    2.718371189   13.764361029 XXXX 1      oap1    O  -0.800
O95      7.816778416    2.970652927   21.946985009 XXXX 1      oap1    O  -0.800
O96      6.440746218    2.618031341    7.684928544 XXXX 1      oap1    O  -0.800
O97      1.637809596    2.825077526   15.874544886 XXXX 1      oap1    O  -0.800
O98     15.761343816    2.690448013    7.808108860 XXXX 1      oap1    O  -0.800
O99     11.178638981    2.739559281   15.912040973 XXXX 1      oap1    O  -0.800
O100     6.356703536    2.629624578   24.000408224 XXXX 1      oap1    O  -0.800
Ca45     5.642180412    2.717119317    4.126137468 XXXX 1      ca+h    Ca  1.500
Ca46     0.967688392    2.678764600   12.417003535 XXXX 1      ca+h    Ca  1.500
Ca47    14.986233475    2.760253776    4.333623938 XXXX 1      ca+h    Ca  1.500
Ca48    10.357125961    2.711076233   12.300498881 XXXX 1      ca+h    Ca  1.500
Ca49     5.686756598    2.651221804   20.498704208 XXXX 1      ca+h    Ca  1.500
P20      8.124960217    2.230197281    1.825052531 XXXX 1      pap     P   1.000
P21      3.606463786    2.575927678   10.488971285 XXXX 1      pap     P   1.000
P22     17.817041900    3.520840120    2.330925520 XXXX 1      pap     P   1.000
P23     13.010119473    2.778120598   10.648447196 XXXX 1      pap     P   1.000
P24      8.323245157    2.749761905   18.792405020 XXXX 1      pap     P   1.000
O101     8.929554808    2.504523341    3.163131589 XXXX 1      oap1    O  -0.675
O102     4.791891233    2.801311988   11.397700549 XXXX 1      oap1    O  -0.800
O103    17.940562381    5.024375806    2.662364403 XXXX 1      oap1    O  -0.650
O104    14.349904973    2.800778224   11.237775357 XXXX 1      oap1    O  -0.800
O105     9.711547959    2.657235921   19.485483340 XXXX 1      oap1    O  -0.800
O106     8.762262959    1.062885679    1.136332353 XXXX 1      oap1    O  -0.650
O107     4.101401056    2.536331040    9.048000019 XXXX 1      oap1    O  -0.800
O108    18.256734265    3.203978629    0.891814438 XXXX 1      oap1    O  -0.650
O109    13.113795202    2.804579524    9.125028414 XXXX 1      oap1    O  -0.800
O110     8.414061109    2.680273373   17.288652331 XXXX 1      oap1    O  -0.800
Ca50     6.883253054    2.759164079   10.265863565 XXXX 1      ca+h    Ca  1.500
Ca51     2.397776161    2.832520064   18.438526688 XXXX 1      ca+h    Ca  1.500
Ca52    16.487669880    2.778911753   10.205821721 XXXX 1      ca+h    Ca  1.500
Ca53    11.677556045    2.614358942   18.357017834 XXXX 1      ca+h    Ca  1.500
P25      2.716736213    2.878184953    5.113417873 XXXX 1      pap     P   1.000
P26     12.186911401    2.593863931    5.177870027 XXXX 1      pap     P   1.000
P27      7.337906788    2.713820441   13.360461742 XXXX 1      pap     P   1.000
P28      2.758050005    2.762968273   21.467063235 XXXX 1      pap     P   1.000
P29     21.683856396    2.664599579    5.035812203 XXXX 1      pap     P   1.000
P30     16.839662877    2.697779273   13.290484936 XXXX 1      pap     P   1.000
P31     12.054733424    2.677941463   21.613571240 XXXX 1      pap     P   1.000
O111     1.473939170    3.112858891    5.980247346 XXXX 1      oap1    O  -0.800
O112    10.839775209    3.045738560    5.755020589 XXXX 1      oap1    O  -0.800
O113     5.940779781    2.645049919   14.124617242 XXXX 1      oap1    O  -0.800
O114     1.429530819    2.427431223   22.097024388 XXXX 1      oap1    O  -0.800
O115    20.386133176    2.782017763    5.824807504 XXXX 1      oap1    O  -0.800
O116    15.582820042    2.708634433   14.174207684 XXXX 1      oap1    O  -0.800
O117    10.720382309    2.701959036   22.401436468 XXXX 1      oap1    O  -0.800
O118     3.953581801    2.711837563    6.001872672 XXXX 1      oap1    O  -0.800
O119    13.308728604    2.631779148    6.238937294 XXXX 1      oap1    O  -0.800
O120     8.422145323    2.713537860   14.394307544 XXXX 1      oap1    O  -0.800
O121     3.874810685    2.783175144   22.507919096 XXXX 1      oap1    O  -0.800
O122    22.880243956    2.505785841    6.032733429 XXXX 1      oap1    O  -0.800
O123    18.044063668    2.731005275   14.223733587 XXXX 1      oap1    O  -0.800
O124    13.352584703    2.738860322   22.506122766 XXXX 1      oap1    O  -0.800
O125    -0.048452408    8.665454836   10.162433188 XXXX 1      oap2    O  -1.100
O126     9.555929703    8.855430763   10.206859828 XXXX 1      oap2    O  -1.100
O127     4.596468380   10.340375080   18.601458875 XXXX 1      oap2    O  -1.100
O128     9.309418025    6.012198727   10.309547990 XXXX 1      oap2    O  -1.100
O129     4.698263198    6.992083518   18.311473195 XXXX 1      oap2    O  -1.100
H1       0.086911010    7.899027236   10.634308281 XXXX 1      hop     H   0.200
H2       9.459621252    7.947064823   10.252182581 XXXX 1      hop     H   0.200
H3       4.658570295   11.308620968   18.705013042 XXXX 1      hop     H   0.200
H4       9.466097256    5.146757876   10.565043261 XXXX 1      hop     H   0.200
H5       4.345702360    7.803227101   18.627893525 XXXX 1      hop     H   0.200
H6       8.971791240    1.285990333    0.255835400 XXXX 1      hop     H   0.400
H7      17.466625897    2.945377790    0.499615310 XXXX 1      hop     H   0.400
H8       8.582552860    4.151708969    1.497107588 XXXX 1      hop     H   0.400
H9      17.122572019    5.411713471    2.791627684 XXXX 1      hop     H   0.400
end
O33      0.896052235   34.866929208   29.712219827 XXXX 1      oap1    O  -0.800
O34      1.216063904   28.101281014   29.666407931 XXXX 1      oap1    O  -0.800
O35      0.586230945   21.225620649   29.571904919 XXXX 1      oap1    O  -0.800
O36      0.860725389   14.324210758   29.617584991 XXXX 1      oap1    O  -0.800
O225     3.101244748   31.553105307   27.471044725 XXXX 1      oap1    O  -0.800
O226     2.982659254   24.652938333   27.465259732 XXXX 1      oap1    O  -0.800
O227     2.760270228   17.762923217   27.282135385 XXXX 1      oap1    O  -0.800
O228     2.829852974   10.842747675   27.257803036 XXXX 1      oap1    O  -0.800
O273     7.181869576   31.414406689   28.998637311 XXXX 1      oap1    O  -0.800
O274     7.309292445   24.493014326   28.669625668 XXXX 1      oap1    O  -0.800
O275     7.672932490   17.576520858   28.575956119 XXXX 1      oap1    O  -0.800
O276     7.467991800   10.790103855   28.685259913 XXXX 1      oap1    O  -0.800
O369     2.792713261   29.109852420   27.382610348 XXXX 1      oap1    O  -0.800
O370     2.455718368   22.353796043   27.233884887 XXXX 1      oap1    O  -0.800
O371     2.584400630   15.292015375   27.246398738 XXXX 1      oap1    O  -0.800
O372     2.864077026    8.385718866   27.275414489 XXXX 1      oap1    O  -0.800
O417     7.454927586   28.908429183   28.750795337 XXXX 1      oap1    O  -0.800
O418     7.398554957   22.049906541   28.831864276 XXXX 1      oap1    O  -0.800
O419     7.110409536   15.147210292   28.582858664 XXXX 1      oap1    O  -0.800
O420     7.382719905    8.360090106   28.878102057 XXXX 1      oap1    O  -0.800
O465     0.746345039   32.381312428   29.582043932 XXXX 1      oap1    O  -0.800
O466     1.079972926   25.666066085   29.526435823 XXXX 1      oap1    O  -0.800
O467     0.672134988   18.643565048   29.416786312 XXXX 1      oap1    O  -0.800
O468     0.797408099   11.916975062   29.038708239 XXXX 1      oap1    O  -0.800
Ca33     4.752133736   35.402593380   29.291047865 XXXX 1      ca+h    Ca  1.500
Ca34     4.866897148   28.429933169   29.318609261 XXXX 1      ca+h    Ca  1.500
Ca35     4.585389663   21.461881247   29.828031473 XXXX 1      ca+h    Ca  1.500
Ca36     4.744666895   14.784812025   29.377914256 XXXX 1      ca+h    Ca  1.500
Ca177    4.818073494   31.990118827   29.265849893 XXXX 1      ca+h    Ca  1.500
Ca178    4.757729316   24.906454001   29.071141557 XXXX 1      ca+h    Ca  1.500
Ca179    4.438528516   18.248040313   29.149401742 XXXX 1      ca+h    Ca  1.500
Ca180    4.518442460   11.291001667   29.201252835 XXXX 1      ca+h    Ca  1.500
P33      1.608545525   33.564627843   30.021260723 XXXX 1      pap     P   1.000
P34      1.861949014   26.808019854   30.206299393 XXXX 1      pap     P   1.000
P35      1.458887401   19.918347466   29.832272983 XXXX 1      pap     P   1.000
P36      1.585425511   12.996772165   29.827064591 XXXX 1      pap     P   1.000
O609     1.824292050   33.593640273   31.526904053 XXXX 1      oap1    O  -0.800
O610     1.607691990   26.830371573   31.716377716 XXXX 1      oap1    O  -0.800
O611     1.570794814   19.899601519   31.349005915 XXXX 1      oap1    O  -0.800
O612     1.643464254   12.576725110   31.317909297 XXXX 1      oap1    O  -0.800
O657     2.974639640   33.623245918   29.255480809 XXXX 1      oap1    O  -0.800
O658     3.378404026   26.772789177   29.885578192 XXXX 1      oap1    O  -0.800
O659     2.857797073   20.008207928   29.119226892 XXXX 1      oap1    O  -0.800
O660     3.024883426   13.099593984   29.141334816 XXXX 1      oap1    O  -0.800
Ca417    1.161157207   30.279819955   28.787891038 XXXX 1      ca+h    Ca  1.500
Ca418    1.147770491   23.445365672   28.904764234 XXXX 1      ca+h    Ca  1.500
Ca419    0.999640292   16.479187543   28.611916280 XXXX 1      ca+h    Ca  1.500
Ca420    1.176244525    9.587551549   28.710701433 XXXX 1      ca+h    Ca  1.500
P225     3.693342840   30.236724235   26.937355736 XXXX 1      pap     P   1.000
P226     3.526045893   23.388731641   26.856519983 XXXX 1      pap     P   1.000
P227     3.450795667   16.459150311   26.833298352 XXXX 1      pap     P   1.000
P228     3.607619727    9.583897585   26.811451353 XXXX 1      pap     P   1.000
O993     4.982714433   30.148351856   27.740587710 XXXX 1      oap1    O  -0.800
O994     4.832947990   23.076798904   27.562127451 XXXX 1      oap1    O  -0.800
O995     4.783024545   16.402943375   27.622839615 XXXX 1      oap1    O  -0.800
O996     4.964000335    9.536779484   27.529111340 XXXX 1      oap1    O  -0.800
O1041    3.951573942   30.316923648   25.410431127 XXXX 1      oap1    O  -0.800
O1042    3.639656162   23.524202486   25.302105931 XXXX 1      oap1    O  -0.800
O1043    3.704154283   16.463375439   25.296931454 XXXX 1      oap1    O  -0.800
O1044    3.689913267    9.695118071   25.249918902 XXXX 1      oap1    O  -0.800
Ca465    7.205443921   30.123209970   26.609700216 XXXX 1      ca+h    Ca  1.500
Ca466    7.162066655   23.235955854   26.548577004 XXXX 1      ca+h    Ca  1.500
Ca467    6.912804842   16.296045364   26.483825751 XXXX 1      ca+h    Ca  1.500
Ca468    7.179470666    9.660655023   26.544532281 XXXX 1      ca+h    Ca  1.500
P273     7.399331950   30.084573741   29.752670882 XXXX 1      pap     P   1.000
P274     7.257318427   23.290080602   29.657372599 XXXX 1      pap     P   1.000
P275     7.286903569   16.381821221   29.476647804 XXXX 1      pap     P   1.000
P276     7.377162907    9.651122133   29.647067142 XXXX 1      pap     P   1.000
O1089    6.147757596   29.891326872   30.599946859 XXXX 1      oap1    O  -0.800
O1090    5.991729577   23.273079360   30.420213470 XXXX 1      oap1    O  -0.800
O1091    5.949394731   16.630149649   30.143440931 XXXX 1      oap1    O  -0.800
O1092    6.013966072    9.791629382   30.393524657 XXXX 1      oap1    O  -0.800
O1137    8.651417030   30.163617543   30.657315538 XXXX 1      oap1    O  -0.800
O1138    8.407209626   23.377949401   30.660254197 XXXX 1      oap1    O  -0.800
O1139    8.349737201   16.087263796   30.506883502 XXXX 1      oap1    O  -0.800
O1140    8.606881532    9.582511889   30.574771291 XXXX 1      oap1    O  -0.800
O1185    0.119276779    3.221823217   26.552912678 XXXX 1      oap2    O  -1.100
O1186   -0.020999937   30.959341583   26.712336111 XXXX 1      oap2    O  -1.100
O1187    0.048701747   24.124602413   26.830028028 XXXX 1      oap2    O  -1.100
O1188   -0.083990109   17.288922392   26.593728971 XXXX 1      oap2    O  -1.100
H33      0.366299425    4.147438790   26.453007150 XXXX 1      hop     H   0.200
H34      0.174949480   31.849275577   26.978125524 XXXX 1      hop     H   0.200
H35     -0.119355833   24.884088707   26.275304723 XXXX 1      hop     H   0.200
H36      0.055676045   18.179626854   26.202302384 XXXX 1      hop     H   0.200
end
O33      0.892232879    7.442492919   29.591209417 XXXX 1      oap1    O  -0.800
O225     2.866959593    3.924285130   27.428174385 XXXX 1      oap1    O  -0.800
O273     7.394081098    3.815263123   28.704810291 XXXX 1      oap1    O  -0.800
O369     2.867944992    1.414609559   27.233611492 XXXX 1      oap1    O  -0.800
O417     7.367472985    1.405442710   28.972255199 XXXX 1      oap1    O  -0.800
O465     0.902878508    4.824876571   29.649635416 XXXX 1      oap1    O  -0.800
Ca33     4.836858075    7.820590260   29.528030688 XXXX 1      ca+h    Ca  1.500
Ca177    4.805216121    4.354150350   29.284840804 XXXX 1      ca+h    Ca  1.500
P33      1.723670085    6.128486283   29.938185193 XXXX 1      pap     P   1.000
O609     1.879098461    6.284937746   31.453778955 XXXX 1      oap1    O  -0.800
O657     3.062514905    6.171560297   29.198197872 XXXX 1      oap1    O  -0.800
Ca417    1.191340372    2.756221315   28.771659765 XXXX 1      ca+h    Ca  1.500
P225     3.614965366    2.712461455   26.845715356 XXXX 1      pap     P   1.000
O993     5.011606371    2.589801066   27.466013794 XXXX 1      oap1    O  -0.800
O1041    3.762449968    2.813397895   25.302462300 XXXX 1      oap1    O  -0.800
Ca465    7.181437393    2.678984415   26.545260043 XXXX 1      ca+h    Ca  1.500
P273     7.424666983    2.698925387   29.717806056 XXXX 1      pap     P   1.000
O1089    6.106590797    2.881222458   30.528285155 XXXX 1      oap1    O  -0.800
O1137    8.608677809    2.807249129   30.640064120 XXXX 1      oap1    O  -0.800
O1185    0.068041086    9.762804834   26.618611389 XXXX 1      oap2    O  -1.100
H33      0.646955667   10.513066916   26.389478911 XXXX 1      hop     H   0.200
end
O1       1.209926136   35.600682350   35.071424626 XXXX 1      oap1    O  -0.650
O2       0.475747651   28.738697471   34.512512113 XXXX 1      oap1    O  -0.675
O3      -0.977981773   23.330719013   33.655569464 XXXX 1      oap1    O  -0.675
O4      -0.136848572   16.425345393   36.061669612 XXXX 1      oap1    O  -0.650
O5       9.941099598   34.072443597   36.221692654 XXXX 1      oap1    O  -0.650
O6       8.961001293   29.618369379   35.943921252 XXXX 1      oap1    O  -0.650
O7       6.302461702   22.249952995   34.921752643 XXXX 1      oap1    O  -0.675
O8       9.136684110   12.836507038   33.568509210 XXXX 1      oap1    O  -0.675
O9      19.278041615   34.638834814   36.158001095 XXXX 1      oap1    O  -0.650
O10     21.990891355   25.681590211   35.005100038 XXXX 1      oap1    O  -0.675
O11     19.667902535   19.813259072   33.756146123 XXXX 1      oap1    O  -0.675
O12     21.749055010   15.420353698   34.327895853 XXXX 1      oap1    O  -0.650
O13      6.609986364   34.819672385   32.720516348 XXXX 1      oap1    O  -0.800
O14      6.312241853   27.805048545   32.573819931 XXXX 1      oap1    O  -0.800
O15      6.757348648   21.174643617   31.971175599 XXXX 1      oap1    O  -0.800
O16      6.751989744   14.690359394   32.285522484 XXXX 1      oap1    O  -0.800
O17     16.088502182   35.159030290   32.721757362 XXXX 1      oap1    O  -0.800
O18     16.474502102   28.321396727   32.480861204 XXXX 1      oap1    O  -0.800
O19     16.993701123   20.887153738   33.131825219 XXXX 1      oap1    O  -0.800
O20     16.783421137   14.265820710   32.793011207 XXXX 1      oap1    O  -0.800
O21      3.843155954   31.562209212   32.006943227 XXXX 1      oap1    O  -0.800
O22      3.850185483   24.521549198   32.414232381 XXXX 1      oap1    O  -0.800
O23      3.550984128   17.312850842   32.262405099 XXXX 1      oap1    O  -0.800
O24      4.152112873   10.563515877   32.394238659 XXXX 1      oap1    O  -0.800
O25     13.401816208   31.323218032   32.246409165 XXXX 1      oap1    O  -0.800
O26     12.832938509   24.320684849   32.602357272 XXXX 1      oap1    O  -0.800
O27     13.155284796   17.094966020   32.518893530 XXXX 1      oap1    O  -0.800
O28     13.729872231   10.960432270   31.452563183 XXXX 1      oap1    O  -0.800
O29     22.597627192   31.345225087   32.512700822 XXXX 1      oap1    O  -0.800
O30     22.710836484   24.534654528   32.198886055 XXXX 1      oap1    O  -0.800
O31     22.672869270   17.646109603   31.967298461 XXXX 1      oap1    O  -0.800
O32     22.406435358   10.776472802   32.485990879 XXXX 1      oap1    O  -0.800
O33      3.830874289   29.110015709   32.434896371 XXXX 1      oap1    O  -0.800
O34      3.695409242   22.135794471   32.083904909 XXXX 1      oap1    O  -0.800
O35      3.874404554   14.926137443   31.561121301 XXXX 1      oap1    O  -0.800
O36      4.140373058    8.127004881   31.913188296 XXXX 1      oap1    O  -0.800
O37     13.182558537   28.887416230   32.314696791 XXXX 1      oap1    O  -0.800
O38     12.929915647   21.759616482   32.105066135 XXXX 1      oap1    O  -0.800
O39     13.804121089   14.915315417   31.746044314 XXXX 1      oap1    O  -0.800
O40     13.375110834    8.842208115   32.618832509 XXXX 1      oap1    O  -0.800
O41     22.366071048   28.905364612   32.331242674 XXXX 1      oap1    O  -0.800
O42     22.716572570   22.063586825   32.230090808 XXXX 1      oap1    O  -0.800
O43     22.406478814   15.131030145   32.058681852 XXXX 1      oap1    O  -0.800
O44     22.836945722    8.441941298   32.295751610 XXXX 1      oap1    O  -0.800
O45      2.533330461   33.484295479   34.706088709 XXXX 1      oap1    O  -0.675
O46     -1.018321140   30.412675402   33.629937793 XXXX 1      oap1    O  -0.675
O47     -0.295209092   22.946731174   36.060070592 XXXX 1      oap1    O  -0.650
O48      0.158494316   14.804204723   34.174335623 XXXX 1      oap1    O  -0.675
O49     11.937910565   33.809160716   34.711134596 XXXX 1      oap1    O  -0.675
O50      9.111218852   27.808888942   34.158607610 XXXX 1      oap1    O  -0.675
O51      8.423393333   22.196070023   36.228679102 XXXX 1      oap1    O  -0.650
O52      8.373158610   10.578762586   33.982634792 XXXX 1      oap1    O  -0.675
O53     21.104358600   33.635890932   34.843359776 XXXX 1      oap1    O  -0.675
O54     19.986777197   26.920694801   33.931850968 XXXX 1      oap1    O  -0.675
O55     21.576340937   21.212391265   34.595820854 XXXX 1      oap1    O  -0.675
O56     19.969739688   13.678250392   34.047349062 XXXX 1      oap1    O  -0.675
O57      6.531782446   32.366656863   32.727924699 XXXX 1      oap1    O  -0.800
O58      6.885122770   25.389245398   32.580519425 XXXX 1      oap1    O  -0.800
O59      6.519216065   19.029013216   33.087117809 XXXX 1      oap1    O  -0.800
O60      6.129051708   12.278586457   32.980211420 XXXX 1      oap1    O  -0.800
O61     16.248438635   32.556684967   32.862802095 XXXX 1      oap1    O  -0.800
O62     15.932323453   25.947039986   32.849925882 XXXX 1      oap1    O  -0.800
O63     16.491119050   18.417079870   32.843241582 XXXX 1      oap1    O  -0.800
O64     15.171746429   12.369292387   33.232267865 XXXX 1      oap1    O  -0.800
Ca1      0.178065542   31.925220954   32.229721341 XXXX 1      ca+h    Ca  1.500
Ca2     -0.132622414   24.966714874   32.169892065 XXXX 1      ca+h    Ca  1.500
Ca3      0.408229709   18.000980261   32.188036587 XXXX 1      ca+h    Ca  1.500
Ca4      9.290565454   31.834457280   32.214177678 XXXX 1      ca+h    Ca  1.500
Ca5      9.356119468   24.838106250   32.228543570 XXXX 1      ca+h    Ca  1.500
Ca6      9.521518204   11.186394648   31.967754938 XXXX 1      ca+h    Ca  1.500
Ca7     18.923717741   32.208313949   32.203985789 XXXX 1      ca+h    Ca  1.500
Ca8     18.592764111   24.845665386   32.488572084 XXXX 1      ca+h    Ca  1.500
Ca9     18.817968595   18.049310817   32.383933035 XXXX 1      ca+h    Ca  1.500
Ca10    19.976808693   11.504367574   32.979109276 XXXX 1      ca+h    Ca  1.500
Ca11     0.013058710   28.613867574   31.967610220 XXXX 1      ca+h    Ca  1.500
Ca12    -0.062336904   21.590159420   32.015666735 XXXX 1      ca+h    Ca  1.500
Ca13    -0.207225024   14.338445720   31.896543679 XXXX 1      ca+h    Ca  1.500
Ca14     0.278716456    8.155279320   31.716303399 XXXX 1      ca+h    Ca  1.500
Ca15     9.655775206   28.530089017   31.997213411 XXXX 1      ca+h    Ca  1.500
Ca16     9.265490144   21.274224801   32.005498088 XXXX 1      ca+h    Ca  1.500
Ca17     9.392461352   14.675909000   32.137863896 XXXX 1      ca+h    Ca  1.500
Ca18     6.406780251    9.836934790   32.626182107 XXXX 1      ca+h    Ca  1.500
Ca19    19.052740134   28.465584057   32.209671082 XXXX 1      ca+h    Ca  1.500
Ca20    18.977905098   21.496982179   31.732288204 XXXX 1      ca+h    Ca  1.500
Ca21    19.038692706   14.633708557   31.969875111 XXXX 1      ca+h    Ca  1.500
Ca22    18.841753990    7.370864132   32.106887661 XXXX 1      ca+h    Ca  1.500
Ca23     3.808786686   33.704859166   32.743467600 XXXX 1      ca+h    Ca  1.500
Ca24     4.041161050   26.784308357   32.360792152 XXXX 1      ca+h    Ca  1.500
Ca25     3.623469833   12.856002512   32.522556864 XXXX 1      ca+h    Ca  1.500
Ca26    13.067836164   33.857470348   32.708878596 XXXX 1      ca+h    Ca  1.500
Ca27    13.335402016   26.498668426   32.378246529 XXXX 1      ca+h    Ca  1.500
Ca28    12.987136077   12.943497422   32.660034979 XXXX 1      ca+h    Ca  1.500
Ca29    22.537549972   33.726113159   33.026246153 XXXX 1      ca+h    Ca  1.500
Ca30    22.473233038   26.668700221   32.745912103 XXXX 1      ca+h    Ca  1.500
Ca31    22.331342745   19.847027149   32.745890311 XXXX 1      ca+h    Ca  1.500
P1       1.112303349   34.074106441   34.967153887 XXXX 1      pap     P   1.000
P2      -0.618094416   29.700327942   34.909468888 XXXX 1      pap     P   1.000
P3      -0.958259661   22.331525029   34.838905658 XXXX 1      pap     P   1.000
P4      -0.820260798   15.851321097   34.828842844 XXXX 1      pap     P   1.000
P5      10.509323227   33.315235870   35.007123235 XXXX 1      pap     P   1.000
P6       8.323458054   29.091007307   34.627951114 XXXX 1      pap     P   1.000
P7       7.842272446   22.036235220   34.818777654 XXXX 1      pap     P   1.000
P8       8.499684255   11.955201431   34.712736309 XXXX 1      pap     P   1.000
P9      19.578779757   33.631204078   35.102540936 XXXX 1      pap     P   1.000
P10     20.427957394   25.907704974   35.024658050 XXXX 1      pap     P   1.000
P11     20.178079324   20.714841965   34.879364817 XXXX 1      pap     P   1.000
P12     20.299399903   14.995509921   34.636624650 XXXX 1      pap     P   1.000
O65      0.178414445   33.754953618   33.785526880 XXXX 1      oap1    O  -0.675
O66     -0.100321019   30.618004714   35.979533820 XXXX 1      oap1    O  -0.650
O67     -0.106422078   21.149325925   34.417257853 XXXX 1      oap1    O  -0.675
O68     -1.107344678   16.902555306   33.695131782 XXXX 1      oap1    O  -0.675
O69      9.568697330   33.721793784   33.906287236 XXXX 1      oap1    O  -0.675
O70      8.468222996   30.152238685   33.510632015 XXXX 1      oap1    O  -0.675
O71      8.354030086   23.059626886   33.723094512 XXXX 1      oap1    O  -0.675
O72      7.098115941   12.433996344   35.107077295 XXXX 1      oap1    O  -0.650
O73     18.870154378   33.991329707   33.735900178 XXXX 1      oap1    O  -0.675
O74     20.093207044   26.366560124   36.447130716 XXXX 1      oap1    O  -0.650
O75     20.213362174   19.967777896   36.189796690 XXXX 1      oap1    O  -0.650
O76     19.306471173   16.057540661   34.075549947 XXXX 1      oap1    O  -0.675
O77      0.496941991   33.526786961   36.264045973 XXXX 1      oap1    O  -0.650
O78     -1.919357907   29.009528388   35.465637681 XXXX 1      oap1    O  -0.650
O79     -2.403921058   21.804038219   34.931614482 XXXX 1      oap1    O  -0.650
O80     -2.125311025   15.053470805   35.112700720 XXXX 1      oap1    O  -0.650
O81     10.429664694   31.855175266   35.286974516 XXXX 1      oap1    O  -0.650
O82      6.880608594   28.668845010   34.783803965 XXXX 1      oap1    O  -0.650
O83      8.148421774   20.620378866   34.241595471 XXXX 1      oap1    O  -0.650
O84      9.387493861   11.937784367   35.934722885 XXXX 1      oap1    O  -0.650
O85     19.032603997   32.186500016   35.471389502 XXXX 1      oap1    O  -0.650
O86     19.768731707   24.588720960   34.555227761 XXXX 1      oap1    O  -0.650
O87     19.247080293   21.954009842   35.030382412 XXXX 1      oap1    O  -0.650
O88     20.073688912   14.910692585   36.114257694 XXXX 1      oap1    O  -0.650
P13      6.667798512   33.575299349   31.870434591 XXXX 1      pap     P   1.000
P14      6.879718999   26.649532386   31.702700719 XXXX 1      pap     P   1.000
P15      6.690585118   19.702569042   31.704998462 XXXX 1      pap     P   1.000
P16      6.569005035   13.227011859   31.773912714 XXXX 1      pap     P   1.000
P17     16.154803410   33.841795091   31.980205645 XXXX 1      pap     P   1.000
P18     16.291413671   26.975291825   31.814320932 XXXX 1      pap     P   1.000
P19     16.508322617   19.798201899   32.115300356 XXXX 1      pap     P   1.000
P20     16.395174887   12.862241114   32.357588657 XXXX 1      pap     P   1.000
O89      8.022634461   33.524772439   31.129025393 XXXX 1      oap1    O  -0.800
O90      8.311630158   26.903749035   31.163853289 XXXX 1      oap1    O  -0.800
O91      8.053910366   19.380613296   31.113592843 XXXX 1      oap1    O  -0.800
O92      7.844740533   12.742371564   31.168657951 XXXX 1      oap1    O  -0.800
O93     17.453496557   33.934688420   31.132682997 XXXX 1      oap1    O  -0.800
O94     17.661020452   26.602502198   31.125544432 XXXX 1      oap1    O  -0.800
O95     17.625083075   19.605486346   31.066696743 XXXX 1      oap1    O  -0.800
O96     17.568783445   11.909173142   32.659646991 XXXX 1      oap1    O  -0.800
O97      5.409548801   33.643605760   30.930848780 XXXX 1      oap1    O  -0.800
O98      5.930219750   26.505626435   30.516417798 XXXX 1      oap1    O  -0.800
O99      5.556230008   19.432544424   30.668457013 XXXX 1      oap1    O  -0.800
O100     5.484166430   13.019801983   30.754894123 XXXX 1      oap1    O  -0.800
O101    14.959253259   33.779554844   31.030718727 XXXX 1      oap1    O  -0.800
O102    15.195379259   26.963439050   30.825035621 XXXX 1      oap1    O  -0.800
O103    15.140133921   20.107373612   31.440846540 XXXX 1      oap1    O  -0.800
O104    16.030011174   12.781355561   30.808868459 XXXX 1      oap1    O  -0.800
Ca32     5.874457619   30.146126997   33.006573288 XXXX 1      ca+h    Ca  1.500
Ca33     5.834614316   23.154653397   32.832948702 XXXX 1      ca+h    Ca  1.500
Ca34     5.950897568   16.896036833   32.431907060 XXXX 1      ca+h    Ca  1.500
Ca35    15.371162338   30.328817756   32.643410869 XXXX 1      ca+h    Ca  1.500
Ca36    15.494678662   16.283800720   32.609318274 XXXX 1      ca+h    Ca  1.500
Ca37    15.698764239    9.969596859   32.525083334 XXXX 1      ca+h    Ca  1.500
Ca38    24.701683514   30.002258252   33.010709715 XXXX 1      ca+h    Ca  1.500
Ca39    24.693281187   23.301333675   33.072526050 XXXX 1      ca+h    Ca  1.500
Ca40    24.436084905   16.288334163   32.882316309 XXXX 1      ca+h    Ca  1.500
Ca41    24.723179507    9.954222002   32.545005012 XXXX 1      ca+h    Ca  1.500
P21      3.140799950   30.258348723   31.581643404 XXXX 1      pap     P   1.000
P22      3.000260906   23.412351909   31.745157482 XXXX 1      pap     P   1.000
P23      2.970932298   16.140560649   31.415560154 XXXX 1      pap     P   1.000
P24      3.294552041    9.381267826   31.868839641 XXXX 1      pap     P   1.000
P25     12.541998671   30.165801430   31.727756292 XXXX 1      pap     P   1.000
P26     12.394972872   23.138159478   31.665801962 XXXX 1      pap     P   1.000
P27     12.595970967   15.809817052   31.902789977 XXXX 1      pap     P   1.000
P28     12.661239419    9.934993727   31.855699753 XXXX 1      pap     P   1.000
P29     21.817625027   30.271519239   31.858672415 XXXX 1      pap     P   1.000
P30     21.891269112   23.286675855   31.705450687 XXXX 1      pap     P   1.000
P31     21.921846696   16.448506499   31.386087630 XXXX 1      pap     P   1.000
P32     21.885759911    9.506542261   31.772874352 XXXX 1      pap     P   1.000
O105     3.425255146   30.181270889   30.107338915 XXXX 1      oap1    O  -0.800
O106     3.202502379   23.592169003   30.246876135 XXXX 1      oap1    O  -0.800
O107     3.052614929   16.603261086   29.951475306 XXXX 1      oap1    O  -0.800
O108     2.978978952    9.643623237   30.406511775 XXXX 1      oap1    O  -0.800
O109    12.634059360   30.187092697   30.158083709 XXXX 1      oap1    O  -0.800
O110    12.810685723   23.474345138   30.179829156 XXXX 1      oap1    O  -0.800
O111    12.116285399   16.143381860   30.499812973 XXXX 1      oap1    O  -0.800
O112    12.065980037    9.333768676   30.554302071 XXXX 1      oap1    O  -0.800
O113    22.016752262   30.368980874   30.356907889 XXXX 1      oap1    O  -0.800
O114    21.945075429   23.245018287   30.185083386 XXXX 1      oap1    O  -0.800
O115    22.124549740   16.392114858   29.872684869 XXXX 1      oap1    O  -0.800
O116    21.927223372    9.590541441   30.246282307 XXXX 1      oap1    O  -0.800
O117     1.622096114   30.365634731   31.844457561 XXXX 1      oap1    O  -0.800
O118     1.517974487   23.368727401   32.071492905 XXXX 1      oap1    O  -0.800
O119     1.544807503   15.919645735   31.870800194 XXXX 1      oap1    O  -0.800
O120     2.057478936    9.147863074   32.749828464 XXXX 1      oap1    O  -0.800
O121    11.065244442   30.274876162   32.242297559 XXXX 1      oap1    O  -0.800
O122    10.853513123   23.145308110   31.679197673 XXXX 1      oap1    O  -0.800
O123    11.621103700   15.166955256   32.871617341 XXXX 1      oap1    O  -0.800
O124    11.690953081   10.720727597   32.761620709 XXXX 1      oap1    O  -0.800
O125    20.286827059   30.401522947   32.136629122 XXXX 1      oap1    O  -0.800
O126    20.481967120   23.260382878   32.261951136 XXXX 1      oap1    O  -0.800
O127    20.415173715   16.566387735   31.583909442 XXXX 1      oap1    O  -0.800
O128    20.489178135    9.211671874   32.284259202 XXXX 1      oap1    O  -0.800
H1      -2.396735546   14.615610769   34.261158073 XXXX 1      hop     H   0.400
H2      -2.524706703   21.422618242   34.077613413 XXXX 1      hop     H   0.400
H3      -2.002794127   28.219356485   34.967363944 XXXX 1      hop     H   0.400
H4       0.579029574   32.632923294   36.314942485 XXXX 1      hop     H   0.400
H5      10.086382211   12.434901023   35.592755593 XXXX 1      hop     H   0.400
H6       7.364617641   20.210894114   33.818335340 XXXX 1      hop     H   0.400
H7       6.876925684   27.873967847   34.256301958 XXXX 1      hop     H   0.400
H8       9.638149673   31.881682453   35.804861155 XXXX 1      hop     H   0.400
H9      19.611487819   15.683649702   36.333296604 XXXX 1      hop     H   0.400
H10     18.334186367   21.673074765   35.089980874 XXXX 1      hop     H   0.400
H11     20.381745946   23.931897467   34.924194438 XXXX 1      hop     H   0.400
H12     18.782964005   32.199715107   36.376017552 XXXX 1      hop     H   0.400
H13      0.592737943   15.857312138   36.074382922 XXXX 1      hop     H   0.400
H14      0.555520742   22.625429597   36.113305762 XXXX 1      hop     H   0.400
H15      0.118375319   30.053166071   36.732826393 XXXX 1      hop     H   0.400
H16      1.382149631   35.840783169   35.889208458 XXXX 1      hop     H   0.400
H17      6.624894729   12.358615570   34.254870970 XXXX 1      hop     H   0.400
H18      7.911020218   21.689049424   36.721191996 XXXX 1      hop     H   0.400
H19      9.614190731   28.972841710   36.115067152 XXXX 1      hop     H   0.400
H20      9.509579373   34.852991351   35.971021223 XXXX 1      hop     H   0.400
H21     20.889649247   26.337742943   36.848408135 XXXX 1      hop     H   0.400
H22     21.138084474   19.873066999   36.367824507 XXXX 1      hop     H   0.400
H23     21.845756592   15.205187906   33.361505114 XXXX 1      hop     H   0.400
H24     20.126804674   34.976890382   36.430725940 XXXX 1      hop     H   0.400
end
O1       2.743775749    6.452915795   34.752746721 XXXX 1      oap1    O  -0.675
O2       9.729621488    4.421393915   34.404261380 XXXX 1      oap1    O  -0.675
O3      21.742391526    5.234412488   35.012050487 XXXX 1      oap1    O  -0.675
O4       6.680273789    7.455892403   32.474738799 XXXX 1      oap1    O  -0.800
O5      16.158388905    7.690262340   32.591119991 XXXX 1      oap1    O  -0.800
O6       3.930377367    3.892226891   32.352393413 XXXX 1      oap1    O  -0.800
O7      13.279911476    4.141990899   32.103305904 XXXX 1      oap1    O  -0.800
O8      22.705830724    3.992117709   32.100533241 XXXX 1      oap1    O  -0.800
O9       3.757075244    1.466648876   32.297742837 XXXX 1      oap1    O  -0.800
O10     13.375101791    1.684954283   32.166232874 XXXX 1      oap1    O  -0.800
O11     22.739822190    1.517292977   32.300382433 XXXX 1      oap1    O  -0.800
O12      0.420512726    6.512473739   33.754145372 XXXX 1      oap1    O  -0.675
O13      8.103504960    2.670677005   33.709948879 XXXX 1      oap1    O  -0.675
O14     19.444058224    4.342600648   34.383836309 XXXX 1      oap1    O  -0.650
O15      6.474499283    5.033477119   32.984401481 XXXX 1      oap1    O  -0.800
O16     15.594372757    5.289522561   32.895920110 XXXX 1      oap1    O  -0.800
Ca1      0.059774616    4.758910247   32.132091093 XXXX 1      ca+h    Ca  1.500
Ca2      9.661153461    4.603706595   32.061295402 XXXX 1      ca+h    Ca  1.500
Ca3      0.079715005    0.956100320   32.048546529 XXXX 1      ca+h    Ca  1.500
Ca4      9.233778469    1.113740542   32.161438047 XXXX 1      ca+h    Ca  1.500
Ca5     18.916646543    1.321917352   31.982356443 XXXX 1      ca+h    Ca  1.500
Ca6      3.920493969    6.077639698   32.811503357 XXXX 1      ca+h    Ca  1.500
Ca7     13.151488705    6.425703005   32.718501721 XXXX 1      ca+h    Ca  1.500
Ca8     22.396195468    6.175725579   32.904629438 XXXX 1      ca+h    Ca  1.500
P1       1.287188471    6.977716484   34.955715615 XXXX 1      pap     P   1.000
P2       8.509788011    3.625594801   34.894525812 XXXX 1      pap     P   1.000
P3      20.219816493    5.540534200   34.961901331 XXXX 1      pap     P   1.000
O17      1.273865961    8.496405893   35.012062707 XXXX 1      oap1    O  -0.650
O18      7.315909623    4.495303323   35.249780121 XXXX 1      oap1    O  -0.650
O19     20.110421719    6.682104813   33.927175067 XXXX 1      oap1    O  -0.675
O20      0.719376178    6.324345137   36.254753915 XXXX 1      oap1    O  -0.650
O21      8.996823942    2.837442181   36.082981266 XXXX 1      oap1    O  -0.650
O22     19.609657879    5.999941346   36.260568631 XXXX 1      oap1    O  -0.650
P4       6.667307275    6.050635175   31.833304046 XXXX 1      pap     P   1.000
P5      15.901887521    6.331713352   31.860080281 XXXX 1      pap     P   1.000
O23      7.870791372    5.688632609   31.003737620 XXXX 1      oap1    O  -0.800
O24     17.197830910    5.999759917   31.106637421 XXXX 1      oap1    O  -0.800
O25      5.387900501    5.967734670   30.959995976 XXXX 1      oap1    O  -0.800
O26     14.705843595    6.421168977   30.894505934 XXXX 1      oap1    O  -0.800
Ca9      5.934456325    2.785965816   32.833984340 XXXX 1      ca+h    Ca  1.500
Ca10    15.320544111    3.041971045   32.809604778 XXXX 1      ca+h    Ca  1.500
Ca11    24.874481220    2.956022665   32.716587800 XXXX 1      ca+h    Ca  1.500
P6       3.076829856    2.766685158   31.757378009 XXXX 1      pap     P   1.000
P7      12.578838842    2.845309281   31.604221530 XXXX 1      pap     P   1.000
P8      21.884353619    2.698298080   31.880373062 XXXX 1      pap     P   1.000
O27      3.175304772    2.727132606   30.223698496 XXXX 1      oap1    O  -0.800
O28     12.711663661    2.768535861   30.104525979 XXXX 1      oap1    O  -0.800
O29     21.673284594    2.624833781   30.303800472 XXXX 1      oap1    O  -0.800
O30      1.531271765    2.795683790   32.118268531 XXXX 1      oap1    O  -0.800
O31     11.065365276    2.713757652   31.950244462 XXXX 1      oap1    O  -0.800
O32     20.586120175    2.694234863   32.706923512 XXXX 1      oap1    O  -0.800
H1       1.490741423    6.394292162   36.831511459 XXXX 1      hop     H   0.400
H2       9.662275437    3.437296929   36.449883440 XXXX 1      hop     H   0.400
H3      18.858755302    5.689439217   36.439052202 XXXX 1      hop     H   0.400
H4       1.712309142    8.735775805   34.146103793 XXXX 1      hop     H   0.400
H5       6.841162367    4.736698681   34.454289223 XXXX 1      hop     H   0.400
H6      20.029821181    3.796618718   33.959669688 XXXX 1      hop     H   0.400
end
O1      30.980195777   34.349378010   34.787755662 XXXX 1      oap1    O  -0.675
O2      28.040459954   29.862428284   35.930480396 XXXX 1      oap1    O  -0.650
O3      30.872520423   19.508191496   34.917188068 XXXX 1      oap1    O  -0.675
O4      32.179956775   10.547883585   34.433773133 XXXX 1      oap1    O  -0.675
O5      25.583417638   35.049017148   32.742554845 XXXX 1      oap1    O  -0.800
O6      25.000586585   27.718519429   32.977617861 XXXX 1      oap1    O  -0.800
O7      25.720048368   21.087699816   33.056520860 XXXX 1      oap1    O  -0.800
O8      25.433317767   14.258324203   32.765678073 XXXX 1      oap1    O  -0.800
O9      35.084590411   35.243239901   32.572962024 XXXX 1      oap1    O  -0.800
O10     35.143190698   28.219326688   32.581624898 XXXX 1      oap1    O  -0.800
O11     34.978281364   21.404371048   32.559114145 XXXX 1      oap1    O  -0.800
O12     35.004080957   14.318557405   32.778009626 XXXX 1      oap1    O  -0.800
O13     32.210078931   31.826427408   32.093031789 XXXX 1      oap1    O  -0.800
O14     31.851913537   24.428882554   32.550776891 XXXX 1      oap1    O  -0.800
O15     32.302429471   17.769585945   31.776113312 XXXX 1      oap1    O  -0.800
O16     32.104795552   10.876796281   31.822787563 XXXX 1      oap1    O  -0.800
O17     32.138191112   29.412096834   32.241044879 XXXX 1      oap1    O  -0.800
O18     32.152458658   22.002143246   32.467612401 XXXX 1      oap1    O  -0.800
O19     32.105094417   15.396585677   32.523748515 XXXX 1      oap1    O  -0.800
O20     32.032861295    8.405911335   31.694080445 XXXX 1      oap1    O  -0.800
O21     28.683937410   33.905525495   33.829674635 XXXX 1      oap1    O  -0.675
O22     28.139153739   28.094219763   34.195766156 XXXX 1      oap1    O  -0.675
O23     29.164177656   17.743375701   35.052278084 XXXX 1      oap1    O  -0.650
O24     29.971661273   11.689857262   33.847198304 XXXX 1      oap1    O  -0.675
O25     25.421914187   32.590205218   32.978544283 XXXX 1      oap1    O  -0.800
O26     25.822199069   25.381361546   32.925656575 XXXX 1      oap1    O  -0.800
O27     25.530039493   18.488789006   32.949447816 XXXX 1      oap1    O  -0.800
O28     25.974856615   11.813128963   32.562552389 XXXX 1      oap1    O  -0.800
O29     34.478123181   32.832685458   32.902625245 XXXX 1      oap1    O  -0.800
O30     35.209355995   25.647142842   32.780981549 XXXX 1      oap1    O  -0.800
O31     34.322605843   19.009414656   32.943161526 XXXX 1      oap1    O  -0.800
O32     34.466973565   11.966254026   32.852308723 XXXX 1      oap1    O  -0.800
Ca1     28.187261085   32.051314334   32.317624844 XXXX 1      ca+h    Ca  1.500
Ca2     28.542123613   25.157959703   32.230414039 XXXX 1      ca+h    Ca  1.500
Ca3     28.159332856   18.093942352   32.367306828 XXXX 1      ca+h    Ca  1.500
Ca4     28.318916688   11.766189573   32.058344045 XXXX 1      ca+h    Ca  1.500
Ca5     28.676061835   28.747828002   31.996609054 XXXX 1      ca+h    Ca  1.500
Ca6     28.171710942   21.508595418   32.164036302 XXXX 1      ca+h    Ca  1.500
Ca7     28.027794005    7.950666312   31.946420385 XXXX 1      ca+h    Ca  1.500
Ca8     32.082263944   33.919094070   32.848159248 XXXX 1      ca+h    Ca  1.500
Ca9     32.112963041   19.761761807   32.952977418 XXXX 1      ca+h    Ca  1.500
Ca10    31.791086014   13.064796228   32.771329181 XXXX 1      ca+h    Ca  1.500
P1      29.475487314   34.684285623   34.957203500 XXXX 1      pap     P   1.000
P2      27.280778778   29.215183038   34.768687252 XXXX 1      pap     P   1.000
P3      29.401697769   19.231270473   35.173704293 XXXX 1      pap     P   1.000
P4      30.634310727   10.506273412   34.680483258 XXXX 1      pap     P   1.000
O33     29.346375148   36.134655660   34.690267587 XXXX 1      oap1    O  -0.650
O34     27.128284812   30.129470062   33.580707468 XXXX 1      oap1    O  -0.675
O35     28.630933628   20.042983253   34.148775818 XXXX 1      oap1    O  -0.675
O36     30.245558036   10.720939402   36.196969803 XXXX 1      oap1    O  -0.650
O37     28.932298359   34.241283349   36.296322289 XXXX 1      oap1    O  -0.650
O38     25.896354536   28.680392188   35.193661835 XXXX 1      oap1    O  -0.650
O39     29.069366314   19.588109218   36.659116659 XXXX 1      oap1    O  -0.650
O40     30.190545248    9.128739153   34.249053598 XXXX 1      oap1    O  -0.650
P5      25.551055797   33.756823437   31.982947040 XXXX 1      pap     P   1.000
P6      25.633367231   26.643832808   32.097869530 XXXX 1      pap     P   1.000
P7      25.593530788   19.804688453   32.119318751 XXXX 1      pap     P   1.000
P8      25.574001643   13.074388193   31.820134475 XXXX 1      pap     P   1.000
P9      34.951541329   33.896188651   31.866051872 XXXX 1      pap     P   1.000
P10     35.151773635   26.837710717   31.826364468 XXXX 1      pap     P   1.000
P11     34.921753115   19.991520264   31.900016999 XXXX 1      pap     P   1.000
P12     34.779235195   13.115909361   31.868069910 XXXX 1      pap     P   1.000
O41     26.826705348   33.762021351   31.153654952 XXXX 1      oap1    O  -0.800
O42     27.045164975   27.088980851   31.605139078 XXXX 1      oap1    O  -0.800
O43     26.840315314   19.804104639   31.217720621 XXXX 1      oap1    O  -0.800
O44     26.687101302   13.319058803   30.818258392 XXXX 1      oap1    O  -0.800
O45     36.308536580   33.512857651   31.365385931 XXXX 1      oap1    O  -0.800
O46     36.460554525   26.789208536   31.042009325 XXXX 1      oap1    O  -0.800
O47     36.365124659   19.681676269   31.448615841 XXXX 1      oap1    O  -0.800
O48     35.990762084   12.938282012   30.952839437 XXXX 1      oap1    O  -0.800
O49     24.326581377   33.744751539   31.041447160 XXXX 1      oap1    O  -0.800
O50     24.619877364   26.504308248   30.902303231 XXXX 1      oap1    O  -0.800
O51     24.388588695   19.969257099   31.285628025 XXXX 1      oap1    O  -0.800
O52     24.337703612   12.855652238   30.898761921 XXXX 1      oap1    O  -0.800
O53     34.015337148   33.982756476   30.683721306 XXXX 1      oap1    O  -0.800
O54     33.956256399   26.713388065   30.895472474 XXXX 1      oap1    O  -0.800
O55     33.886362581   19.998920922   30.695441900 XXXX 1      oap1    O  -0.800
O56     33.515745680   13.357018047   30.862329719 XXXX 1      oap1    O  -0.800
Ca11    34.245361886   30.405586140   32.789717243 XXXX 1      ca+h    Ca  1.500
Ca12    34.077763037   23.609923046   32.942572450 XXXX 1      ca+h    Ca  1.500
Ca13    34.371372827   16.617600273   32.653433401 XXXX 1      ca+h    Ca  1.500
Ca14    33.822014063    9.665379798   32.917373114 XXXX 1      ca+h    Ca  1.500
P13     31.384919804   30.604208922   31.751032482 XXXX 1      pap     P   1.000
P14     31.319367982   23.151742412   31.882886196 XXXX 1      pap     P   1.000
P15     31.343792119   16.567187932   31.906126635 XXXX 1      pap     P   1.000
P16     31.282140023    9.703695796   31.272401225 XXXX 1      pap     P   1.000
O57     31.390154213   30.372115259   30.213569789 XXXX 1      oap1    O  -0.800
O58     31.454124531   23.292601996   30.344606696 XXXX 1      oap1    O  -0.800
O59     31.071178162   16.274993965   30.456641885 XXXX 1      oap1    O  -0.800
O60     31.405212009    9.764629336   29.761130340 XXXX 1      oap1    O  -0.800
O61     29.993536377   30.620809540   32.301483460 XXXX 1      oap1    O  -0.800
O62     29.797940248   23.093861216   32.189561410 XXXX 1      oap1    O  -0.800
O63     30.101943835   16.878612965   32.779403071 XXXX 1      oap1    O  -0.800
O64     29.782547750    9.714763106   31.688026980 XXXX 1      oap1    O  -0.800
H1      30.201100693    9.285222477   33.343753052 XXXX 1      hop     H   0.400
H2      29.857779292   19.529641958   37.136861569 XXXX 1      hop     H   0.400
H3      25.891355897   27.816807324   34.789167641 XXXX 1      hop     H   0.400
H4      28.649809154   33.347329068   36.175461523 XXXX 1      hop     H   0.400
H5      30.264042634   36.279079179   34.477943044 XXXX 1      hop     H   0.400
H6      31.015717056   10.539696178   36.758500054 XXXX 1      hop     H   0.400
H7      28.563416521   29.207263586   36.349656866 XXXX 1      hop     H   0.400
H8      29.869866927   17.418578275   34.468744138 XXXX 1      hop     H   0.400
end
O1      30.962801412    5.883361865   34.454842606 XXXX 1      oap1    O  -0.675
O2      25.581166917    7.651155502   32.497999458 XXXX 1      oap1    O  -0.800
O3      34.557295830    7.429018108   32.623712187 XXXX 1      oap1    O  -0.800
O4      31.972525447    4.103624853   32.133358313 XXXX 1      oap1    O  -0.800
O5      32.063054788    1.777297547   32.401059463 XXXX 1      oap1    O  -0.800
O6      29.122037072    4.407670300   35.240586033 XXXX 1      oap1    O  -0.650
O7      25.580788365    5.098913584   32.831657494 XXXX 1      oap1    O  -0.800
O8      35.021875089    5.057853840   32.832516990 XXXX 1      oap1    O  -0.800
Ca1     28.266074154    4.575270596   32.173724281 XXXX 1      ca+h    Ca  1.500
Ca2     28.212994348    1.088049022   31.969190376 XXXX 1      ca+h    Ca  1.500
Ca3     32.238915585    6.360135568   32.625052236 XXXX 1      ca+h    Ca  1.500
P1      29.452156243    5.861510311   34.867784635 XXXX 1      pap     P   1.000
O9      28.636705876    6.443109995   33.663679834 XXXX 1      oap1    O  -0.675
O10     29.285376996    6.851283855   36.029976942 XXXX 1      oap1    O  -0.650
P2      25.462424066    6.247763483   31.844897205 XXXX 1      pap     P   1.000
P3      34.962850686    6.184737931   31.841391919 XXXX 1      pap     P   1.000
O11     26.793268047    6.141517824   31.009813248 XXXX 1      oap1    O  -0.800
O12     36.272980368    6.328397199   31.129198817 XXXX 1      oap1    O  -0.800
O13     24.162879437    6.144766219   31.056575902 XXXX 1      oap1    O  -0.800
O14     33.762326686    5.901615262   30.897071320 XXXX 1      oap1    O  -0.800
Ca4     34.074678050    3.018590719   32.530339853 XXXX 1      ca+h    Ca  1.500
P4      31.227125054    2.882291497   31.671543444 XXXX 1      pap     P   1.000
O15     31.441500687    2.703113080   30.130459895 XXXX 1      oap1    O  -0.800
O16     29.736029780    2.820727592   32.025916715 XXXX 1      oap1    O  -0.800
H1      29.861100345    7.570468797   35.969276968 XXXX 1      hop     H   0.400
H2      29.007860479    4.225864383   36.139710554 XXXX 1      hop     H   0.400
end
Ca193   36.463506683   33.658177308   28.728300437 XXXX 1      ca+h    Ca  1.500
Ca194   36.506037432   26.809199097   28.650506569 XXXX 1      ca+h    Ca  1.500
Ca195   36.352216059   19.958498632   28.596769131 XXXX 1      ca+h    Ca  1.500
Ca196   36.324467017   12.979050960   28.616467014 XXXX 1      ca+h    Ca  1.500
end
Ca193   36.365146951    6.313010848   28.654980141 XXXX 1      ca+h    Ca  1.500
end
O1225   37.407915096   33.409523469   10.423958495 XXXX 1      oap2    O  -1.100
O1226   37.623823554   27.747512571   10.579844657 XXXX 1      oap2    O  -1.100
O1227   37.521674504   19.129690110   10.332981539 XXXX 1      oap2    O  -1.100
O1228   37.511974668   11.998017088   10.521629343 XXXX 1      oap2    O  -1.100
H73     37.470798287   32.463217981   10.640905253 XXXX 1      hop     H   0.200
H74     37.904922838   28.559173778   10.142045866 XXXX 1      hop     H   0.200
H75     37.464316822   18.289198769    9.958252925 XXXX 1      hop     H   0.200
H76     37.517404530   11.094207512   10.200612151 XXXX 1      hop     H   0.200
end
O1225   37.789625624    5.306343132   10.350132834 XXXX 1      oap2    O  -1.100
H73     37.748862166    4.348001118   10.547932887 XXXX 1      hop     H   0.200
end
O1233   37.620684808   33.895441815   26.689888515 XXXX 1      oap2    O  -1.100
O1234   37.729657456   27.643076951   26.611017980 XXXX 1      oap2    O  -1.100
O1235   37.721846708   20.618303332   26.677942260 XXXX 1      oap2    O  -1.100
O1236   37.556926749   13.884183625   26.783145624 XXXX 1      oap2    O  -1.100
H81     37.744202959   34.838032618   26.727319819 XXXX 1      hop     H   0.200
H82     37.682204625   28.573612964   26.841029063 XXXX 1      hop     H   0.200
H83     38.271947388   21.331391416   27.047023770 XXXX 1      hop     H   0.200
H84     37.566391104   14.837258759   26.793344535 XXXX 1      hop     H   0.200
end
O1233   37.806196025    6.589661854   26.697254029 XXXX 1      oap2    O  -1.100
H81     38.350015367    7.393848079   26.915142088 XXXX 1      hop     H   0.200
end
end
