!BIOSYM archive 3
PBC=ON
Materials Studio Generated CAR File
!DATE Tue Apr 15 10:17:44 2014
PBC  100.0000  100.0000  120.0000   90.0000   90.0000   90.0000 (P1)
O1      37.453187690   43.354983631   32.567230212 XXXX 1      oap1    O  -0.600
O2      37.453187690   43.354983631   39.442230212 XXXX 1      oap1    O  -0.800
O3      37.453187690   43.354983631   46.317230212 XXXX 1      oap1    O  -0.800
O4      37.453187690   43.354983631   53.192230212 XXXX 1      oap1    O  -0.800
O5      37.453187690   43.354983631   60.067230212 XXXX 1      oap1    O  -0.800
O6      37.453187690   43.354983631   66.942230212 XXXX 1      oap1    O  -0.800
O7      37.453187690   43.354983631   73.817230212 XXXX 1      oap1    O  -0.800
O8      37.453187690   43.354983631   80.692230212 XXXX 1      oap1    O  -0.800
O9      37.453187690   52.771983631   32.567230212 XXXX 1      oap1    O  -0.600
O10     37.453187690   52.771983631   39.442230212 XXXX 1      oap1    O  -0.800
O11     37.453187690   52.771983631   46.317230212 XXXX 1      oap1    O  -0.800
O12     37.453187690   52.771983631   53.192230212 XXXX 1      oap1    O  -0.800
O13     37.453187690   52.771983631   60.067230212 XXXX 1      oap1    O  -0.800
O14     37.453187690   52.771983631   66.942230212 XXXX 1      oap1    O  -0.800
O15     37.453187690   52.771983631   73.817230212 XXXX 1      oap1    O  -0.800
O16     37.453187690   52.771983631   80.692230212 XXXX 1      oap1    O  -0.800
O17     45.608548917   38.646483631   32.567230212 XXXX 1      oap1    O  -0.600
O18     45.608548917   38.646483631   39.442230212 XXXX 1      oap1    O  -0.800
O19     45.608548917   38.646483631   46.317230212 XXXX 1      oap1    O  -0.800
O20     45.608548917   38.646483631   53.192230212 XXXX 1      oap1    O  -0.800
O21     45.608548917   38.646483631   60.067230212 XXXX 1      oap1    O  -0.800
O22     45.608548917   38.646483631   66.942230212 XXXX 1      oap1    O  -0.800
O23     45.608548917   38.646483631   73.817230212 XXXX 1      oap1    O  -0.800
O24     45.608548917   38.646483631   80.692230212 XXXX 1      oap1    O  -0.800
O25     45.608548917   48.063483631   32.567230212 XXXX 1      oap1    O  -0.600
O26     45.608548917   48.063483631   39.442230212 XXXX 1      oap1    O  -0.800
O27     45.608548917   48.063483631   46.317230212 XXXX 1      oap1    O  -0.800
O28     45.608548917   48.063483631   53.192230212 XXXX 1      oap1    O  -0.800
O29     45.608548917   48.063483631   60.067230212 XXXX 1      oap1    O  -0.800
O30     45.608548917   48.063483631   66.942230212 XXXX 1      oap1    O  -0.800
O31     45.608548917   48.063483631   73.817230212 XXXX 1      oap1    O  -0.800
O32     45.608548917   48.063483631   80.692230212 XXXX 1      oap1    O  -0.800
O33     45.608548917   57.480483631   32.567230212 XXXX 1      oap1    O  -0.600
O34     45.608548917   57.480483631   39.442230212 XXXX 1      oap1    O  -0.800
O35     45.608548917   57.480483631   46.317230212 XXXX 1      oap1    O  -0.800
O36     45.608548917   57.480483631   53.192230212 XXXX 1      oap1    O  -0.800
O37     45.608548917   57.480483631   60.067230212 XXXX 1      oap1    O  -0.800
O38     45.608548917   57.480483631   66.942230212 XXXX 1      oap1    O  -0.800
O39     45.608548917   57.480483631   73.817230212 XXXX 1      oap1    O  -0.800
O40     45.608548917   57.480483631   80.692230212 XXXX 1      oap1    O  -0.800
O41     53.763910145   33.937983631   32.567230212 XXXX 1      oap1    O  -0.695
O42     53.763910145   33.937983631   39.442230212 XXXX 1      oap1    O  -0.695
O43     53.763910145   33.937983631   46.317230212 XXXX 1      oap1    O  -0.695
O44     53.763910145   33.937983631   53.192230212 XXXX 1      oap1    O  -0.695
O45     53.763910145   33.937983631   60.067230212 XXXX 1      oap1    O  -0.600
O46     53.763910145   33.937983631   66.942230212 XXXX 1      oap1    O  -0.695
O47     53.763910145   33.937983631   73.817230212 XXXX 1      oap1    O  -0.600
O48     53.763910145   33.937983631   80.692230212 XXXX 1      oap1    O  -0.695
O49     53.763910145   43.354983631   32.567230212 XXXX 1      oap1    O  -0.600
O50     53.763910145   43.354983631   39.442230212 XXXX 1      oap1    O  -0.800
O51     53.763910145   43.354983631   46.317230212 XXXX 1      oap1    O  -0.800
O52     53.763910145   43.354983631   53.192230212 XXXX 1      oap1    O  -0.800
O53     53.763910145   43.354983631   60.067230212 XXXX 1      oap1    O  -0.800
O54     53.763910145   43.354983631   66.942230212 XXXX 1      oap1    O  -0.800
O55     53.763910145   43.354983631   73.817230212 XXXX 1      oap1    O  -0.800
O56     53.763910145   43.354983631   80.692230212 XXXX 1      oap1    O  -0.800
O57     53.763910145   52.771983631   32.567230212 XXXX 1      oap1    O  -0.600
O58     53.763910145   52.771983631   39.442230212 XXXX 1      oap1    O  -0.800
O59     53.763910145   52.771983631   46.317230212 XXXX 1      oap1    O  -0.800
O60     53.763910145   52.771983631   53.192230212 XXXX 1      oap1    O  -0.800
O61     53.763910145   52.771983631   60.067230212 XXXX 1      oap1    O  -0.800
O62     53.763910145   52.771983631   66.942230212 XXXX 1      oap1    O  -0.800
O63     53.763910145   52.771983631   73.817230212 XXXX 1      oap1    O  -0.800
O64     53.763910145   52.771983631   80.692230212 XXXX 1      oap1    O  -0.800
O65     53.763910145   62.188983631   32.567230212 XXXX 1      oap1    O  -0.600
O66     53.763910145   62.188983631   39.442230212 XXXX 1      oap1    O  -0.800
O67     53.763910145   62.188983631   46.317230212 XXXX 1      oap1    O  -0.800
O68     53.763910145   62.188983631   53.192230212 XXXX 1      oap1    O  -0.800
O69     53.763910145   62.188983631   60.067230212 XXXX 1      oap1    O  -0.800
O70     53.763910145   62.188983631   66.942230212 XXXX 1      oap1    O  -0.800
O71     53.763910145   62.188983631   73.817230212 XXXX 1      oap1    O  -0.800
O72     53.763910145   62.188983631   80.692230212 XXXX 1      oap1    O  -0.800
O73     61.919271372   38.646483631   32.567230212 XXXX 1      oap1    O  -0.695
O74     61.919271372   38.646483631   39.442230212 XXXX 1      oap1    O  -0.695
O75     61.919271372   38.646483631   46.317230212 XXXX 1      oap1    O  -0.695
O76     61.919271372   38.646483631   53.192230212 XXXX 1      oap1    O  -0.695
O77     61.919271372   38.646483631   60.067230212 XXXX 1      oap1    O  -0.695
O78     61.919271372   38.646483631   66.942230212 XXXX 1      oap1    O  -0.695
O79     61.919271372   38.646483631   73.817230212 XXXX 1      oap1    O  -0.695
O80     61.919271372   38.646483631   80.692230212 XXXX 1      oap1    O  -0.695
O81     61.919271372   48.063483631   32.567230212 XXXX 1      oap1    O  -0.600
O82     61.919271372   48.063483631   39.442230212 XXXX 1      oap1    O  -0.800
O83     61.919271372   48.063483631   46.317230212 XXXX 1      oap1    O  -0.800
O84     61.919271372   48.063483631   53.192230212 XXXX 1      oap1    O  -0.800
O85     61.919271372   48.063483631   60.067230212 XXXX 1      oap1    O  -0.800
O86     61.919271372   48.063483631   66.942230212 XXXX 1      oap1    O  -0.800
O87     61.919271372   48.063483631   73.817230212 XXXX 1      oap1    O  -0.800
O88     61.919271372   48.063483631   80.692230212 XXXX 1      oap1    O  -0.800
O89     61.919271372   57.480483631   32.567230212 XXXX 1      oap1    O  -0.600
O90     61.919271372   57.480483631   39.442230212 XXXX 1      oap1    O  -0.800
O91     61.919271372   57.480483631   46.317230212 XXXX 1      oap1    O  -0.800
O92     61.919271372   57.480483631   53.192230212 XXXX 1      oap1    O  -0.800
O93     61.919271372   57.480483631   60.067230212 XXXX 1      oap1    O  -0.800
O94     61.919271372   57.480483631   66.942230212 XXXX 1      oap1    O  -0.800
O95     61.919271372   57.480483631   73.817230212 XXXX 1      oap1    O  -0.800
O96     61.919271372   57.480483631   80.692230212 XXXX 1      oap1    O  -0.800
O97     40.703099345   46.855753354   32.567230212 XXXX 1      oap1    O  -0.600
O98     40.703099345   46.855753354   39.442230212 XXXX 1      oap1    O  -0.800
O99     40.703099345   46.855753354   46.317230212 XXXX 1      oap1    O  -0.800
O100    40.703099345   46.855753354   53.192230212 XXXX 1      oap1    O  -0.800
O101    40.703099345   46.855753354   60.067230212 XXXX 1      oap1    O  -0.800
O102    40.703099345   46.855753354   66.942230212 XXXX 1      oap1    O  -0.800
O103    40.703099345   46.855753354   73.817230212 XXXX 1      oap1    O  -0.800
O104    40.703099345   46.855753354   80.692230212 XXXX 1      oap1    O  -0.800
O105    40.703099345   56.272753354   32.567230212 XXXX 1      oap1    O  -0.600
O106    40.703099345   56.272753354   39.442230212 XXXX 1      oap1    O  -0.800
O107    40.703099345   56.272753354   46.317230212 XXXX 1      oap1    O  -0.800
O108    40.703099345   56.272753354   53.192230212 XXXX 1      oap1    O  -0.800
O109    40.703099345   56.272753354   60.067230212 XXXX 1      oap1    O  -0.800
O110    40.703099345   56.272753354   66.942230212 XXXX 1      oap1    O  -0.800
O111    40.703099345   56.272753354   73.817230212 XXXX 1      oap1    O  -0.800
O112    40.703099345   56.272753354   80.692230212 XXXX 1      oap1    O  -0.800
O113    48.858460572   42.147253354   32.567230212 XXXX 1      oap1    O  -0.600
O114    48.858460572   42.147253354   39.442230212 XXXX 1      oap1    O  -0.800
O115    48.858460572   42.147253354   46.317230212 XXXX 1      oap1    O  -0.800
O116    48.858460572   42.147253354   53.192230212 XXXX 1      oap1    O  -0.800
O117    48.858460572   42.147253354   60.067230212 XXXX 1      oap1    O  -0.800
O118    48.858460572   42.147253354   66.942230212 XXXX 1      oap1    O  -0.800
O119    48.858460572   42.147253354   73.817230212 XXXX 1      oap1    O  -0.800
O120    48.858460572   42.147253354   80.692230212 XXXX 1      oap1    O  -0.800
O121    48.858460572   51.564253354   32.567230212 XXXX 1      oap1    O  -0.600
O122    48.858460572   51.564253354   39.442230212 XXXX 1      oap1    O  -0.800
O123    48.858460572   51.564253354   46.317230212 XXXX 1      oap1    O  -0.800
O124    48.858460572   51.564253354   53.192230212 XXXX 1      oap1    O  -0.800
O125    48.858460572   51.564253354   60.067230212 XXXX 1      oap1    O  -0.800
O126    48.858460572   51.564253354   66.942230212 XXXX 1      oap1    O  -0.800
O127    48.858460572   51.564253354   73.817230212 XXXX 1      oap1    O  -0.800
O128    48.858460572   51.564253354   80.692230212 XXXX 1      oap1    O  -0.800
O129    48.858460572   60.981253354   32.567230212 XXXX 1      oap1    O  -0.600
O130    48.858460572   60.981253354   39.442230212 XXXX 1      oap1    O  -0.800
O131    48.858460572   60.981253354   46.317230212 XXXX 1      oap1    O  -0.800
O132    48.858460572   60.981253354   53.192230212 XXXX 1      oap1    O  -0.800
O133    48.858460572   60.981253354   60.067230212 XXXX 1      oap1    O  -0.800
O134    48.858460572   60.981253354   66.942230212 XXXX 1      oap1    O  -0.800
O135    48.858460572   60.981253354   73.817230212 XXXX 1      oap1    O  -0.800
O136    48.858460572   60.981253354   80.692230212 XXXX 1      oap1    O  -0.800
O137    57.013821800   37.438753354   32.567230212 XXXX 1      oap1    O  -0.600
O138    57.013821800   37.438753354   39.442230212 XXXX 1      oap1    O  -0.800
O139    57.013821800   37.438753354   46.317230212 XXXX 1      oap1    O  -0.800
O140    57.013821800   37.438753354   53.192230212 XXXX 1      oap1    O  -0.800
O141    57.013821800   37.438753354   60.067230212 XXXX 1      oap1    O  -0.800
O142    57.013821800   37.438753354   66.942230212 XXXX 1      oap1    O  -0.800
O143    57.013821800   37.438753354   73.817230212 XXXX 1      oap1    O  -0.800
O144    57.013821800   37.438753354   80.692230212 XXXX 1      oap1    O  -0.800
O145    57.013821800   46.855753354   32.567230212 XXXX 1      oap1    O  -0.600
O146    57.013821800   46.855753354   39.442230212 XXXX 1      oap1    O  -0.800
O147    57.013821800   46.855753354   46.317230212 XXXX 1      oap1    O  -0.800
O148    57.013821800   46.855753354   53.192230212 XXXX 1      oap1    O  -0.800
O149    57.013821800   46.855753354   60.067230212 XXXX 1      oap1    O  -0.800
O150    57.013821800   46.855753354   66.942230212 XXXX 1      oap1    O  -0.800
O151    57.013821800   46.855753354   73.817230212 XXXX 1      oap1    O  -0.800
O152    57.013821800   46.855753354   80.692230212 XXXX 1      oap1    O  -0.800
O153    57.013821800   56.272753354   32.567230212 XXXX 1      oap1    O  -0.600
O154    57.013821800   56.272753354   39.442230212 XXXX 1      oap1    O  -0.800
O155    57.013821800   56.272753354   46.317230212 XXXX 1      oap1    O  -0.800
O156    57.013821800   56.272753354   53.192230212 XXXX 1      oap1    O  -0.800
O157    57.013821800   56.272753354   60.067230212 XXXX 1      oap1    O  -0.800
O158    57.013821800   56.272753354   66.942230212 XXXX 1      oap1    O  -0.800
O159    57.013821800   56.272753354   73.817230212 XXXX 1      oap1    O  -0.800
O160    57.013821800   56.272753354   80.692230212 XXXX 1      oap1    O  -0.800
O161    57.013821800   65.689753354   32.567230212 XXXX 1      oap1    O  -0.695
O162    57.013821800   65.689753354   39.442230212 XXXX 1      oap1    O  -0.695
O163    57.013821800   65.689753354   46.317230212 XXXX 1      oap1    O  -0.695
O164    57.013821800   65.689753354   53.192230212 XXXX 1      oap1    O  -0.695
O165    57.013821800   65.689753354   60.067230212 XXXX 1      oap1    O  -0.695
O166    57.013821800   65.689753354   66.942230212 XXXX 1      oap1    O  -0.695
O167    57.013821800   65.689753354   73.817230212 XXXX 1      oap1    O  -0.695
O168    57.013821800   65.689753354   80.692230212 XXXX 1      oap1    O  -0.695
O169    65.169183027   42.147253354   32.567230212 XXXX 1      oap1    O  -0.600
O170    65.169183027   42.147253354   39.442230212 XXXX 1      oap1    O  -0.800
O171    65.169183027   42.147253354   46.317230212 XXXX 1      oap1    O  -0.800
O172    65.169183027   42.147253354   53.192230212 XXXX 1      oap1    O  -0.800
O173    65.169183027   42.147253354   60.067230212 XXXX 1      oap1    O  -0.800
O174    65.169183027   42.147253354   66.942230212 XXXX 1      oap1    O  -0.800
O175    65.169183027   42.147253354   73.817230212 XXXX 1      oap1    O  -0.800
O176    65.169183027   42.147253354   80.692230212 XXXX 1      oap1    O  -0.800
O177    65.169183027   51.564253354   32.567230212 XXXX 1      oap1    O  -0.600
O178    65.169183027   51.564253354   39.442230212 XXXX 1      oap1    O  -0.800
O179    65.169183027   51.564253354   46.317230212 XXXX 1      oap1    O  -0.800
O180    65.169183027   51.564253354   53.192230212 XXXX 1      oap1    O  -0.800
O181    65.169183027   51.564253354   60.067230212 XXXX 1      oap1    O  -0.800
O182    65.169183027   51.564253354   66.942230212 XXXX 1      oap1    O  -0.800
O183    65.169183027   51.564253354   73.817230212 XXXX 1      oap1    O  -0.800
O184    65.169183027   51.564253354   80.692230212 XXXX 1      oap1    O  -0.800
O185    65.169183027   60.981253354   32.567230212 XXXX 1      oap1    O  -0.695
O186    65.169183027   60.981253354   39.442230212 XXXX 1      oap1    O  -0.695
O187    65.169183027   60.981253354   46.317230212 XXXX 1      oap1    O  -0.695
O188    65.169183027   60.981253354   53.192230212 XXXX 1      oap1    O  -0.695
O189    65.169183027   60.981253354   60.067230212 XXXX 1      oap1    O  -0.695
O190    65.169183027   60.981253354   66.942230212 XXXX 1      oap1    O  -0.600
O191    65.169183027   60.981253354   73.817230212 XXXX 1      oap1    O  -0.695
O192    65.169183027   60.981253354   80.692230212 XXXX 1      oap1    O  -0.600
O193    36.046388004   47.919874546   32.567230212 XXXX 1      oap1    O  -0.600
O194    36.046388004   47.919874546   39.442230212 XXXX 1      oap1    O  -0.695
O195    36.046388004   47.919874546   46.317230212 XXXX 1      oap1    O  -0.695
O196    36.046388004   47.919874546   53.192230212 XXXX 1      oap1    O  -0.695
O197    36.046388004   47.919874546   60.067230212 XXXX 1      oap1    O  -0.695
O198    36.046388004   47.919874546   66.942230212 XXXX 1      oap1    O  -0.695
O199    36.046388004   47.919874546   73.817230212 XXXX 1      oap1    O  -0.695
O200    36.046388004   47.919874546   80.692230212 XXXX 1      oap1    O  -0.695
O201    36.046388004   57.336874546   32.567230212 XXXX 1      oap1    O  -0.600
O202    36.046388004   57.336874546   39.442230212 XXXX 1      oap1    O  -0.695
O203    36.046388004   57.336874546   46.317230212 XXXX 1      oap1    O  -0.695
O204    36.046388004   57.336874546   53.192230212 XXXX 1      oap1    O  -0.600
O205    36.046388004   57.336874546   60.067230212 XXXX 1      oap1    O  -0.695
O206    36.046388004   57.336874546   66.942230212 XXXX 1      oap1    O  -0.695
O207    36.046388004   57.336874546   73.817230212 XXXX 1      oap1    O  -0.695
O208    36.046388004   57.336874546   80.692230212 XXXX 1      oap1    O  -0.695
O209    44.201749232   43.211374546   32.567230212 XXXX 1      oap1    O  -0.600
O210    44.201749232   43.211374546   39.442230212 XXXX 1      oap1    O  -0.800
O211    44.201749232   43.211374546   46.317230212 XXXX 1      oap1    O  -0.800
O212    44.201749232   43.211374546   53.192230212 XXXX 1      oap1    O  -0.800
O213    44.201749232   43.211374546   60.067230212 XXXX 1      oap1    O  -0.800
O214    44.201749232   43.211374546   66.942230212 XXXX 1      oap1    O  -0.800
O215    44.201749232   43.211374546   73.817230212 XXXX 1      oap1    O  -0.800
O216    44.201749232   43.211374546   80.692230212 XXXX 1      oap1    O  -0.800
O217    44.201749232   52.628374546   32.567230212 XXXX 1      oap1    O  -0.600
O218    44.201749232   52.628374546   39.442230212 XXXX 1      oap1    O  -0.800
O219    44.201749232   52.628374546   46.317230212 XXXX 1      oap1    O  -0.800
O220    44.201749232   52.628374546   53.192230212 XXXX 1      oap1    O  -0.800
O221    44.201749232   52.628374546   60.067230212 XXXX 1      oap1    O  -0.800
O222    44.201749232   52.628374546   66.942230212 XXXX 1      oap1    O  -0.800
O223    44.201749232   52.628374546   73.817230212 XXXX 1      oap1    O  -0.800
O224    44.201749232   52.628374546   80.692230212 XXXX 1      oap1    O  -0.800
O225    44.201749232   62.045374546   32.567230212 XXXX 1      oap1    O  -0.600
O226    44.201749232   62.045374546   39.442230212 XXXX 1      oap1    O  -0.800
O227    44.201749232   62.045374546   46.317230212 XXXX 1      oap1    O  -0.800
O228    44.201749232   62.045374546   53.192230212 XXXX 1      oap1    O  -0.800
O229    44.201749232   62.045374546   60.067230212 XXXX 1      oap1    O  -0.800
O230    44.201749232   62.045374546   66.942230212 XXXX 1      oap1    O  -0.800
O231    44.201749232   62.045374546   73.817230212 XXXX 1      oap1    O  -0.800
O232    44.201749232   62.045374546   80.692230212 XXXX 1      oap1    O  -0.800
O233    52.357110459   38.502874546   32.567230212 XXXX 1      oap1    O  -0.600
O234    52.357110459   38.502874546   39.442230212 XXXX 1      oap1    O  -0.800
O235    52.357110459   38.502874546   46.317230212 XXXX 1      oap1    O  -0.800
O236    52.357110459   38.502874546   53.192230212 XXXX 1      oap1    O  -0.800
O237    52.357110459   38.502874546   60.067230212 XXXX 1      oap1    O  -0.800
O238    52.357110459   38.502874546   66.942230212 XXXX 1      oap1    O  -0.800
O239    52.357110459   38.502874546   73.817230212 XXXX 1      oap1    O  -0.800
O240    52.357110459   38.502874546   80.692230212 XXXX 1      oap1    O  -0.800
O241    52.357110459   47.919874546   32.567230212 XXXX 1      oap1    O  -0.600
O242    52.357110459   47.919874546   39.442230212 XXXX 1      oap1    O  -0.800
O243    52.357110459   47.919874546   46.317230212 XXXX 1      oap1    O  -0.800
O244    52.357110459   47.919874546   53.192230212 XXXX 1      oap1    O  -0.800
O245    52.357110459   47.919874546   60.067230212 XXXX 1      oap1    O  -0.800
O246    52.357110459   47.919874546   66.942230212 XXXX 1      oap1    O  -0.800
O247    52.357110459   47.919874546   73.817230212 XXXX 1      oap1    O  -0.800
O248    52.357110459   47.919874546   80.692230212 XXXX 1      oap1    O  -0.800
O249    52.357110459   57.336874546   32.567230212 XXXX 1      oap1    O  -0.600
O250    52.357110459   57.336874546   39.442230212 XXXX 1      oap1    O  -0.800
O251    52.357110459   57.336874546   46.317230212 XXXX 1      oap1    O  -0.800
O252    52.357110459   57.336874546   53.192230212 XXXX 1      oap1    O  -0.800
O253    52.357110459   57.336874546   60.067230212 XXXX 1      oap1    O  -0.800
O254    52.357110459   57.336874546   66.942230212 XXXX 1      oap1    O  -0.800
O255    52.357110459   57.336874546   73.817230212 XXXX 1      oap1    O  -0.800
O256    52.357110459   57.336874546   80.692230212 XXXX 1      oap1    O  -0.800
O257    52.357110459   66.753874546   32.567230212 XXXX 1      oap1    O  -0.600
O258    52.357110459   66.753874546   39.442230212 XXXX 1      oap1    O  -0.800
O259    52.357110459   66.753874546   46.317230212 XXXX 1      oap1    O  -0.800
O260    52.357110459   66.753874546   53.192230212 XXXX 1      oap1    O  -0.800
O261    52.357110459   66.753874546   60.067230212 XXXX 1      oap1    O  -0.800
O262    52.357110459   66.753874546   66.942230212 XXXX 1      oap1    O  -0.800
O263    52.357110459   66.753874546   73.817230212 XXXX 1      oap1    O  -0.800
O264    52.357110459   66.753874546   80.692230212 XXXX 1      oap1    O  -0.800
O265    60.512471687   43.211374546   32.567230212 XXXX 1      oap1    O  -0.600
O266    60.512471687   43.211374546   39.442230212 XXXX 1      oap1    O  -0.800
O267    60.512471687   43.211374546   46.317230212 XXXX 1      oap1    O  -0.800
O268    60.512471687   43.211374546   53.192230212 XXXX 1      oap1    O  -0.800
O269    60.512471687   43.211374546   60.067230212 XXXX 1      oap1    O  -0.800
O270    60.512471687   43.211374546   66.942230212 XXXX 1      oap1    O  -0.800
O271    60.512471687   43.211374546   73.817230212 XXXX 1      oap1    O  -0.800
O272    60.512471687   43.211374546   80.692230212 XXXX 1      oap1    O  -0.800
O273    60.512471687   52.628374546   32.567230212 XXXX 1      oap1    O  -0.600
O274    60.512471687   52.628374546   39.442230212 XXXX 1      oap1    O  -0.800
O275    60.512471687   52.628374546   46.317230212 XXXX 1      oap1    O  -0.800
O276    60.512471687   52.628374546   53.192230212 XXXX 1      oap1    O  -0.800
O277    60.512471687   52.628374546   60.067230212 XXXX 1      oap1    O  -0.800
O278    60.512471687   52.628374546   66.942230212 XXXX 1      oap1    O  -0.800
O279    60.512471687   52.628374546   73.817230212 XXXX 1      oap1    O  -0.800
O280    60.512471687   52.628374546   80.692230212 XXXX 1      oap1    O  -0.800
O281    60.512471687   62.045374546   32.567230212 XXXX 1      oap1    O  -0.600
O282    60.512471687   62.045374546   39.442230212 XXXX 1      oap1    O  -0.800
O283    60.512471687   62.045374546   46.317230212 XXXX 1      oap1    O  -0.800
O284    60.512471687   62.045374546   53.192230212 XXXX 1      oap1    O  -0.800
O285    60.512471687   62.045374546   60.067230212 XXXX 1      oap1    O  -0.800
O286    60.512471687   62.045374546   66.942230212 XXXX 1      oap1    O  -0.800
O287    60.512471687   62.045374546   73.817230212 XXXX 1      oap1    O  -0.800
O288    60.512471687   62.045374546   80.692230212 XXXX 1      oap1    O  -0.800
O289    41.400382745   44.023590723   36.004730212 XXXX 1      oap1    O  -0.800
O290    41.400382745   44.023590723   42.879730212 XXXX 1      oap1    O  -0.800
O291    41.400382745   44.023590723   49.754730212 XXXX 1      oap1    O  -0.800
O292    41.400382745   44.023590723   56.629730212 XXXX 1      oap1    O  -0.800
O293    41.400382745   44.023590723   63.504730212 XXXX 1      oap1    O  -0.800
O294    41.400382745   44.023590723   70.379730212 XXXX 1      oap1    O  -0.800
O295    41.400382745   44.023590723   77.254730212 XXXX 1      oap1    O  -0.800
O296    41.400382745   44.023590723   84.129730212 XXXX 1      oap1    O  -0.695
O297    41.400382745   53.440590723   36.004730212 XXXX 1      oap1    O  -0.800
O298    41.400382745   53.440590723   42.879730212 XXXX 1      oap1    O  -0.800
O299    41.400382745   53.440590723   49.754730212 XXXX 1      oap1    O  -0.800
O300    41.400382745   53.440590723   56.629730212 XXXX 1      oap1    O  -0.800
O301    41.400382745   53.440590723   63.504730212 XXXX 1      oap1    O  -0.800
O302    41.400382745   53.440590723   70.379730212 XXXX 1      oap1    O  -0.800
O303    41.400382745   53.440590723   77.254730212 XXXX 1      oap1    O  -0.800
O304    41.400382745   53.440590723   84.129730212 XXXX 1      oap1    O  -0.695
O305    41.400382745   62.857590723   36.004730212 XXXX 1      oap1    O  -0.695
O306    41.400382745   62.857590723   42.879730212 XXXX 1      oap1    O  -0.695
O307    41.400382745   62.857590723   49.754730212 XXXX 1      oap1    O  -0.695
O308    41.400382745   62.857590723   56.629730212 XXXX 1      oap1    O  -0.600
O309    41.400382745   62.857590723   63.504730212 XXXX 1      oap1    O  -0.695
O310    41.400382745   62.857590723   70.379730212 XXXX 1      oap1    O  -0.695
O311    41.400382745   62.857590723   77.254730212 XXXX 1      oap1    O  -0.695
O312    41.400382745   62.857590723   84.129730212 XXXX 1      oap1    O  -0.695
O313    49.555743973   39.315090723   36.004730212 XXXX 1      oap1    O  -0.800
O314    49.555743973   39.315090723   42.879730212 XXXX 1      oap1    O  -0.800
O315    49.555743973   39.315090723   49.754730212 XXXX 1      oap1    O  -0.800
O316    49.555743973   39.315090723   56.629730212 XXXX 1      oap1    O  -0.800
O317    49.555743973   39.315090723   63.504730212 XXXX 1      oap1    O  -0.800
O318    49.555743973   39.315090723   70.379730212 XXXX 1      oap1    O  -0.800
O319    49.555743973   39.315090723   77.254730212 XXXX 1      oap1    O  -0.800
O320    49.555743973   39.315090723   84.129730212 XXXX 1      oap1    O  -0.695
O321    49.555743973   48.732090723   36.004730212 XXXX 1      oap1    O  -0.800
O322    49.555743973   48.732090723   42.879730212 XXXX 1      oap1    O  -0.800
O323    49.555743973   48.732090723   49.754730212 XXXX 1      oap1    O  -0.800
O324    49.555743973   48.732090723   56.629730212 XXXX 1      oap1    O  -0.800
O325    49.555743973   48.732090723   63.504730212 XXXX 1      oap1    O  -0.800
O326    49.555743973   48.732090723   70.379730212 XXXX 1      oap1    O  -0.800
O327    49.555743973   48.732090723   77.254730212 XXXX 1      oap1    O  -0.800
O328    49.555743973   48.732090723   84.129730212 XXXX 1      oap1    O  -0.695
O329    49.555743973   58.149090723   36.004730212 XXXX 1      oap1    O  -0.800
O330    49.555743973   58.149090723   42.879730212 XXXX 1      oap1    O  -0.800
O331    49.555743973   58.149090723   49.754730212 XXXX 1      oap1    O  -0.800
O332    49.555743973   58.149090723   56.629730212 XXXX 1      oap1    O  -0.800
O333    49.555743973   58.149090723   63.504730212 XXXX 1      oap1    O  -0.800
O334    49.555743973   58.149090723   70.379730212 XXXX 1      oap1    O  -0.800
O335    49.555743973   58.149090723   77.254730212 XXXX 1      oap1    O  -0.800
O336    49.555743973   58.149090723   84.129730212 XXXX 1      oap1    O  -0.695
O337    49.555743973   67.566090723   36.004730212 XXXX 1      oap1    O  -0.600
O338    49.555743973   67.566090723   42.879730212 XXXX 1      oap1    O  -0.695
O339    49.555743973   67.566090723   49.754730212 XXXX 1      oap1    O  -0.600
O340    49.555743973   67.566090723   56.629730212 XXXX 1      oap1    O  -0.600
O341    49.555743973   67.566090723   63.504730212 XXXX 1      oap1    O  -0.695
O342    49.555743973   67.566090723   70.379730212 XXXX 1      oap1    O  -0.695
O343    49.555743973   67.566090723   77.254730212 XXXX 1      oap1    O  -0.695
O344    49.555743973   67.566090723   84.129730212 XXXX 1      oap1    O  -0.695
O345    57.711105200   44.023590723   36.004730212 XXXX 1      oap1    O  -0.800
O346    57.711105200   44.023590723   42.879730212 XXXX 1      oap1    O  -0.800
O347    57.711105200   44.023590723   49.754730212 XXXX 1      oap1    O  -0.800
O348    57.711105200   44.023590723   56.629730212 XXXX 1      oap1    O  -0.800
O349    57.711105200   44.023590723   63.504730212 XXXX 1      oap1    O  -0.800
O350    57.711105200   44.023590723   70.379730212 XXXX 1      oap1    O  -0.800
O351    57.711105200   44.023590723   77.254730212 XXXX 1      oap1    O  -0.800
O352    57.711105200   44.023590723   84.129730212 XXXX 1      oap1    O  -0.695
O353    57.711105200   53.440590723   36.004730212 XXXX 1      oap1    O  -0.800
O354    57.711105200   53.440590723   42.879730212 XXXX 1      oap1    O  -0.800
O355    57.711105200   53.440590723   49.754730212 XXXX 1      oap1    O  -0.800
O356    57.711105200   53.440590723   56.629730212 XXXX 1      oap1    O  -0.800
O357    57.711105200   53.440590723   63.504730212 XXXX 1      oap1    O  -0.800
O358    57.711105200   53.440590723   70.379730212 XXXX 1      oap1    O  -0.800
O359    57.711105200   53.440590723   77.254730212 XXXX 1      oap1    O  -0.800
O360    57.711105200   53.440590723   84.129730212 XXXX 1      oap1    O  -0.695
O361    57.711105200   62.857590723   36.004730212 XXXX 1      oap1    O  -0.800
O362    57.711105200   62.857590723   42.879730212 XXXX 1      oap1    O  -0.800
O363    57.711105200   62.857590723   49.754730212 XXXX 1      oap1    O  -0.800
O364    57.711105200   62.857590723   56.629730212 XXXX 1      oap1    O  -0.800
O365    57.711105200   62.857590723   63.504730212 XXXX 1      oap1    O  -0.800
O366    57.711105200   62.857590723   70.379730212 XXXX 1      oap1    O  -0.800
O367    57.711105200   62.857590723   77.254730212 XXXX 1      oap1    O  -0.800
O368    57.711105200   62.857590723   84.129730212 XXXX 1      oap1    O  -0.695
O369    65.866466428   48.732090723   36.004730212 XXXX 1      oap1    O  -0.800
O370    65.866466428   48.732090723   42.879730212 XXXX 1      oap1    O  -0.800
O371    65.866466428   48.732090723   49.754730212 XXXX 1      oap1    O  -0.800
O372    65.866466428   48.732090723   56.629730212 XXXX 1      oap1    O  -0.800
O373    65.866466428   48.732090723   63.504730212 XXXX 1      oap1    O  -0.800
O374    65.866466428   48.732090723   70.379730212 XXXX 1      oap1    O  -0.800
O375    65.866466428   48.732090723   77.254730212 XXXX 1      oap1    O  -0.800
O376    65.866466428   48.732090723   84.129730212 XXXX 1      oap1    O  -0.695
O377    65.866466428   58.149090723   36.004730212 XXXX 1      oap1    O  -0.800
O378    65.866466428   58.149090723   42.879730212 XXXX 1      oap1    O  -0.800
O379    65.866466428   58.149090723   49.754730212 XXXX 1      oap1    O  -0.800
O380    65.866466428   58.149090723   56.629730212 XXXX 1      oap1    O  -0.800
O381    65.866466428   58.149090723   63.504730212 XXXX 1      oap1    O  -0.800
O382    65.866466428   58.149090723   70.379730212 XXXX 1      oap1    O  -0.800
O383    65.866466428   58.149090723   77.254730212 XXXX 1      oap1    O  -0.800
O384    65.866466428   58.149090723   84.129730212 XXXX 1      oap1    O  -0.695
O385    38.150471090   40.522821000   36.004730212 XXXX 1      oap1    O  -0.695
O386    38.150471090   40.522821000   42.879730212 XXXX 1      oap1    O  -0.600
O387    38.150471090   40.522821000   49.754730212 XXXX 1      oap1    O  -0.600
O388    38.150471090   40.522821000   56.629730212 XXXX 1      oap1    O  -0.695
O389    38.150471090   40.522821000   63.504730212 XXXX 1      oap1    O  -0.695
O390    38.150471090   40.522821000   70.379730212 XXXX 1      oap1    O  -0.600
O391    38.150471090   40.522821000   77.254730212 XXXX 1      oap1    O  -0.695
O392    38.150471090   40.522821000   84.129730212 XXXX 1      oap1    O  -0.695
O393    38.150471090   49.939821000   36.004730212 XXXX 1      oap1    O  -0.800
O394    38.150471090   49.939821000   42.879730212 XXXX 1      oap1    O  -0.800
O395    38.150471090   49.939821000   49.754730212 XXXX 1      oap1    O  -0.800
O396    38.150471090   49.939821000   56.629730212 XXXX 1      oap1    O  -0.800
O397    38.150471090   49.939821000   63.504730212 XXXX 1      oap1    O  -0.800
O398    38.150471090   49.939821000   70.379730212 XXXX 1      oap1    O  -0.800
O399    38.150471090   49.939821000   77.254730212 XXXX 1      oap1    O  -0.800
O400    38.150471090   49.939821000   84.129730212 XXXX 1      oap1    O  -0.695
O401    38.150471090   59.356821000   36.004730212 XXXX 1      oap1    O  -0.800
O402    38.150471090   59.356821000   42.879730212 XXXX 1      oap1    O  -0.800
O403    38.150471090   59.356821000   49.754730212 XXXX 1      oap1    O  -0.800
O404    38.150471090   59.356821000   56.629730212 XXXX 1      oap1    O  -0.800
O405    38.150471090   59.356821000   63.504730212 XXXX 1      oap1    O  -0.800
O406    38.150471090   59.356821000   70.379730212 XXXX 1      oap1    O  -0.800
O407    38.150471090   59.356821000   77.254730212 XXXX 1      oap1    O  -0.800
O408    38.150471090   59.356821000   84.129730212 XXXX 1      oap1    O  -0.695
O409    46.305832318   35.814321000   36.004730212 XXXX 1      oap1    O  -0.695
O410    46.305832318   35.814321000   42.879730212 XXXX 1      oap1    O  -0.695
O411    46.305832318   35.814321000   49.754730212 XXXX 1      oap1    O  -0.695
O412    46.305832318   35.814321000   56.629730212 XXXX 1      oap1    O  -0.695
O413    46.305832318   35.814321000   63.504730212 XXXX 1      oap1    O  -0.600
O414    46.305832318   35.814321000   70.379730212 XXXX 1      oap1    O  -0.695
O415    46.305832318   35.814321000   77.254730212 XXXX 1      oap1    O  -0.600
O416    46.305832318   35.814321000   84.129730212 XXXX 1      oap1    O  -0.695
O417    46.305832318   45.231321000   36.004730212 XXXX 1      oap1    O  -0.800
O418    46.305832318   45.231321000   42.879730212 XXXX 1      oap1    O  -0.800
O419    46.305832318   45.231321000   49.754730212 XXXX 1      oap1    O  -0.800
O420    46.305832318   45.231321000   56.629730212 XXXX 1      oap1    O  -0.800
O421    46.305832318   45.231321000   63.504730212 XXXX 1      oap1    O  -0.800
O422    46.305832318   45.231321000   70.379730212 XXXX 1      oap1    O  -0.800
O423    46.305832318   45.231321000   77.254730212 XXXX 1      oap1    O  -0.800
O424    46.305832318   45.231321000   84.129730212 XXXX 1      oap1    O  -0.695
O425    46.305832318   54.648321000   36.004730212 XXXX 1      oap1    O  -0.800
O426    46.305832318   54.648321000   42.879730212 XXXX 1      oap1    O  -0.800
O427    46.305832318   54.648321000   49.754730212 XXXX 1      oap1    O  -0.800
O428    46.305832318   54.648321000   56.629730212 XXXX 1      oap1    O  -0.800
O429    46.305832318   54.648321000   63.504730212 XXXX 1      oap1    O  -0.800
O430    46.305832318   54.648321000   70.379730212 XXXX 1      oap1    O  -0.800
O431    46.305832318   54.648321000   77.254730212 XXXX 1      oap1    O  -0.800
O432    46.305832318   54.648321000   84.129730212 XXXX 1      oap1    O  -0.695
O433    46.305832318   64.065321000   36.004730212 XXXX 1      oap1    O  -0.800
O434    46.305832318   64.065321000   42.879730212 XXXX 1      oap1    O  -0.800
O435    46.305832318   64.065321000   49.754730212 XXXX 1      oap1    O  -0.800
O436    46.305832318   64.065321000   56.629730212 XXXX 1      oap1    O  -0.800
O437    46.305832318   64.065321000   63.504730212 XXXX 1      oap1    O  -0.800
O438    46.305832318   64.065321000   70.379730212 XXXX 1      oap1    O  -0.800
O439    46.305832318   64.065321000   77.254730212 XXXX 1      oap1    O  -0.800
O440    46.305832318   64.065321000   84.129730212 XXXX 1      oap1    O  -0.695
O441    54.461193545   40.522821000   36.004730212 XXXX 1      oap1    O  -0.800
O442    54.461193545   40.522821000   42.879730212 XXXX 1      oap1    O  -0.800
O443    54.461193545   40.522821000   49.754730212 XXXX 1      oap1    O  -0.800
O444    54.461193545   40.522821000   56.629730212 XXXX 1      oap1    O  -0.800
O445    54.461193545   40.522821000   63.504730212 XXXX 1      oap1    O  -0.800
O446    54.461193545   40.522821000   70.379730212 XXXX 1      oap1    O  -0.800
O447    54.461193545   40.522821000   77.254730212 XXXX 1      oap1    O  -0.800
O448    54.461193545   40.522821000   84.129730212 XXXX 1      oap1    O  -0.695
O449    54.461193545   49.939821000   36.004730212 XXXX 1      oap1    O  -0.800
O450    54.461193545   49.939821000   42.879730212 XXXX 1      oap1    O  -0.800
O451    54.461193545   49.939821000   49.754730212 XXXX 1      oap1    O  -0.800
O452    54.461193545   49.939821000   56.629730212 XXXX 1      oap1    O  -0.800
O453    54.461193545   49.939821000   63.504730212 XXXX 1      oap1    O  -0.800
O454    54.461193545   49.939821000   70.379730212 XXXX 1      oap1    O  -0.800
O455    54.461193545   49.939821000   77.254730212 XXXX 1      oap1    O  -0.800
O456    54.461193545   49.939821000   84.129730212 XXXX 1      oap1    O  -0.695
O457    54.461193545   59.356821000   36.004730212 XXXX 1      oap1    O  -0.800
O458    54.461193545   59.356821000   42.879730212 XXXX 1      oap1    O  -0.800
O459    54.461193545   59.356821000   49.754730212 XXXX 1      oap1    O  -0.800
O460    54.461193545   59.356821000   56.629730212 XXXX 1      oap1    O  -0.800
O461    54.461193545   59.356821000   63.504730212 XXXX 1      oap1    O  -0.800
O462    54.461193545   59.356821000   70.379730212 XXXX 1      oap1    O  -0.800
O463    54.461193545   59.356821000   77.254730212 XXXX 1      oap1    O  -0.800
O464    54.461193545   59.356821000   84.129730212 XXXX 1      oap1    O  -0.695
O465    62.616554772   45.231321000   36.004730212 XXXX 1      oap1    O  -0.800
O466    62.616554772   45.231321000   42.879730212 XXXX 1      oap1    O  -0.800
O467    62.616554772   45.231321000   49.754730212 XXXX 1      oap1    O  -0.800
O468    62.616554772   45.231321000   56.629730212 XXXX 1      oap1    O  -0.800
O469    62.616554772   45.231321000   63.504730212 XXXX 1      oap1    O  -0.800
O470    62.616554772   45.231321000   70.379730212 XXXX 1      oap1    O  -0.800
O471    62.616554772   45.231321000   77.254730212 XXXX 1      oap1    O  -0.800
O472    62.616554772   45.231321000   84.129730212 XXXX 1      oap1    O  -0.695
O473    62.616554772   54.648321000   36.004730212 XXXX 1      oap1    O  -0.800
O474    62.616554772   54.648321000   42.879730212 XXXX 1      oap1    O  -0.800
O475    62.616554772   54.648321000   49.754730212 XXXX 1      oap1    O  -0.800
O476    62.616554772   54.648321000   56.629730212 XXXX 1      oap1    O  -0.800
O477    62.616554772   54.648321000   63.504730212 XXXX 1      oap1    O  -0.800
O478    62.616554772   54.648321000   70.379730212 XXXX 1      oap1    O  -0.800
O479    62.616554772   54.648321000   77.254730212 XXXX 1      oap1    O  -0.800
O480    62.616554772   54.648321000   84.129730212 XXXX 1      oap1    O  -0.695
O481    42.807182431   39.458699808   36.004730212 XXXX 1      oap1    O  -0.800
O482    42.807182431   39.458699808   42.879730212 XXXX 1      oap1    O  -0.800
O483    42.807182431   39.458699808   49.754730212 XXXX 1      oap1    O  -0.800
O484    42.807182431   39.458699808   56.629730212 XXXX 1      oap1    O  -0.800
O485    42.807182431   39.458699808   63.504730212 XXXX 1      oap1    O  -0.800
O486    42.807182431   39.458699808   70.379730212 XXXX 1      oap1    O  -0.800
O487    42.807182431   39.458699808   77.254730212 XXXX 1      oap1    O  -0.800
O488    42.807182431   39.458699808   84.129730212 XXXX 1      oap1    O  -0.695
O489    42.807182431   48.875699808   36.004730212 XXXX 1      oap1    O  -0.800
O490    42.807182431   48.875699808   42.879730212 XXXX 1      oap1    O  -0.800
O491    42.807182431   48.875699808   49.754730212 XXXX 1      oap1    O  -0.800
O492    42.807182431   48.875699808   56.629730212 XXXX 1      oap1    O  -0.800
O493    42.807182431   48.875699808   63.504730212 XXXX 1      oap1    O  -0.800
O494    42.807182431   48.875699808   70.379730212 XXXX 1      oap1    O  -0.800
O495    42.807182431   48.875699808   77.254730212 XXXX 1      oap1    O  -0.800
O496    42.807182431   48.875699808   84.129730212 XXXX 1      oap1    O  -0.695
O497    42.807182431   58.292699808   36.004730212 XXXX 1      oap1    O  -0.800
O498    42.807182431   58.292699808   42.879730212 XXXX 1      oap1    O  -0.800
O499    42.807182431   58.292699808   49.754730212 XXXX 1      oap1    O  -0.800
O500    42.807182431   58.292699808   56.629730212 XXXX 1      oap1    O  -0.800
O501    42.807182431   58.292699808   63.504730212 XXXX 1      oap1    O  -0.800
O502    42.807182431   58.292699808   70.379730212 XXXX 1      oap1    O  -0.800
O503    42.807182431   58.292699808   77.254730212 XXXX 1      oap1    O  -0.800
O504    42.807182431   58.292699808   84.129730212 XXXX 1      oap1    O  -0.695
O505    50.962543658   34.750199808   36.004730212 XXXX 1      oap1    O  -0.800
O506    50.962543658   34.750199808   42.879730212 XXXX 1      oap1    O  -0.800
O507    50.962543658   34.750199808   49.754730212 XXXX 1      oap1    O  -0.800
O508    50.962543658   34.750199808   56.629730212 XXXX 1      oap1    O  -0.800
O509    50.962543658   34.750199808   63.504730212 XXXX 1      oap1    O  -0.800
O510    50.962543658   34.750199808   70.379730212 XXXX 1      oap1    O  -0.800
O511    50.962543658   34.750199808   77.254730212 XXXX 1      oap1    O  -0.800
O512    50.962543658   34.750199808   84.129730212 XXXX 1      oap1    O  -0.695
O513    50.962543658   44.167199808   36.004730212 XXXX 1      oap1    O  -0.800
O514    50.962543658   44.167199808   42.879730212 XXXX 1      oap1    O  -0.800
O515    50.962543658   44.167199808   49.754730212 XXXX 1      oap1    O  -0.800
O516    50.962543658   44.167199808   56.629730212 XXXX 1      oap1    O  -0.800
O517    50.962543658   44.167199808   63.504730212 XXXX 1      oap1    O  -0.800
O518    50.962543658   44.167199808   70.379730212 XXXX 1      oap1    O  -0.800
O519    50.962543658   44.167199808   77.254730212 XXXX 1      oap1    O  -0.800
O520    50.962543658   44.167199808   84.129730212 XXXX 1      oap1    O  -0.695
O521    50.962543658   53.584199808   36.004730212 XXXX 1      oap1    O  -0.800
O522    50.962543658   53.584199808   42.879730212 XXXX 1      oap1    O  -0.800
O523    50.962543658   53.584199808   49.754730212 XXXX 1      oap1    O  -0.800
O524    50.962543658   53.584199808   56.629730212 XXXX 1      oap1    O  -0.800
O525    50.962543658   53.584199808   63.504730212 XXXX 1      oap1    O  -0.800
O526    50.962543658   53.584199808   70.379730212 XXXX 1      oap1    O  -0.800
O527    50.962543658   53.584199808   77.254730212 XXXX 1      oap1    O  -0.800
O528    50.962543658   53.584199808   84.129730212 XXXX 1      oap1    O  -0.695
O529    50.962543658   63.001199808   36.004730212 XXXX 1      oap1    O  -0.800
O530    50.962543658   63.001199808   42.879730212 XXXX 1      oap1    O  -0.800
O531    50.962543658   63.001199808   49.754730212 XXXX 1      oap1    O  -0.800
O532    50.962543658   63.001199808   56.629730212 XXXX 1      oap1    O  -0.800
O533    50.962543658   63.001199808   63.504730212 XXXX 1      oap1    O  -0.800
O534    50.962543658   63.001199808   70.379730212 XXXX 1      oap1    O  -0.800
O535    50.962543658   63.001199808   77.254730212 XXXX 1      oap1    O  -0.800
O536    50.962543658   63.001199808   84.129730212 XXXX 1      oap1    O  -0.695
O537    59.117904886   39.458699808   36.004730212 XXXX 1      oap1    O  -0.800
O538    59.117904886   39.458699808   42.879730212 XXXX 1      oap1    O  -0.800
O539    59.117904886   39.458699808   49.754730212 XXXX 1      oap1    O  -0.800
O540    59.117904886   39.458699808   56.629730212 XXXX 1      oap1    O  -0.800
O541    59.117904886   39.458699808   63.504730212 XXXX 1      oap1    O  -0.800
O542    59.117904886   39.458699808   70.379730212 XXXX 1      oap1    O  -0.800
O543    59.117904886   39.458699808   77.254730212 XXXX 1      oap1    O  -0.800
O544    59.117904886   39.458699808   84.129730212 XXXX 1      oap1    O  -0.695
O545    59.117904886   48.875699808   36.004730212 XXXX 1      oap1    O  -0.800
O546    59.117904886   48.875699808   42.879730212 XXXX 1      oap1    O  -0.800
O547    59.117904886   48.875699808   49.754730212 XXXX 1      oap1    O  -0.800
O548    59.117904886   48.875699808   56.629730212 XXXX 1      oap1    O  -0.800
O549    59.117904886   48.875699808   63.504730212 XXXX 1      oap1    O  -0.800
O550    59.117904886   48.875699808   70.379730212 XXXX 1      oap1    O  -0.800
O551    59.117904886   48.875699808   77.254730212 XXXX 1      oap1    O  -0.800
O552    59.117904886   48.875699808   84.129730212 XXXX 1      oap1    O  -0.695
O553    59.117904886   58.292699808   36.004730212 XXXX 1      oap1    O  -0.800
O554    59.117904886   58.292699808   42.879730212 XXXX 1      oap1    O  -0.800
O555    59.117904886   58.292699808   49.754730212 XXXX 1      oap1    O  -0.800
O556    59.117904886   58.292699808   56.629730212 XXXX 1      oap1    O  -0.800
O557    59.117904886   58.292699808   63.504730212 XXXX 1      oap1    O  -0.800
O558    59.117904886   58.292699808   70.379730212 XXXX 1      oap1    O  -0.800
O559    59.117904886   58.292699808   77.254730212 XXXX 1      oap1    O  -0.800
O560    59.117904886   58.292699808   84.129730212 XXXX 1      oap1    O  -0.695
O561    67.273266113   44.167199808   36.004730212 XXXX 1      oap1    O  -0.695
O562    67.273266113   44.167199808   42.879730212 XXXX 1      oap1    O  -0.600
O563    67.273266113   44.167199808   49.754730212 XXXX 1      oap1    O  -0.600
O564    67.273266113   44.167199808   56.629730212 XXXX 1      oap1    O  -0.600
O565    67.273266113   44.167199808   63.504730212 XXXX 1      oap1    O  -0.695
O566    67.273266113   44.167199808   70.379730212 XXXX 1      oap1    O  -0.695
O567    67.273266113   44.167199808   77.254730212 XXXX 1      oap1    O  -0.695
O568    67.273266113   44.167199808   84.129730212 XXXX 1      oap1    O  -0.695
O569    67.273266113   53.584199808   36.004730212 XXXX 1      oap1    O  -0.600
O570    67.273266113   53.584199808   42.879730212 XXXX 1      oap1    O  -0.695
O571    67.273266113   53.584199808   49.754730212 XXXX 1      oap1    O  -0.600
O572    67.273266113   53.584199808   56.629730212 XXXX 1      oap1    O  -0.695
O573    67.273266113   53.584199808   63.504730212 XXXX 1      oap1    O  -0.600
O574    67.273266113   53.584199808   70.379730212 XXXX 1      oap1    O  -0.695
O575    67.273266113   53.584199808   77.254730212 XXXX 1      oap1    O  -0.695
O576    67.273266113   53.584199808   84.129730212 XXXX 1      oap1    O  -0.695
O577    41.400382745   44.023590723   38.475605241 XXXX 1      oap1    O  -0.800
O578    41.400382745   44.023590723   45.350605241 XXXX 1      oap1    O  -0.800
O579    41.400382745   44.023590723   52.225605241 XXXX 1      oap1    O  -0.800
O580    41.400382745   44.023590723   59.100605241 XXXX 1      oap1    O  -0.800
O581    41.400382745   44.023590723   65.975605241 XXXX 1      oap1    O  -0.800
O582    41.400382745   44.023590723   72.850605241 XXXX 1      oap1    O  -0.800
O583    41.400382745   44.023590723   79.725605241 XXXX 1      oap1    O  -0.800
O584    41.400382745   44.023590723   86.600605241 XXXX 1      oap1    O  -0.600
O585    41.400382745   53.440590723   38.475605241 XXXX 1      oap1    O  -0.800
O586    41.400382745   53.440590723   45.350605241 XXXX 1      oap1    O  -0.800
O587    41.400382745   53.440590723   52.225605241 XXXX 1      oap1    O  -0.800
O588    41.400382745   53.440590723   59.100605241 XXXX 1      oap1    O  -0.800
O589    41.400382745   53.440590723   65.975605241 XXXX 1      oap1    O  -0.800
O590    41.400382745   53.440590723   72.850605241 XXXX 1      oap1    O  -0.800
O591    41.400382745   53.440590723   79.725605241 XXXX 1      oap1    O  -0.800
O592    41.400382745   53.440590723   86.600605241 XXXX 1      oap1    O  -0.600
O593    41.400382745   62.857590723   38.475605241 XXXX 1      oap1    O  -0.695
O594    41.400382745   62.857590723   45.350605241 XXXX 1      oap1    O  -0.695
O595    41.400382745   62.857590723   52.225605241 XXXX 1      oap1    O  -0.695
O596    41.400382745   62.857590723   59.100605241 XXXX 1      oap1    O  -0.695
O597    41.400382745   62.857590723   65.975605241 XXXX 1      oap1    O  -0.695
O598    41.400382745   62.857590723   72.850605241 XXXX 1      oap1    O  -0.600
O599    41.400382745   62.857590723   79.725605241 XXXX 1      oap1    O  -0.600
O600    41.400382745   62.857590723   86.600605241 XXXX 1      oap1    O  -0.600
O601    49.555743973   39.315090723   38.475605241 XXXX 1      oap1    O  -0.800
O602    49.555743973   39.315090723   45.350605241 XXXX 1      oap1    O  -0.800
O603    49.555743973   39.315090723   52.225605241 XXXX 1      oap1    O  -0.800
O604    49.555743973   39.315090723   59.100605241 XXXX 1      oap1    O  -0.800
O605    49.555743973   39.315090723   65.975605241 XXXX 1      oap1    O  -0.800
O606    49.555743973   39.315090723   72.850605241 XXXX 1      oap1    O  -0.800
O607    49.555743973   39.315090723   79.725605241 XXXX 1      oap1    O  -0.800
O608    49.555743973   39.315090723   86.600605241 XXXX 1      oap1    O  -0.600
O609    49.555743973   48.732090723   38.475605241 XXXX 1      oap1    O  -0.800
O610    49.555743973   48.732090723   45.350605241 XXXX 1      oap1    O  -0.800
O611    49.555743973   48.732090723   52.225605241 XXXX 1      oap1    O  -0.800
O612    49.555743973   48.732090723   59.100605241 XXXX 1      oap1    O  -0.800
O613    49.555743973   48.732090723   65.975605241 XXXX 1      oap1    O  -0.800
O614    49.555743973   48.732090723   72.850605241 XXXX 1      oap1    O  -0.800
O615    49.555743973   48.732090723   79.725605241 XXXX 1      oap1    O  -0.800
O616    49.555743973   48.732090723   86.600605241 XXXX 1      oap1    O  -0.600
O617    49.555743973   58.149090723   38.475605241 XXXX 1      oap1    O  -0.800
O618    49.555743973   58.149090723   45.350605241 XXXX 1      oap1    O  -0.800
O619    49.555743973   58.149090723   52.225605241 XXXX 1      oap1    O  -0.800
O620    49.555743973   58.149090723   59.100605241 XXXX 1      oap1    O  -0.800
O621    49.555743973   58.149090723   65.975605241 XXXX 1      oap1    O  -0.800
O622    49.555743973   58.149090723   72.850605241 XXXX 1      oap1    O  -0.800
O623    49.555743973   58.149090723   79.725605241 XXXX 1      oap1    O  -0.800
O624    49.555743973   58.149090723   86.600605241 XXXX 1      oap1    O  -0.600
O625    49.555743973   67.566090723   38.475605241 XXXX 1      oap1    O  -0.695
O626    49.555743973   67.566090723   45.350605241 XXXX 1      oap1    O  -0.600
O627    49.555743973   67.566090723   52.225605241 XXXX 1      oap1    O  -0.695
O628    49.555743973   67.566090723   59.100605241 XXXX 1      oap1    O  -0.695
O629    49.555743973   67.566090723   65.975605241 XXXX 1      oap1    O  -0.695
O630    49.555743973   67.566090723   72.850605241 XXXX 1      oap1    O  -0.695
O631    49.555743973   67.566090723   79.725605241 XXXX 1      oap1    O  -0.695
O632    49.555743973   67.566090723   86.600605241 XXXX 1      oap1    O  -0.695
O633    57.711105200   44.023590723   38.475605241 XXXX 1      oap1    O  -0.800
O634    57.711105200   44.023590723   45.350605241 XXXX 1      oap1    O  -0.800
O635    57.711105200   44.023590723   52.225605241 XXXX 1      oap1    O  -0.800
O636    57.711105200   44.023590723   59.100605241 XXXX 1      oap1    O  -0.800
O637    57.711105200   44.023590723   65.975605241 XXXX 1      oap1    O  -0.800
O638    57.711105200   44.023590723   72.850605241 XXXX 1      oap1    O  -0.800
O639    57.711105200   44.023590723   79.725605241 XXXX 1      oap1    O  -0.800
O640    57.711105200   44.023590723   86.600605241 XXXX 1      oap1    O  -0.600
O641    57.711105200   53.440590723   38.475605241 XXXX 1      oap1    O  -0.800
O642    57.711105200   53.440590723   45.350605241 XXXX 1      oap1    O  -0.800
O643    57.711105200   53.440590723   52.225605241 XXXX 1      oap1    O  -0.800
O644    57.711105200   53.440590723   59.100605241 XXXX 1      oap1    O  -0.800
O645    57.711105200   53.440590723   65.975605241 XXXX 1      oap1    O  -0.800
O646    57.711105200   53.440590723   72.850605241 XXXX 1      oap1    O  -0.800
O647    57.711105200   53.440590723   79.725605241 XXXX 1      oap1    O  -0.800
O648    57.711105200   53.440590723   86.600605241 XXXX 1      oap1    O  -0.600
O649    57.711105200   62.857590723   38.475605241 XXXX 1      oap1    O  -0.800
O650    57.711105200   62.857590723   45.350605241 XXXX 1      oap1    O  -0.800
O651    57.711105200   62.857590723   52.225605241 XXXX 1      oap1    O  -0.800
O652    57.711105200   62.857590723   59.100605241 XXXX 1      oap1    O  -0.800
O653    57.711105200   62.857590723   65.975605241 XXXX 1      oap1    O  -0.800
O654    57.711105200   62.857590723   72.850605241 XXXX 1      oap1    O  -0.800
O655    57.711105200   62.857590723   79.725605241 XXXX 1      oap1    O  -0.800
O656    57.711105200   62.857590723   86.600605241 XXXX 1      oap1    O  -0.600
O657    65.866466428   48.732090723   38.475605241 XXXX 1      oap1    O  -0.800
O658    65.866466428   48.732090723   45.350605241 XXXX 1      oap1    O  -0.800
O659    65.866466428   48.732090723   52.225605241 XXXX 1      oap1    O  -0.800
O660    65.866466428   48.732090723   59.100605241 XXXX 1      oap1    O  -0.800
O661    65.866466428   48.732090723   65.975605241 XXXX 1      oap1    O  -0.800
O662    65.866466428   48.732090723   72.850605241 XXXX 1      oap1    O  -0.800
O663    65.866466428   48.732090723   79.725605241 XXXX 1      oap1    O  -0.800
O664    65.866466428   48.732090723   86.600605241 XXXX 1      oap1    O  -0.600
O665    65.866466428   58.149090723   38.475605241 XXXX 1      oap1    O  -0.800
O666    65.866466428   58.149090723   45.350605241 XXXX 1      oap1    O  -0.800
O667    65.866466428   58.149090723   52.225605241 XXXX 1      oap1    O  -0.800
O668    65.866466428   58.149090723   59.100605241 XXXX 1      oap1    O  -0.800
O669    65.866466428   58.149090723   65.975605241 XXXX 1      oap1    O  -0.800
O670    65.866466428   58.149090723   72.850605241 XXXX 1      oap1    O  -0.800
O671    65.866466428   58.149090723   79.725605241 XXXX 1      oap1    O  -0.800
O672    65.866466428   58.149090723   86.600605241 XXXX 1      oap1    O  -0.600
O673    38.150471090   40.522821000   38.475605241 XXXX 1      oap1    O  -0.695
O674    38.150471090   40.522821000   45.350605241 XXXX 1      oap1    O  -0.695
O675    38.150471090   40.522821000   52.225605241 XXXX 1      oap1    O  -0.695
O676    38.150471090   40.522821000   59.100605241 XXXX 1      oap1    O  -0.695
O677    38.150471090   40.522821000   65.975605241 XXXX 1      oap1    O  -0.695
O678    38.150471090   40.522821000   72.850605241 XXXX 1      oap1    O  -0.695
O679    38.150471090   40.522821000   79.725605241 XXXX 1      oap1    O  -0.600
O680    38.150471090   40.522821000   86.600605241 XXXX 1      oap1    O  -0.695
O681    38.150471090   49.939821000   38.475605241 XXXX 1      oap1    O  -0.800
O682    38.150471090   49.939821000   45.350605241 XXXX 1      oap1    O  -0.800
O683    38.150471090   49.939821000   52.225605241 XXXX 1      oap1    O  -0.800
O684    38.150471090   49.939821000   59.100605241 XXXX 1      oap1    O  -0.800
O685    38.150471090   49.939821000   65.975605241 XXXX 1      oap1    O  -0.800
O686    38.150471090   49.939821000   72.850605241 XXXX 1      oap1    O  -0.800
O687    38.150471090   49.939821000   79.725605241 XXXX 1      oap1    O  -0.800
O688    38.150471090   49.939821000   86.600605241 XXXX 1      oap1    O  -0.600
O689    38.150471090   59.356821000   38.475605241 XXXX 1      oap1    O  -0.800
O690    38.150471090   59.356821000   45.350605241 XXXX 1      oap1    O  -0.800
O691    38.150471090   59.356821000   52.225605241 XXXX 1      oap1    O  -0.800
O692    38.150471090   59.356821000   59.100605241 XXXX 1      oap1    O  -0.800
O693    38.150471090   59.356821000   65.975605241 XXXX 1      oap1    O  -0.800
O694    38.150471090   59.356821000   72.850605241 XXXX 1      oap1    O  -0.800
O695    38.150471090   59.356821000   79.725605241 XXXX 1      oap1    O  -0.800
O696    38.150471090   59.356821000   86.600605241 XXXX 1      oap1    O  -0.600
O697    46.305832318   35.814321000   38.475605241 XXXX 1      oap1    O  -0.695
O698    46.305832318   35.814321000   45.350605241 XXXX 1      oap1    O  -0.695
O699    46.305832318   35.814321000   52.225605241 XXXX 1      oap1    O  -0.695
O700    46.305832318   35.814321000   59.100605241 XXXX 1      oap1    O  -0.695
O701    46.305832318   35.814321000   65.975605241 XXXX 1      oap1    O  -0.695
O702    46.305832318   35.814321000   72.850605241 XXXX 1      oap1    O  -0.600
O703    46.305832318   35.814321000   79.725605241 XXXX 1      oap1    O  -0.695
O704    46.305832318   35.814321000   86.600605241 XXXX 1      oap1    O  -0.600
O705    46.305832318   45.231321000   38.475605241 XXXX 1      oap1    O  -0.800
O706    46.305832318   45.231321000   45.350605241 XXXX 1      oap1    O  -0.800
O707    46.305832318   45.231321000   52.225605241 XXXX 1      oap1    O  -0.800
O708    46.305832318   45.231321000   59.100605241 XXXX 1      oap1    O  -0.800
O709    46.305832318   45.231321000   65.975605241 XXXX 1      oap1    O  -0.800
O710    46.305832318   45.231321000   72.850605241 XXXX 1      oap1    O  -0.800
O711    46.305832318   45.231321000   79.725605241 XXXX 1      oap1    O  -0.800
O712    46.305832318   45.231321000   86.600605241 XXXX 1      oap1    O  -0.600
O713    46.305832318   54.648321000   38.475605241 XXXX 1      oap1    O  -0.800
O714    46.305832318   54.648321000   45.350605241 XXXX 1      oap1    O  -0.800
O715    46.305832318   54.648321000   52.225605241 XXXX 1      oap1    O  -0.800
O716    46.305832318   54.648321000   59.100605241 XXXX 1      oap1    O  -0.800
O717    46.305832318   54.648321000   65.975605241 XXXX 1      oap1    O  -0.800
O718    46.305832318   54.648321000   72.850605241 XXXX 1      oap1    O  -0.800
O719    46.305832318   54.648321000   79.725605241 XXXX 1      oap1    O  -0.800
O720    46.305832318   54.648321000   86.600605241 XXXX 1      oap1    O  -0.600
O721    46.305832318   64.065321000   38.475605241 XXXX 1      oap1    O  -0.800
O722    46.305832318   64.065321000   45.350605241 XXXX 1      oap1    O  -0.800
O723    46.305832318   64.065321000   52.225605241 XXXX 1      oap1    O  -0.800
O724    46.305832318   64.065321000   59.100605241 XXXX 1      oap1    O  -0.800
O725    46.305832318   64.065321000   65.975605241 XXXX 1      oap1    O  -0.800
O726    46.305832318   64.065321000   72.850605241 XXXX 1      oap1    O  -0.800
O727    46.305832318   64.065321000   79.725605241 XXXX 1      oap1    O  -0.800
O728    46.305832318   64.065321000   86.600605241 XXXX 1      oap1    O  -0.600
O729    54.461193545   40.522821000   38.475605241 XXXX 1      oap1    O  -0.800
O730    54.461193545   40.522821000   45.350605241 XXXX 1      oap1    O  -0.800
O731    54.461193545   40.522821000   52.225605241 XXXX 1      oap1    O  -0.800
O732    54.461193545   40.522821000   59.100605241 XXXX 1      oap1    O  -0.800
O733    54.461193545   40.522821000   65.975605241 XXXX 1      oap1    O  -0.800
O734    54.461193545   40.522821000   72.850605241 XXXX 1      oap1    O  -0.800
O735    54.461193545   40.522821000   79.725605241 XXXX 1      oap1    O  -0.800
O736    54.461193545   40.522821000   86.600605241 XXXX 1      oap1    O  -0.600
O737    54.461193545   49.939821000   38.475605241 XXXX 1      oap1    O  -0.800
O738    54.461193545   49.939821000   45.350605241 XXXX 1      oap1    O  -0.800
O739    54.461193545   49.939821000   52.225605241 XXXX 1      oap1    O  -0.800
O740    54.461193545   49.939821000   59.100605241 XXXX 1      oap1    O  -0.800
O741    54.461193545   49.939821000   65.975605241 XXXX 1      oap1    O  -0.800
O742    54.461193545   49.939821000   72.850605241 XXXX 1      oap1    O  -0.800
O743    54.461193545   49.939821000   79.725605241 XXXX 1      oap1    O  -0.800
O744    54.461193545   49.939821000   86.600605241 XXXX 1      oap1    O  -0.600
O745    54.461193545   59.356821000   38.475605241 XXXX 1      oap1    O  -0.800
O746    54.461193545   59.356821000   45.350605241 XXXX 1      oap1    O  -0.800
O747    54.461193545   59.356821000   52.225605241 XXXX 1      oap1    O  -0.800
O748    54.461193545   59.356821000   59.100605241 XXXX 1      oap1    O  -0.800
O749    54.461193545   59.356821000   65.975605241 XXXX 1      oap1    O  -0.800
O750    54.461193545   59.356821000   72.850605241 XXXX 1      oap1    O  -0.800
O751    54.461193545   59.356821000   79.725605241 XXXX 1      oap1    O  -0.800
O752    54.461193545   59.356821000   86.600605241 XXXX 1      oap1    O  -0.600
O753    62.616554772   45.231321000   38.475605241 XXXX 1      oap1    O  -0.800
O754    62.616554772   45.231321000   45.350605241 XXXX 1      oap1    O  -0.800
O755    62.616554772   45.231321000   52.225605241 XXXX 1      oap1    O  -0.800
O756    62.616554772   45.231321000   59.100605241 XXXX 1      oap1    O  -0.800
O757    62.616554772   45.231321000   65.975605241 XXXX 1      oap1    O  -0.800
O758    62.616554772   45.231321000   72.850605241 XXXX 1      oap1    O  -0.800
O759    62.616554772   45.231321000   79.725605241 XXXX 1      oap1    O  -0.800
O760    62.616554772   45.231321000   86.600605241 XXXX 1      oap1    O  -0.600
O761    62.616554772   54.648321000   38.475605241 XXXX 1      oap1    O  -0.800
O762    62.616554772   54.648321000   45.350605241 XXXX 1      oap1    O  -0.800
O763    62.616554772   54.648321000   52.225605241 XXXX 1      oap1    O  -0.800
O764    62.616554772   54.648321000   59.100605241 XXXX 1      oap1    O  -0.800
O765    62.616554772   54.648321000   65.975605241 XXXX 1      oap1    O  -0.800
O766    62.616554772   54.648321000   72.850605241 XXXX 1      oap1    O  -0.800
O767    62.616554772   54.648321000   79.725605241 XXXX 1      oap1    O  -0.800
O768    62.616554772   54.648321000   86.600605241 XXXX 1      oap1    O  -0.600
O769    42.807182431   39.458699808   38.475605241 XXXX 1      oap1    O  -0.800
O770    42.807182431   39.458699808   45.350605241 XXXX 1      oap1    O  -0.800
O771    42.807182431   39.458699808   52.225605241 XXXX 1      oap1    O  -0.800
O772    42.807182431   39.458699808   59.100605241 XXXX 1      oap1    O  -0.800
O773    42.807182431   39.458699808   65.975605241 XXXX 1      oap1    O  -0.800
O774    42.807182431   39.458699808   72.850605241 XXXX 1      oap1    O  -0.800
O775    42.807182431   39.458699808   79.725605241 XXXX 1      oap1    O  -0.800
O776    42.807182431   39.458699808   86.600605241 XXXX 1      oap1    O  -0.600
O777    42.807182431   48.875699808   38.475605241 XXXX 1      oap1    O  -0.800
O778    42.807182431   48.875699808   45.350605241 XXXX 1      oap1    O  -0.800
O779    42.807182431   48.875699808   52.225605241 XXXX 1      oap1    O  -0.800
O780    42.807182431   48.875699808   59.100605241 XXXX 1      oap1    O  -0.800
O781    42.807182431   48.875699808   65.975605241 XXXX 1      oap1    O  -0.800
O782    42.807182431   48.875699808   72.850605241 XXXX 1      oap1    O  -0.800
O783    42.807182431   48.875699808   79.725605241 XXXX 1      oap1    O  -0.800
O784    42.807182431   48.875699808   86.600605241 XXXX 1      oap1    O  -0.600
O785    42.807182431   58.292699808   38.475605241 XXXX 1      oap1    O  -0.800
O786    42.807182431   58.292699808   45.350605241 XXXX 1      oap1    O  -0.800
O787    42.807182431   58.292699808   52.225605241 XXXX 1      oap1    O  -0.800
O788    42.807182431   58.292699808   59.100605241 XXXX 1      oap1    O  -0.800
O789    42.807182431   58.292699808   65.975605241 XXXX 1      oap1    O  -0.800
O790    42.807182431   58.292699808   72.850605241 XXXX 1      oap1    O  -0.800
O791    42.807182431   58.292699808   79.725605241 XXXX 1      oap1    O  -0.800
O792    42.807182431   58.292699808   86.600605241 XXXX 1      oap1    O  -0.600
O793    50.962543658   34.750199808   38.475605241 XXXX 1      oap1    O  -0.800
O794    50.962543658   34.750199808   45.350605241 XXXX 1      oap1    O  -0.800
O795    50.962543658   34.750199808   52.225605241 XXXX 1      oap1    O  -0.800
O796    50.962543658   34.750199808   59.100605241 XXXX 1      oap1    O  -0.800
O797    50.962543658   34.750199808   65.975605241 XXXX 1      oap1    O  -0.800
O798    50.962543658   34.750199808   72.850605241 XXXX 1      oap1    O  -0.800
O799    50.962543658   34.750199808   79.725605241 XXXX 1      oap1    O  -0.800
O800    50.962543658   34.750199808   86.600605241 XXXX 1      oap1    O  -0.600
O801    50.962543658   44.167199808   38.475605241 XXXX 1      oap1    O  -0.800
O802    50.962543658   44.167199808   45.350605241 XXXX 1      oap1    O  -0.800
O803    50.962543658   44.167199808   52.225605241 XXXX 1      oap1    O  -0.800
O804    50.962543658   44.167199808   59.100605241 XXXX 1      oap1    O  -0.800
O805    50.962543658   44.167199808   65.975605241 XXXX 1      oap1    O  -0.800
O806    50.962543658   44.167199808   72.850605241 XXXX 1      oap1    O  -0.800
O807    50.962543658   44.167199808   79.725605241 XXXX 1      oap1    O  -0.800
O808    50.962543658   44.167199808   86.600605241 XXXX 1      oap1    O  -0.600
O809    50.962543658   53.584199808   38.475605241 XXXX 1      oap1    O  -0.800
O810    50.962543658   53.584199808   45.350605241 XXXX 1      oap1    O  -0.800
O811    50.962543658   53.584199808   52.225605241 XXXX 1      oap1    O  -0.800
O812    50.962543658   53.584199808   59.100605241 XXXX 1      oap1    O  -0.800
O813    50.962543658   53.584199808   65.975605241 XXXX 1      oap1    O  -0.800
O814    50.962543658   53.584199808   72.850605241 XXXX 1      oap1    O  -0.800
O815    50.962543658   53.584199808   79.725605241 XXXX 1      oap1    O  -0.800
O816    50.962543658   53.584199808   86.600605241 XXXX 1      oap1    O  -0.600
O817    50.962543658   63.001199808   38.475605241 XXXX 1      oap1    O  -0.800
O818    50.962543658   63.001199808   45.350605241 XXXX 1      oap1    O  -0.800
O819    50.962543658   63.001199808   52.225605241 XXXX 1      oap1    O  -0.800
O820    50.962543658   63.001199808   59.100605241 XXXX 1      oap1    O  -0.800
O821    50.962543658   63.001199808   65.975605241 XXXX 1      oap1    O  -0.800
O822    50.962543658   63.001199808   72.850605241 XXXX 1      oap1    O  -0.800
O823    50.962543658   63.001199808   79.725605241 XXXX 1      oap1    O  -0.800
O824    50.962543658   63.001199808   86.600605241 XXXX 1      oap1    O  -0.600
O825    59.117904886   39.458699808   38.475605241 XXXX 1      oap1    O  -0.800
O826    59.117904886   39.458699808   45.350605241 XXXX 1      oap1    O  -0.800
O827    59.117904886   39.458699808   52.225605241 XXXX 1      oap1    O  -0.800
O828    59.117904886   39.458699808   59.100605241 XXXX 1      oap1    O  -0.800
O829    59.117904886   39.458699808   65.975605241 XXXX 1      oap1    O  -0.800
O830    59.117904886   39.458699808   72.850605241 XXXX 1      oap1    O  -0.800
O831    59.117904886   39.458699808   79.725605241 XXXX 1      oap1    O  -0.800
O832    59.117904886   39.458699808   86.600605241 XXXX 1      oap1    O  -0.600
O833    59.117904886   48.875699808   38.475605241 XXXX 1      oap1    O  -0.800
O834    59.117904886   48.875699808   45.350605241 XXXX 1      oap1    O  -0.800
O835    59.117904886   48.875699808   52.225605241 XXXX 1      oap1    O  -0.800
O836    59.117904886   48.875699808   59.100605241 XXXX 1      oap1    O  -0.800
O837    59.117904886   48.875699808   65.975605241 XXXX 1      oap1    O  -0.800
O838    59.117904886   48.875699808   72.850605241 XXXX 1      oap1    O  -0.800
O839    59.117904886   48.875699808   79.725605241 XXXX 1      oap1    O  -0.800
O840    59.117904886   48.875699808   86.600605241 XXXX 1      oap1    O  -0.600
O841    59.117904886   58.292699808   38.475605241 XXXX 1      oap1    O  -0.800
O842    59.117904886   58.292699808   45.350605241 XXXX 1      oap1    O  -0.800
O843    59.117904886   58.292699808   52.225605241 XXXX 1      oap1    O  -0.800
O844    59.117904886   58.292699808   59.100605241 XXXX 1      oap1    O  -0.800
O845    59.117904886   58.292699808   65.975605241 XXXX 1      oap1    O  -0.800
O846    59.117904886   58.292699808   72.850605241 XXXX 1      oap1    O  -0.800
O847    59.117904886   58.292699808   79.725605241 XXXX 1      oap1    O  -0.800
O848    59.117904886   58.292699808   86.600605241 XXXX 1      oap1    O  -0.600
O849    67.273266113   44.167199808   38.475605241 XXXX 1      oap1    O  -0.600
O850    67.273266113   44.167199808   45.350605241 XXXX 1      oap1    O  -0.695
O851    67.273266113   44.167199808   52.225605241 XXXX 1      oap1    O  -0.695
O852    67.273266113   44.167199808   59.100605241 XXXX 1      oap1    O  -0.695
O853    67.273266113   44.167199808   65.975605241 XXXX 1      oap1    O  -0.695
O854    67.273266113   44.167199808   72.850605241 XXXX 1      oap1    O  -0.695
O855    67.273266113   44.167199808   79.725605241 XXXX 1      oap1    O  -0.695
O856    67.273266113   44.167199808   86.600605241 XXXX 1      oap1    O  -0.695
O857    67.273266113   53.584199808   38.475605241 XXXX 1      oap1    O  -0.695
O858    67.273266113   53.584199808   45.350605241 XXXX 1      oap1    O  -0.695
O859    67.273266113   53.584199808   52.225605241 XXXX 1      oap1    O  -0.695
O860    67.273266113   53.584199808   59.100605241 XXXX 1      oap1    O  -0.600
O861    67.273266113   53.584199808   65.975605241 XXXX 1      oap1    O  -0.695
O862    67.273266113   53.584199808   72.850605241 XXXX 1      oap1    O  -0.695
O863    67.273266113   53.584199808   79.725605241 XXXX 1      oap1    O  -0.695
O864    67.273266113   53.584199808   86.600605241 XXXX 1      oap1    O  -0.695
O865    37.453187690   43.354983631   35.038105241 XXXX 1      oap1    O  -0.695
O866    37.453187690   43.354983631   41.913105241 XXXX 1      oap1    O  -0.800
O867    37.453187690   43.354983631   48.788105241 XXXX 1      oap1    O  -0.800
O868    37.453187690   43.354983631   55.663105241 XXXX 1      oap1    O  -0.800
O869    37.453187690   43.354983631   62.538105241 XXXX 1      oap1    O  -0.800
O870    37.453187690   43.354983631   69.413105241 XXXX 1      oap1    O  -0.800
O871    37.453187690   43.354983631   76.288105241 XXXX 1      oap1    O  -0.800
O872    37.453187690   43.354983631   83.163105241 XXXX 1      oap1    O  -0.800
O873    37.453187690   52.771983631   35.038105241 XXXX 1      oap1    O  -0.695
O874    37.453187690   52.771983631   41.913105241 XXXX 1      oap1    O  -0.800
O875    37.453187690   52.771983631   48.788105241 XXXX 1      oap1    O  -0.800
O876    37.453187690   52.771983631   55.663105241 XXXX 1      oap1    O  -0.800
O877    37.453187690   52.771983631   62.538105241 XXXX 1      oap1    O  -0.800
O878    37.453187690   52.771983631   69.413105241 XXXX 1      oap1    O  -0.800
O879    37.453187690   52.771983631   76.288105241 XXXX 1      oap1    O  -0.800
O880    37.453187690   52.771983631   83.163105241 XXXX 1      oap1    O  -0.800
O881    45.608548917   38.646483631   35.038105241 XXXX 1      oap1    O  -0.695
O882    45.608548917   38.646483631   41.913105241 XXXX 1      oap1    O  -0.800
O883    45.608548917   38.646483631   48.788105241 XXXX 1      oap1    O  -0.800
O884    45.608548917   38.646483631   55.663105241 XXXX 1      oap1    O  -0.800
O885    45.608548917   38.646483631   62.538105241 XXXX 1      oap1    O  -0.800
O886    45.608548917   38.646483631   69.413105241 XXXX 1      oap1    O  -0.800
O887    45.608548917   38.646483631   76.288105241 XXXX 1      oap1    O  -0.800
O888    45.608548917   38.646483631   83.163105241 XXXX 1      oap1    O  -0.800
O889    45.608548917   48.063483631   35.038105241 XXXX 1      oap1    O  -0.695
O890    45.608548917   48.063483631   41.913105241 XXXX 1      oap1    O  -0.800
O891    45.608548917   48.063483631   48.788105241 XXXX 1      oap1    O  -0.800
O892    45.608548917   48.063483631   55.663105241 XXXX 1      oap1    O  -0.800
O893    45.608548917   48.063483631   62.538105241 XXXX 1      oap1    O  -0.800
O894    45.608548917   48.063483631   69.413105241 XXXX 1      oap1    O  -0.800
O895    45.608548917   48.063483631   76.288105241 XXXX 1      oap1    O  -0.800
O896    45.608548917   48.063483631   83.163105241 XXXX 1      oap1    O  -0.800
O897    45.608548917   57.480483631   35.038105241 XXXX 1      oap1    O  -0.695
O898    45.608548917   57.480483631   41.913105241 XXXX 1      oap1    O  -0.800
O899    45.608548917   57.480483631   48.788105241 XXXX 1      oap1    O  -0.800
O900    45.608548917   57.480483631   55.663105241 XXXX 1      oap1    O  -0.800
O901    45.608548917   57.480483631   62.538105241 XXXX 1      oap1    O  -0.800
O902    45.608548917   57.480483631   69.413105241 XXXX 1      oap1    O  -0.800
O903    45.608548917   57.480483631   76.288105241 XXXX 1      oap1    O  -0.800
O904    45.608548917   57.480483631   83.163105241 XXXX 1      oap1    O  -0.800
O905    53.763910145   33.937983631   35.038105241 XXXX 1      oap1    O  -0.695
O906    53.763910145   33.937983631   41.913105241 XXXX 1      oap1    O  -0.695
O907    53.763910145   33.937983631   48.788105241 XXXX 1      oap1    O  -0.695
O908    53.763910145   33.937983631   55.663105241 XXXX 1      oap1    O  -0.695
O909    53.763910145   33.937983631   62.538105241 XXXX 1      oap1    O  -0.695
O910    53.763910145   33.937983631   69.413105241 XXXX 1      oap1    O  -0.600
O911    53.763910145   33.937983631   76.288105241 XXXX 1      oap1    O  -0.695
O912    53.763910145   33.937983631   83.163105241 XXXX 1      oap1    O  -0.600
O913    53.763910145   43.354983631   35.038105241 XXXX 1      oap1    O  -0.695
O914    53.763910145   43.354983631   41.913105241 XXXX 1      oap1    O  -0.800
O915    53.763910145   43.354983631   48.788105241 XXXX 1      oap1    O  -0.800
O916    53.763910145   43.354983631   55.663105241 XXXX 1      oap1    O  -0.800
O917    53.763910145   43.354983631   62.538105241 XXXX 1      oap1    O  -0.800
O918    53.763910145   43.354983631   69.413105241 XXXX 1      oap1    O  -0.800
O919    53.763910145   43.354983631   76.288105241 XXXX 1      oap1    O  -0.800
O920    53.763910145   43.354983631   83.163105241 XXXX 1      oap1    O  -0.800
O921    53.763910145   52.771983631   35.038105241 XXXX 1      oap1    O  -0.695
O922    53.763910145   52.771983631   41.913105241 XXXX 1      oap1    O  -0.800
O923    53.763910145   52.771983631   48.788105241 XXXX 1      oap1    O  -0.800
O924    53.763910145   52.771983631   55.663105241 XXXX 1      oap1    O  -0.800
O925    53.763910145   52.771983631   62.538105241 XXXX 1      oap1    O  -0.800
O926    53.763910145   52.771983631   69.413105241 XXXX 1      oap1    O  -0.800
O927    53.763910145   52.771983631   76.288105241 XXXX 1      oap1    O  -0.800
O928    53.763910145   52.771983631   83.163105241 XXXX 1      oap1    O  -0.800
O929    53.763910145   62.188983631   35.038105241 XXXX 1      oap1    O  -0.695
O930    53.763910145   62.188983631   41.913105241 XXXX 1      oap1    O  -0.800
O931    53.763910145   62.188983631   48.788105241 XXXX 1      oap1    O  -0.800
O932    53.763910145   62.188983631   55.663105241 XXXX 1      oap1    O  -0.800
O933    53.763910145   62.188983631   62.538105241 XXXX 1      oap1    O  -0.800
O934    53.763910145   62.188983631   69.413105241 XXXX 1      oap1    O  -0.800
O935    53.763910145   62.188983631   76.288105241 XXXX 1      oap1    O  -0.800
O936    53.763910145   62.188983631   83.163105241 XXXX 1      oap1    O  -0.800
O937    61.919271372   38.646483631   35.038105241 XXXX 1      oap1    O  -0.695
O938    61.919271372   38.646483631   41.913105241 XXXX 1      oap1    O  -0.695
O939    61.919271372   38.646483631   48.788105241 XXXX 1      oap1    O  -0.695
O940    61.919271372   38.646483631   55.663105241 XXXX 1      oap1    O  -0.600
O941    61.919271372   38.646483631   62.538105241 XXXX 1      oap1    O  -0.600
O942    61.919271372   38.646483631   69.413105241 XXXX 1      oap1    O  -0.600
O943    61.919271372   38.646483631   76.288105241 XXXX 1      oap1    O  -0.695
O944    61.919271372   38.646483631   83.163105241 XXXX 1      oap1    O  -0.600
O945    61.919271372   48.063483631   35.038105241 XXXX 1      oap1    O  -0.695
O946    61.919271372   48.063483631   41.913105241 XXXX 1      oap1    O  -0.800
O947    61.919271372   48.063483631   48.788105241 XXXX 1      oap1    O  -0.800
O948    61.919271372   48.063483631   55.663105241 XXXX 1      oap1    O  -0.800
O949    61.919271372   48.063483631   62.538105241 XXXX 1      oap1    O  -0.800
O950    61.919271372   48.063483631   69.413105241 XXXX 1      oap1    O  -0.800
O951    61.919271372   48.063483631   76.288105241 XXXX 1      oap1    O  -0.800
O952    61.919271372   48.063483631   83.163105241 XXXX 1      oap1    O  -0.800
O953    61.919271372   57.480483631   35.038105241 XXXX 1      oap1    O  -0.695
O954    61.919271372   57.480483631   41.913105241 XXXX 1      oap1    O  -0.800
O955    61.919271372   57.480483631   48.788105241 XXXX 1      oap1    O  -0.800
O956    61.919271372   57.480483631   55.663105241 XXXX 1      oap1    O  -0.800
O957    61.919271372   57.480483631   62.538105241 XXXX 1      oap1    O  -0.800
O958    61.919271372   57.480483631   69.413105241 XXXX 1      oap1    O  -0.800
O959    61.919271372   57.480483631   76.288105241 XXXX 1      oap1    O  -0.800
O960    61.919271372   57.480483631   83.163105241 XXXX 1      oap1    O  -0.800
O961    40.703099345   46.855753354   35.038105241 XXXX 1      oap1    O  -0.695
O962    40.703099345   46.855753354   41.913105241 XXXX 1      oap1    O  -0.800
O963    40.703099345   46.855753354   48.788105241 XXXX 1      oap1    O  -0.800
O964    40.703099345   46.855753354   55.663105241 XXXX 1      oap1    O  -0.800
O965    40.703099345   46.855753354   62.538105241 XXXX 1      oap1    O  -0.800
O966    40.703099345   46.855753354   69.413105241 XXXX 1      oap1    O  -0.800
O967    40.703099345   46.855753354   76.288105241 XXXX 1      oap1    O  -0.800
O968    40.703099345   46.855753354   83.163105241 XXXX 1      oap1    O  -0.800
O969    40.703099345   56.272753354   35.038105241 XXXX 1      oap1    O  -0.695
O970    40.703099345   56.272753354   41.913105241 XXXX 1      oap1    O  -0.800
O971    40.703099345   56.272753354   48.788105241 XXXX 1      oap1    O  -0.800
O972    40.703099345   56.272753354   55.663105241 XXXX 1      oap1    O  -0.800
O973    40.703099345   56.272753354   62.538105241 XXXX 1      oap1    O  -0.800
O974    40.703099345   56.272753354   69.413105241 XXXX 1      oap1    O  -0.800
O975    40.703099345   56.272753354   76.288105241 XXXX 1      oap1    O  -0.800
O976    40.703099345   56.272753354   83.163105241 XXXX 1      oap1    O  -0.800
O977    48.858460572   42.147253354   35.038105241 XXXX 1      oap1    O  -0.695
O978    48.858460572   42.147253354   41.913105241 XXXX 1      oap1    O  -0.800
O979    48.858460572   42.147253354   48.788105241 XXXX 1      oap1    O  -0.800
O980    48.858460572   42.147253354   55.663105241 XXXX 1      oap1    O  -0.800
O981    48.858460572   42.147253354   62.538105241 XXXX 1      oap1    O  -0.800
O982    48.858460572   42.147253354   69.413105241 XXXX 1      oap1    O  -0.800
O983    48.858460572   42.147253354   76.288105241 XXXX 1      oap1    O  -0.800
O984    48.858460572   42.147253354   83.163105241 XXXX 1      oap1    O  -0.800
O985    48.858460572   51.564253354   35.038105241 XXXX 1      oap1    O  -0.695
O986    48.858460572   51.564253354   41.913105241 XXXX 1      oap1    O  -0.800
O987    48.858460572   51.564253354   48.788105241 XXXX 1      oap1    O  -0.800
O988    48.858460572   51.564253354   55.663105241 XXXX 1      oap1    O  -0.800
O989    48.858460572   51.564253354   62.538105241 XXXX 1      oap1    O  -0.800
O990    48.858460572   51.564253354   69.413105241 XXXX 1      oap1    O  -0.800
O991    48.858460572   51.564253354   76.288105241 XXXX 1      oap1    O  -0.800
O992    48.858460572   51.564253354   83.163105241 XXXX 1      oap1    O  -0.800
O993    48.858460572   60.981253354   35.038105241 XXXX 1      oap1    O  -0.695
O994    48.858460572   60.981253354   41.913105241 XXXX 1      oap1    O  -0.800
O995    48.858460572   60.981253354   48.788105241 XXXX 1      oap1    O  -0.800
O996    48.858460572   60.981253354   55.663105241 XXXX 1      oap1    O  -0.800
O997    48.858460572   60.981253354   62.538105241 XXXX 1      oap1    O  -0.800
O998    48.858460572   60.981253354   69.413105241 XXXX 1      oap1    O  -0.800
O999    48.858460572   60.981253354   76.288105241 XXXX 1      oap1    O  -0.800
O1000   48.858460572   60.981253354   83.163105241 XXXX 1      oap1    O  -0.800
O1001   57.013821800   37.438753354   35.038105241 XXXX 1      oap1    O  -0.695
O1002   57.013821800   37.438753354   41.913105241 XXXX 1      oap1    O  -0.800
O1003   57.013821800   37.438753354   48.788105241 XXXX 1      oap1    O  -0.800
O1004   57.013821800   37.438753354   55.663105241 XXXX 1      oap1    O  -0.800
O1005   57.013821800   37.438753354   62.538105241 XXXX 1      oap1    O  -0.800
O1006   57.013821800   37.438753354   69.413105241 XXXX 1      oap1    O  -0.800
O1007   57.013821800   37.438753354   76.288105241 XXXX 1      oap1    O  -0.800
O1008   57.013821800   37.438753354   83.163105241 XXXX 1      oap1    O  -0.800
O1009   57.013821800   46.855753354   35.038105241 XXXX 1      oap1    O  -0.695
O1010   57.013821800   46.855753354   41.913105241 XXXX 1      oap1    O  -0.800
O1011   57.013821800   46.855753354   48.788105241 XXXX 1      oap1    O  -0.800
O1012   57.013821800   46.855753354   55.663105241 XXXX 1      oap1    O  -0.800
O1013   57.013821800   46.855753354   62.538105241 XXXX 1      oap1    O  -0.800
O1014   57.013821800   46.855753354   69.413105241 XXXX 1      oap1    O  -0.800
O1015   57.013821800   46.855753354   76.288105241 XXXX 1      oap1    O  -0.800
O1016   57.013821800   46.855753354   83.163105241 XXXX 1      oap1    O  -0.800
O1017   57.013821800   56.272753354   35.038105241 XXXX 1      oap1    O  -0.695
O1018   57.013821800   56.272753354   41.913105241 XXXX 1      oap1    O  -0.800
O1019   57.013821800   56.272753354   48.788105241 XXXX 1      oap1    O  -0.800
O1020   57.013821800   56.272753354   55.663105241 XXXX 1      oap1    O  -0.800
O1021   57.013821800   56.272753354   62.538105241 XXXX 1      oap1    O  -0.800
O1022   57.013821800   56.272753354   69.413105241 XXXX 1      oap1    O  -0.800
O1023   57.013821800   56.272753354   76.288105241 XXXX 1      oap1    O  -0.800
O1024   57.013821800   56.272753354   83.163105241 XXXX 1      oap1    O  -0.800
O1025   57.013821800   65.689753354   35.038105241 XXXX 1      oap1    O  -0.695
O1026   57.013821800   65.689753354   41.913105241 XXXX 1      oap1    O  -0.695
O1027   57.013821800   65.689753354   48.788105241 XXXX 1      oap1    O  -0.695
O1028   57.013821800   65.689753354   55.663105241 XXXX 1      oap1    O  -0.600
O1029   57.013821800   65.689753354   62.538105241 XXXX 1      oap1    O  -0.600
O1030   57.013821800   65.689753354   69.413105241 XXXX 1      oap1    O  -0.695
O1031   57.013821800   65.689753354   76.288105241 XXXX 1      oap1    O  -0.600
O1032   57.013821800   65.689753354   83.163105241 XXXX 1      oap1    O  -0.695
O1033   65.169183027   42.147253354   35.038105241 XXXX 1      oap1    O  -0.695
O1034   65.169183027   42.147253354   41.913105241 XXXX 1      oap1    O  -0.800
O1035   65.169183027   42.147253354   48.788105241 XXXX 1      oap1    O  -0.800
O1036   65.169183027   42.147253354   55.663105241 XXXX 1      oap1    O  -0.800
O1037   65.169183027   42.147253354   62.538105241 XXXX 1      oap1    O  -0.800
O1038   65.169183027   42.147253354   69.413105241 XXXX 1      oap1    O  -0.800
O1039   65.169183027   42.147253354   76.288105241 XXXX 1      oap1    O  -0.800
O1040   65.169183027   42.147253354   83.163105241 XXXX 1      oap1    O  -0.800
O1041   65.169183027   51.564253354   35.038105241 XXXX 1      oap1    O  -0.695
O1042   65.169183027   51.564253354   41.913105241 XXXX 1      oap1    O  -0.800
O1043   65.169183027   51.564253354   48.788105241 XXXX 1      oap1    O  -0.800
O1044   65.169183027   51.564253354   55.663105241 XXXX 1      oap1    O  -0.800
O1045   65.169183027   51.564253354   62.538105241 XXXX 1      oap1    O  -0.800
O1046   65.169183027   51.564253354   69.413105241 XXXX 1      oap1    O  -0.800
O1047   65.169183027   51.564253354   76.288105241 XXXX 1      oap1    O  -0.800
O1048   65.169183027   51.564253354   83.163105241 XXXX 1      oap1    O  -0.800
O1049   65.169183027   60.981253354   35.038105241 XXXX 1      oap1    O  -0.695
O1050   65.169183027   60.981253354   41.913105241 XXXX 1      oap1    O  -0.600
O1051   65.169183027   60.981253354   48.788105241 XXXX 1      oap1    O  -0.695
O1052   65.169183027   60.981253354   55.663105241 XXXX 1      oap1    O  -0.600
O1053   65.169183027   60.981253354   62.538105241 XXXX 1      oap1    O  -0.695
O1054   65.169183027   60.981253354   69.413105241 XXXX 1      oap1    O  -0.695
O1055   65.169183027   60.981253354   76.288105241 XXXX 1      oap1    O  -0.695
O1056   65.169183027   60.981253354   83.163105241 XXXX 1      oap1    O  -0.695
O1057   36.046388004   47.919874546   35.038105241 XXXX 1      oap1    O  -0.695
O1058   36.046388004   47.919874546   41.913105241 XXXX 1      oap1    O  -0.600
O1059   36.046388004   47.919874546   48.788105241 XXXX 1      oap1    O  -0.600
O1060   36.046388004   47.919874546   55.663105241 XXXX 1      oap1    O  -0.600
O1061   36.046388004   47.919874546   62.538105241 XXXX 1      oap1    O  -0.695
O1062   36.046388004   47.919874546   69.413105241 XXXX 1      oap1    O  -0.695
O1063   36.046388004   47.919874546   76.288105241 XXXX 1      oap1    O  -0.695
O1064   36.046388004   47.919874546   83.163105241 XXXX 1      oap1    O  -0.695
O1065   36.046388004   57.336874546   35.038105241 XXXX 1      oap1    O  -0.695
O1066   36.046388004   57.336874546   41.913105241 XXXX 1      oap1    O  -0.600
O1067   36.046388004   57.336874546   48.788105241 XXXX 1      oap1    O  -0.600
O1068   36.046388004   57.336874546   55.663105241 XXXX 1      oap1    O  -0.695
O1069   36.046388004   57.336874546   62.538105241 XXXX 1      oap1    O  -0.695
O1070   36.046388004   57.336874546   69.413105241 XXXX 1      oap1    O  -0.695
O1071   36.046388004   57.336874546   76.288105241 XXXX 1      oap1    O  -0.695
O1072   36.046388004   57.336874546   83.163105241 XXXX 1      oap1    O  -0.695
O1073   44.201749232   43.211374546   35.038105241 XXXX 1      oap1    O  -0.695
O1074   44.201749232   43.211374546   41.913105241 XXXX 1      oap1    O  -0.800
O1075   44.201749232   43.211374546   48.788105241 XXXX 1      oap1    O  -0.800
O1076   44.201749232   43.211374546   55.663105241 XXXX 1      oap1    O  -0.800
O1077   44.201749232   43.211374546   62.538105241 XXXX 1      oap1    O  -0.800
O1078   44.201749232   43.211374546   69.413105241 XXXX 1      oap1    O  -0.800
O1079   44.201749232   43.211374546   76.288105241 XXXX 1      oap1    O  -0.800
O1080   44.201749232   43.211374546   83.163105241 XXXX 1      oap1    O  -0.800
O1081   44.201749232   52.628374546   35.038105241 XXXX 1      oap1    O  -0.695
O1082   44.201749232   52.628374546   41.913105241 XXXX 1      oap1    O  -0.800
O1083   44.201749232   52.628374546   48.788105241 XXXX 1      oap1    O  -0.800
O1084   44.201749232   52.628374546   55.663105241 XXXX 1      oap1    O  -0.800
O1085   44.201749232   52.628374546   62.538105241 XXXX 1      oap1    O  -0.800
O1086   44.201749232   52.628374546   69.413105241 XXXX 1      oap1    O  -0.800
O1087   44.201749232   52.628374546   76.288105241 XXXX 1      oap1    O  -0.800
O1088   44.201749232   52.628374546   83.163105241 XXXX 1      oap1    O  -0.800
O1089   44.201749232   62.045374546   35.038105241 XXXX 1      oap1    O  -0.695
O1090   44.201749232   62.045374546   41.913105241 XXXX 1      oap1    O  -0.800
O1091   44.201749232   62.045374546   48.788105241 XXXX 1      oap1    O  -0.800
O1092   44.201749232   62.045374546   55.663105241 XXXX 1      oap1    O  -0.800
O1093   44.201749232   62.045374546   62.538105241 XXXX 1      oap1    O  -0.800
O1094   44.201749232   62.045374546   69.413105241 XXXX 1      oap1    O  -0.800
O1095   44.201749232   62.045374546   76.288105241 XXXX 1      oap1    O  -0.800
O1096   44.201749232   62.045374546   83.163105241 XXXX 1      oap1    O  -0.800
O1097   52.357110459   38.502874546   35.038105241 XXXX 1      oap1    O  -0.695
O1098   52.357110459   38.502874546   41.913105241 XXXX 1      oap1    O  -0.800
O1099   52.357110459   38.502874546   48.788105241 XXXX 1      oap1    O  -0.800
O1100   52.357110459   38.502874546   55.663105241 XXXX 1      oap1    O  -0.800
O1101   52.357110459   38.502874546   62.538105241 XXXX 1      oap1    O  -0.800
O1102   52.357110459   38.502874546   69.413105241 XXXX 1      oap1    O  -0.800
O1103   52.357110459   38.502874546   76.288105241 XXXX 1      oap1    O  -0.800
O1104   52.357110459   38.502874546   83.163105241 XXXX 1      oap1    O  -0.800
O1105   52.357110459   47.919874546   35.038105241 XXXX 1      oap1    O  -0.695
O1106   52.357110459   47.919874546   41.913105241 XXXX 1      oap1    O  -0.800
O1107   52.357110459   47.919874546   48.788105241 XXXX 1      oap1    O  -0.800
O1108   52.357110459   47.919874546   55.663105241 XXXX 1      oap1    O  -0.800
O1109   52.357110459   47.919874546   62.538105241 XXXX 1      oap1    O  -0.800
O1110   52.357110459   47.919874546   69.413105241 XXXX 1      oap1    O  -0.800
O1111   52.357110459   47.919874546   76.288105241 XXXX 1      oap1    O  -0.800
O1112   52.357110459   47.919874546   83.163105241 XXXX 1      oap1    O  -0.800
O1113   52.357110459   57.336874546   35.038105241 XXXX 1      oap1    O  -0.695
O1114   52.357110459   57.336874546   41.913105241 XXXX 1      oap1    O  -0.800
O1115   52.357110459   57.336874546   48.788105241 XXXX 1      oap1    O  -0.800
O1116   52.357110459   57.336874546   55.663105241 XXXX 1      oap1    O  -0.800
O1117   52.357110459   57.336874546   62.538105241 XXXX 1      oap1    O  -0.800
O1118   52.357110459   57.336874546   69.413105241 XXXX 1      oap1    O  -0.800
O1119   52.357110459   57.336874546   76.288105241 XXXX 1      oap1    O  -0.800
O1120   52.357110459   57.336874546   83.163105241 XXXX 1      oap1    O  -0.800
O1121   52.357110459   66.753874546   35.038105241 XXXX 1      oap1    O  -0.695
O1122   52.357110459   66.753874546   41.913105241 XXXX 1      oap1    O  -0.800
O1123   52.357110459   66.753874546   48.788105241 XXXX 1      oap1    O  -0.800
O1124   52.357110459   66.753874546   55.663105241 XXXX 1      oap1    O  -0.800
O1125   52.357110459   66.753874546   62.538105241 XXXX 1      oap1    O  -0.800
O1126   52.357110459   66.753874546   69.413105241 XXXX 1      oap1    O  -0.800
O1127   52.357110459   66.753874546   76.288105241 XXXX 1      oap1    O  -0.800
O1128   52.357110459   66.753874546   83.163105241 XXXX 1      oap1    O  -0.800
O1129   60.512471687   43.211374546   35.038105241 XXXX 1      oap1    O  -0.695
O1130   60.512471687   43.211374546   41.913105241 XXXX 1      oap1    O  -0.800
O1131   60.512471687   43.211374546   48.788105241 XXXX 1      oap1    O  -0.800
O1132   60.512471687   43.211374546   55.663105241 XXXX 1      oap1    O  -0.800
O1133   60.512471687   43.211374546   62.538105241 XXXX 1      oap1    O  -0.800
O1134   60.512471687   43.211374546   69.413105241 XXXX 1      oap1    O  -0.800
O1135   60.512471687   43.211374546   76.288105241 XXXX 1      oap1    O  -0.800
O1136   60.512471687   43.211374546   83.163105241 XXXX 1      oap1    O  -0.800
O1137   60.512471687   52.628374546   35.038105241 XXXX 1      oap1    O  -0.695
O1138   60.512471687   52.628374546   41.913105241 XXXX 1      oap1    O  -0.800
O1139   60.512471687   52.628374546   48.788105241 XXXX 1      oap1    O  -0.800
O1140   60.512471687   52.628374546   55.663105241 XXXX 1      oap1    O  -0.800
O1141   60.512471687   52.628374546   62.538105241 XXXX 1      oap1    O  -0.800
O1142   60.512471687   52.628374546   69.413105241 XXXX 1      oap1    O  -0.800
O1143   60.512471687   52.628374546   76.288105241 XXXX 1      oap1    O  -0.800
O1144   60.512471687   52.628374546   83.163105241 XXXX 1      oap1    O  -0.800
O1145   60.512471687   62.045374546   35.038105241 XXXX 1      oap1    O  -0.695
O1146   60.512471687   62.045374546   41.913105241 XXXX 1      oap1    O  -0.800
O1147   60.512471687   62.045374546   48.788105241 XXXX 1      oap1    O  -0.800
O1148   60.512471687   62.045374546   55.663105241 XXXX 1      oap1    O  -0.800
O1149   60.512471687   62.045374546   62.538105241 XXXX 1      oap1    O  -0.800
O1150   60.512471687   62.045374546   69.413105241 XXXX 1      oap1    O  -0.800
O1151   60.512471687   62.045374546   76.288105241 XXXX 1      oap1    O  -0.800
O1152   60.512471687   62.045374546   83.163105241 XXXX 1      oap1    O  -0.800
Ca1     40.786012089   41.335037177   38.968817726 XXXX 1      ca+h    Ca  1.500
Ca2     40.786012089   41.335037177   45.843817726 XXXX 1      ca+h    Ca  1.500
Ca3     40.786012089   41.335037177   52.718817726 XXXX 1      ca+h    Ca  1.500
Ca4     40.786012089   41.335037177   59.593817726 XXXX 1      ca+h    Ca  1.500
Ca5     40.786012089   41.335037177   66.468817726 XXXX 1      ca+h    Ca  1.500
Ca6     40.786012089   41.335037177   73.343817726 XXXX 1      ca+h    Ca  1.500
Ca7     40.786012089   41.335037177   80.218817726 XXXX 1      ca+h    Ca  1.500
Ca8     40.786012089   50.752037177   38.968817726 XXXX 1      ca+h    Ca  1.500
Ca9     40.786012089   50.752037177   45.843817726 XXXX 1      ca+h    Ca  1.500
Ca10    40.786012089   50.752037177   52.718817726 XXXX 1      ca+h    Ca  1.500
Ca11    40.786012089   50.752037177   59.593817726 XXXX 1      ca+h    Ca  1.500
Ca12    40.786012089   50.752037177   66.468817726 XXXX 1      ca+h    Ca  1.500
Ca13    40.786012089   50.752037177   73.343817726 XXXX 1      ca+h    Ca  1.500
Ca14    40.786012089   50.752037177   80.218817726 XXXX 1      ca+h    Ca  1.500
Ca15    40.786012089   60.169037177   38.968817726 XXXX 1      ca+h    Ca  1.500
Ca16    40.786012089   60.169037177   45.843817726 XXXX 1      ca+h    Ca  1.500
Ca17    40.786012089   60.169037177   52.718817726 XXXX 1      ca+h    Ca  1.500
Ca18    40.786012089   60.169037177   59.593817726 XXXX 1      ca+h    Ca  1.500
Ca19    40.786012089   60.169037177   66.468817726 XXXX 1      ca+h    Ca  1.500
Ca20    40.786012089   60.169037177   73.343817726 XXXX 1      ca+h    Ca  1.500
Ca21    40.786012089   60.169037177   80.218817726 XXXX 1      ca+h    Ca  1.500
Ca22    48.941373316   36.626537177   38.968817726 XXXX 1      ca+h    Ca  1.500
Ca23    48.941373316   36.626537177   45.843817726 XXXX 1      ca+h    Ca  1.500
Ca24    48.941373316   36.626537177   52.718817726 XXXX 1      ca+h    Ca  1.500
Ca25    48.941373316   36.626537177   59.593817726 XXXX 1      ca+h    Ca  1.500
Ca26    48.941373316   36.626537177   66.468817726 XXXX 1      ca+h    Ca  1.500
Ca27    48.941373316   36.626537177   73.343817726 XXXX 1      ca+h    Ca  1.500
Ca28    48.941373316   36.626537177   80.218817726 XXXX 1      ca+h    Ca  1.500
Ca29    48.941373316   46.043537177   38.968817726 XXXX 1      ca+h    Ca  1.500
Ca30    48.941373316   46.043537177   45.843817726 XXXX 1      ca+h    Ca  1.500
Ca31    48.941373316   46.043537177   52.718817726 XXXX 1      ca+h    Ca  1.500
Ca32    48.941373316   46.043537177   59.593817726 XXXX 1      ca+h    Ca  1.500
Ca33    48.941373316   46.043537177   66.468817726 XXXX 1      ca+h    Ca  1.500
Ca34    48.941373316   46.043537177   73.343817726 XXXX 1      ca+h    Ca  1.500
Ca35    48.941373316   46.043537177   80.218817726 XXXX 1      ca+h    Ca  1.500
Ca36    48.941373316   55.460537177   38.968817726 XXXX 1      ca+h    Ca  1.500
Ca37    48.941373316   55.460537177   45.843817726 XXXX 1      ca+h    Ca  1.500
Ca38    48.941373316   55.460537177   52.718817726 XXXX 1      ca+h    Ca  1.500
Ca39    48.941373316   55.460537177   59.593817726 XXXX 1      ca+h    Ca  1.500
Ca40    48.941373316   55.460537177   66.468817726 XXXX 1      ca+h    Ca  1.500
Ca41    48.941373316   55.460537177   73.343817726 XXXX 1      ca+h    Ca  1.500
Ca42    48.941373316   55.460537177   80.218817726 XXXX 1      ca+h    Ca  1.500
Ca43    48.941373316   64.877537177   38.968817726 XXXX 1      ca+h    Ca  1.500
Ca44    48.941373316   64.877537177   45.843817726 XXXX 1      ca+h    Ca  1.500
Ca45    48.941373316   64.877537177   52.718817726 XXXX 1      ca+h    Ca  1.500
Ca46    48.941373316   64.877537177   59.593817726 XXXX 1      ca+h    Ca  1.500
Ca47    48.941373316   64.877537177   66.468817726 XXXX 1      ca+h    Ca  1.500
Ca48    48.941373316   64.877537177   73.343817726 XXXX 1      ca+h    Ca  1.500
Ca49    48.941373316   64.877537177   80.218817726 XXXX 1      ca+h    Ca  1.500
Ca50    57.096734544   41.335037177   38.968817726 XXXX 1      ca+h    Ca  1.500
Ca51    57.096734544   41.335037177   45.843817726 XXXX 1      ca+h    Ca  1.500
Ca52    57.096734544   41.335037177   52.718817726 XXXX 1      ca+h    Ca  1.500
Ca53    57.096734544   41.335037177   59.593817726 XXXX 1      ca+h    Ca  1.500
Ca54    57.096734544   41.335037177   66.468817726 XXXX 1      ca+h    Ca  1.500
Ca55    57.096734544   41.335037177   73.343817726 XXXX 1      ca+h    Ca  1.500
Ca56    57.096734544   41.335037177   80.218817726 XXXX 1      ca+h    Ca  1.500
Ca57    57.096734544   50.752037177   38.968817726 XXXX 1      ca+h    Ca  1.500
Ca58    57.096734544   50.752037177   45.843817726 XXXX 1      ca+h    Ca  1.500
Ca59    57.096734544   50.752037177   52.718817726 XXXX 1      ca+h    Ca  1.500
Ca60    57.096734544   50.752037177   59.593817726 XXXX 1      ca+h    Ca  1.500
Ca61    57.096734544   50.752037177   66.468817726 XXXX 1      ca+h    Ca  1.500
Ca62    57.096734544   50.752037177   73.343817726 XXXX 1      ca+h    Ca  1.500
Ca63    57.096734544   50.752037177   80.218817726 XXXX 1      ca+h    Ca  1.500
Ca64    57.096734544   60.169037177   38.968817726 XXXX 1      ca+h    Ca  1.500
Ca65    57.096734544   60.169037177   45.843817726 XXXX 1      ca+h    Ca  1.500
Ca66    57.096734544   60.169037177   52.718817726 XXXX 1      ca+h    Ca  1.500
Ca67    57.096734544   60.169037177   59.593817726 XXXX 1      ca+h    Ca  1.500
Ca68    57.096734544   60.169037177   66.468817726 XXXX 1      ca+h    Ca  1.500
Ca69    57.096734544   60.169037177   73.343817726 XXXX 1      ca+h    Ca  1.500
Ca70    57.096734544   60.169037177   80.218817726 XXXX 1      ca+h    Ca  1.500
Ca71    65.252095771   46.043537177   38.968817726 XXXX 1      ca+h    Ca  1.500
Ca72    65.252095771   46.043537177   45.843817726 XXXX 1      ca+h    Ca  1.500
Ca73    65.252095771   46.043537177   52.718817726 XXXX 1      ca+h    Ca  1.500
Ca74    65.252095771   46.043537177   59.593817726 XXXX 1      ca+h    Ca  1.500
Ca75    65.252095771   46.043537177   66.468817726 XXXX 1      ca+h    Ca  1.500
Ca76    65.252095771   46.043537177   73.343817726 XXXX 1      ca+h    Ca  1.500
Ca77    65.252095771   46.043537177   80.218817726 XXXX 1      ca+h    Ca  1.500
Ca78    65.252095771   55.460537177   38.968817726 XXXX 1      ca+h    Ca  1.500
Ca79    65.252095771   55.460537177   45.843817726 XXXX 1      ca+h    Ca  1.500
Ca80    65.252095771   55.460537177   52.718817726 XXXX 1      ca+h    Ca  1.500
Ca81    65.252095771   55.460537177   59.593817726 XXXX 1      ca+h    Ca  1.500
Ca82    65.252095771   55.460537177   66.468817726 XXXX 1      ca+h    Ca  1.500
Ca83    65.252095771   55.460537177   73.343817726 XXXX 1      ca+h    Ca  1.500
Ca84    65.252095771   55.460537177   80.218817726 XXXX 1      ca+h    Ca  1.500
Ca85    38.067558346   46.043537177   35.531317726 XXXX 1      ca+h    Ca  1.500
Ca86    38.067558346   46.043537177   42.406317726 XXXX 1      ca+h    Ca  1.500
Ca87    38.067558346   46.043537177   49.281317726 XXXX 1      ca+h    Ca  1.500
Ca88    38.067558346   46.043537177   56.156317726 XXXX 1      ca+h    Ca  1.500
Ca89    38.067558346   46.043537177   63.031317726 XXXX 1      ca+h    Ca  1.500
Ca90    38.067558346   46.043537177   69.906317726 XXXX 1      ca+h    Ca  1.500
Ca91    38.067558346   46.043537177   76.781317726 XXXX 1      ca+h    Ca  1.500
Ca92    38.067558346   46.043537177   83.656317726 XXXX 1      ca+h    Ca  1.500
Ca93    38.067558346   55.460537177   35.531317726 XXXX 1      ca+h    Ca  1.500
Ca94    38.067558346   55.460537177   42.406317726 XXXX 1      ca+h    Ca  1.500
Ca95    38.067558346   55.460537177   49.281317726 XXXX 1      ca+h    Ca  1.500
Ca96    38.067558346   55.460537177   56.156317726 XXXX 1      ca+h    Ca  1.500
Ca97    38.067558346   55.460537177   63.031317726 XXXX 1      ca+h    Ca  1.500
Ca98    38.067558346   55.460537177   69.906317726 XXXX 1      ca+h    Ca  1.500
Ca99    38.067558346   55.460537177   76.781317726 XXXX 1      ca+h    Ca  1.500
Ca100   38.067558346   55.460537177   83.656317726 XXXX 1      ca+h    Ca  1.500
Ca101   46.222919574   41.335037177   35.531317726 XXXX 1      ca+h    Ca  1.500
Ca102   46.222919574   41.335037177   42.406317726 XXXX 1      ca+h    Ca  1.500
Ca103   46.222919574   41.335037177   49.281317726 XXXX 1      ca+h    Ca  1.500
Ca104   46.222919574   41.335037177   56.156317726 XXXX 1      ca+h    Ca  1.500
Ca105   46.222919574   41.335037177   63.031317726 XXXX 1      ca+h    Ca  1.500
Ca106   46.222919574   41.335037177   69.906317726 XXXX 1      ca+h    Ca  1.500
Ca107   46.222919574   41.335037177   76.781317726 XXXX 1      ca+h    Ca  1.500
Ca108   46.222919574   41.335037177   83.656317726 XXXX 1      ca+h    Ca  1.500
Ca109   46.222919574   50.752037177   35.531317726 XXXX 1      ca+h    Ca  1.500
Ca110   46.222919574   50.752037177   42.406317726 XXXX 1      ca+h    Ca  1.500
Ca111   46.222919574   50.752037177   49.281317726 XXXX 1      ca+h    Ca  1.500
Ca112   46.222919574   50.752037177   56.156317726 XXXX 1      ca+h    Ca  1.500
Ca113   46.222919574   50.752037177   63.031317726 XXXX 1      ca+h    Ca  1.500
Ca114   46.222919574   50.752037177   69.906317726 XXXX 1      ca+h    Ca  1.500
Ca115   46.222919574   50.752037177   76.781317726 XXXX 1      ca+h    Ca  1.500
Ca116   46.222919574   50.752037177   83.656317726 XXXX 1      ca+h    Ca  1.500
Ca117   46.222919574   60.169037177   35.531317726 XXXX 1      ca+h    Ca  1.500
Ca118   46.222919574   60.169037177   42.406317726 XXXX 1      ca+h    Ca  1.500
Ca119   46.222919574   60.169037177   49.281317726 XXXX 1      ca+h    Ca  1.500
Ca120   46.222919574   60.169037177   56.156317726 XXXX 1      ca+h    Ca  1.500
Ca121   46.222919574   60.169037177   63.031317726 XXXX 1      ca+h    Ca  1.500
Ca122   46.222919574   60.169037177   69.906317726 XXXX 1      ca+h    Ca  1.500
Ca123   46.222919574   60.169037177   76.781317726 XXXX 1      ca+h    Ca  1.500
Ca124   46.222919574   60.169037177   83.656317726 XXXX 1      ca+h    Ca  1.500
Ca125   54.378280801   36.626537177   35.531317726 XXXX 1      ca+h    Ca  1.500
Ca126   54.378280801   36.626537177   42.406317726 XXXX 1      ca+h    Ca  1.500
Ca127   54.378280801   36.626537177   49.281317726 XXXX 1      ca+h    Ca  1.500
Ca128   54.378280801   36.626537177   56.156317726 XXXX 1      ca+h    Ca  1.500
Ca129   54.378280801   36.626537177   63.031317726 XXXX 1      ca+h    Ca  1.500
Ca130   54.378280801   36.626537177   69.906317726 XXXX 1      ca+h    Ca  1.500
Ca131   54.378280801   36.626537177   76.781317726 XXXX 1      ca+h    Ca  1.500
Ca132   54.378280801   36.626537177   83.656317726 XXXX 1      ca+h    Ca  1.500
Ca133   54.378280801   46.043537177   35.531317726 XXXX 1      ca+h    Ca  1.500
Ca134   54.378280801   46.043537177   42.406317726 XXXX 1      ca+h    Ca  1.500
Ca135   54.378280801   46.043537177   49.281317726 XXXX 1      ca+h    Ca  1.500
Ca136   54.378280801   46.043537177   56.156317726 XXXX 1      ca+h    Ca  1.500
Ca137   54.378280801   46.043537177   63.031317726 XXXX 1      ca+h    Ca  1.500
Ca138   54.378280801   46.043537177   69.906317726 XXXX 1      ca+h    Ca  1.500
Ca139   54.378280801   46.043537177   76.781317726 XXXX 1      ca+h    Ca  1.500
Ca140   54.378280801   46.043537177   83.656317726 XXXX 1      ca+h    Ca  1.500
Ca141   54.378280801   55.460537177   35.531317726 XXXX 1      ca+h    Ca  1.500
Ca142   54.378280801   55.460537177   42.406317726 XXXX 1      ca+h    Ca  1.500
Ca143   54.378280801   55.460537177   49.281317726 XXXX 1      ca+h    Ca  1.500
Ca144   54.378280801   55.460537177   56.156317726 XXXX 1      ca+h    Ca  1.500
Ca145   54.378280801   55.460537177   63.031317726 XXXX 1      ca+h    Ca  1.500
Ca146   54.378280801   55.460537177   69.906317726 XXXX 1      ca+h    Ca  1.500
Ca147   54.378280801   55.460537177   76.781317726 XXXX 1      ca+h    Ca  1.500
Ca148   54.378280801   55.460537177   83.656317726 XXXX 1      ca+h    Ca  1.500
Ca149   54.378280801   64.877537177   35.531317726 XXXX 1      ca+h    Ca  1.500
Ca150   54.378280801   64.877537177   42.406317726 XXXX 1      ca+h    Ca  1.500
Ca151   54.378280801   64.877537177   49.281317726 XXXX 1      ca+h    Ca  1.500
Ca152   54.378280801   64.877537177   56.156317726 XXXX 1      ca+h    Ca  1.500
Ca153   54.378280801   64.877537177   63.031317726 XXXX 1      ca+h    Ca  1.500
Ca154   54.378280801   64.877537177   69.906317726 XXXX 1      ca+h    Ca  1.500
Ca155   54.378280801   64.877537177   76.781317726 XXXX 1      ca+h    Ca  1.500
Ca156   54.378280801   64.877537177   83.656317726 XXXX 1      ca+h    Ca  1.500
Ca157   62.533642029   41.335037177   35.531317726 XXXX 1      ca+h    Ca  1.500
Ca158   62.533642029   41.335037177   42.406317726 XXXX 1      ca+h    Ca  1.500
Ca159   62.533642029   41.335037177   49.281317726 XXXX 1      ca+h    Ca  1.500
Ca160   62.533642029   41.335037177   56.156317726 XXXX 1      ca+h    Ca  1.500
Ca161   62.533642029   41.335037177   63.031317726 XXXX 1      ca+h    Ca  1.500
Ca162   62.533642029   41.335037177   69.906317726 XXXX 1      ca+h    Ca  1.500
Ca163   62.533642029   41.335037177   76.781317726 XXXX 1      ca+h    Ca  1.500
Ca164   62.533642029   41.335037177   83.656317726 XXXX 1      ca+h    Ca  1.500
Ca165   62.533642029   50.752037177   35.531317726 XXXX 1      ca+h    Ca  1.500
Ca166   62.533642029   50.752037177   42.406317726 XXXX 1      ca+h    Ca  1.500
Ca167   62.533642029   50.752037177   49.281317726 XXXX 1      ca+h    Ca  1.500
Ca168   62.533642029   50.752037177   56.156317726 XXXX 1      ca+h    Ca  1.500
Ca169   62.533642029   50.752037177   63.031317726 XXXX 1      ca+h    Ca  1.500
Ca170   62.533642029   50.752037177   69.906317726 XXXX 1      ca+h    Ca  1.500
Ca171   62.533642029   50.752037177   76.781317726 XXXX 1      ca+h    Ca  1.500
Ca172   62.533642029   50.752037177   83.656317726 XXXX 1      ca+h    Ca  1.500
Ca173   62.533642029   60.169037177   35.531317726 XXXX 1      ca+h    Ca  1.500
Ca174   62.533642029   60.169037177   42.406317726 XXXX 1      ca+h    Ca  1.500
Ca175   62.533642029   60.169037177   49.281317726 XXXX 1      ca+h    Ca  1.500
Ca176   62.533642029   60.169037177   56.156317726 XXXX 1      ca+h    Ca  1.500
Ca177   62.533642029   60.169037177   63.031317726 XXXX 1      ca+h    Ca  1.500
Ca178   62.533642029   60.169037177   69.906317726 XXXX 1      ca+h    Ca  1.500
Ca179   62.533642029   60.169037177   76.781317726 XXXX 1      ca+h    Ca  1.500
Ca180   62.533642029   60.169037177   83.656317726 XXXX 1      ca+h    Ca  1.500
Ca181   38.067558346   46.043537177   38.949017726 XXXX 1      ca+h    Ca  1.500
Ca182   38.067558346   46.043537177   45.824017726 XXXX 1      ca+h    Ca  1.500
Ca183   38.067558346   46.043537177   52.699017726 XXXX 1      ca+h    Ca  1.500
Ca184   38.067558346   46.043537177   59.574017726 XXXX 1      ca+h    Ca  1.500
Ca185   38.067558346   46.043537177   66.449017726 XXXX 1      ca+h    Ca  1.500
Ca186   38.067558346   46.043537177   73.324017726 XXXX 1      ca+h    Ca  1.500
Ca187   38.067558346   46.043537177   80.199017726 XXXX 1      ca+h    Ca  1.500
Ca188   38.067558346   55.460537177   38.949017726 XXXX 1      ca+h    Ca  1.500
Ca189   38.067558346   55.460537177   45.824017726 XXXX 1      ca+h    Ca  1.500
Ca190   38.067558346   55.460537177   52.699017726 XXXX 1      ca+h    Ca  1.500
Ca191   38.067558346   55.460537177   59.574017726 XXXX 1      ca+h    Ca  1.500
Ca192   38.067558346   55.460537177   66.449017726 XXXX 1      ca+h    Ca  1.500
Ca193   38.067558346   55.460537177   73.324017726 XXXX 1      ca+h    Ca  1.500
Ca194   38.067558346   55.460537177   80.199017726 XXXX 1      ca+h    Ca  1.500
Ca195   46.222919574   41.335037177   38.949017726 XXXX 1      ca+h    Ca  1.500
Ca196   46.222919574   41.335037177   45.824017726 XXXX 1      ca+h    Ca  1.500
Ca197   46.222919574   41.335037177   52.699017726 XXXX 1      ca+h    Ca  1.500
Ca198   46.222919574   41.335037177   59.574017726 XXXX 1      ca+h    Ca  1.500
Ca199   46.222919574   41.335037177   66.449017726 XXXX 1      ca+h    Ca  1.500
Ca200   46.222919574   41.335037177   73.324017726 XXXX 1      ca+h    Ca  1.500
Ca201   46.222919574   41.335037177   80.199017726 XXXX 1      ca+h    Ca  1.500
Ca202   46.222919574   50.752037177   38.949017726 XXXX 1      ca+h    Ca  1.500
Ca203   46.222919574   50.752037177   45.824017726 XXXX 1      ca+h    Ca  1.500
Ca204   46.222919574   50.752037177   52.699017726 XXXX 1      ca+h    Ca  1.500
Ca205   46.222919574   50.752037177   59.574017726 XXXX 1      ca+h    Ca  1.500
Ca206   46.222919574   50.752037177   66.449017726 XXXX 1      ca+h    Ca  1.500
Ca207   46.222919574   50.752037177   73.324017726 XXXX 1      ca+h    Ca  1.500
Ca208   46.222919574   50.752037177   80.199017726 XXXX 1      ca+h    Ca  1.500
Ca209   46.222919574   60.169037177   38.949017726 XXXX 1      ca+h    Ca  1.500
Ca210   46.222919574   60.169037177   45.824017726 XXXX 1      ca+h    Ca  1.500
Ca211   46.222919574   60.169037177   52.699017726 XXXX 1      ca+h    Ca  1.500
Ca212   46.222919574   60.169037177   59.574017726 XXXX 1      ca+h    Ca  1.500
Ca213   46.222919574   60.169037177   66.449017726 XXXX 1      ca+h    Ca  1.500
Ca214   46.222919574   60.169037177   73.324017726 XXXX 1      ca+h    Ca  1.500
Ca215   46.222919574   60.169037177   80.199017726 XXXX 1      ca+h    Ca  1.500
Ca216   54.378280801   36.626537177   38.949017726 XXXX 1      ca+h    Ca  1.500
Ca217   54.378280801   36.626537177   45.824017726 XXXX 1      ca+h    Ca  1.500
Ca218   54.378280801   36.626537177   52.699017726 XXXX 1      ca+h    Ca  1.500
Ca219   54.378280801   36.626537177   59.574017726 XXXX 1      ca+h    Ca  1.500
Ca220   54.378280801   36.626537177   66.449017726 XXXX 1      ca+h    Ca  1.500
Ca221   54.378280801   36.626537177   73.324017726 XXXX 1      ca+h    Ca  1.500
Ca222   54.378280801   36.626537177   80.199017726 XXXX 1      ca+h    Ca  1.500
Ca223   54.378280801   46.043537177   38.949017726 XXXX 1      ca+h    Ca  1.500
Ca224   54.378280801   46.043537177   45.824017726 XXXX 1      ca+h    Ca  1.500
Ca225   54.378280801   46.043537177   52.699017726 XXXX 1      ca+h    Ca  1.500
Ca226   54.378280801   46.043537177   59.574017726 XXXX 1      ca+h    Ca  1.500
Ca227   54.378280801   46.043537177   66.449017726 XXXX 1      ca+h    Ca  1.500
Ca228   54.378280801   46.043537177   73.324017726 XXXX 1      ca+h    Ca  1.500
Ca229   54.378280801   46.043537177   80.199017726 XXXX 1      ca+h    Ca  1.500
Ca230   54.378280801   55.460537177   38.949017726 XXXX 1      ca+h    Ca  1.500
Ca231   54.378280801   55.460537177   45.824017726 XXXX 1      ca+h    Ca  1.500
Ca232   54.378280801   55.460537177   52.699017726 XXXX 1      ca+h    Ca  1.500
Ca233   54.378280801   55.460537177   59.574017726 XXXX 1      ca+h    Ca  1.500
Ca234   54.378280801   55.460537177   66.449017726 XXXX 1      ca+h    Ca  1.500
Ca235   54.378280801   55.460537177   73.324017726 XXXX 1      ca+h    Ca  1.500
Ca236   54.378280801   55.460537177   80.199017726 XXXX 1      ca+h    Ca  1.500
Ca237   54.378280801   64.877537177   38.949017726 XXXX 1      ca+h    Ca  1.500
Ca238   54.378280801   64.877537177   45.824017726 XXXX 1      ca+h    Ca  1.500
Ca239   54.378280801   64.877537177   52.699017726 XXXX 1      ca+h    Ca  1.500
Ca240   54.378280801   64.877537177   59.574017726 XXXX 1      ca+h    Ca  1.500
Ca241   54.378280801   64.877537177   66.449017726 XXXX 1      ca+h    Ca  1.500
Ca242   54.378280801   64.877537177   73.324017726 XXXX 1      ca+h    Ca  1.500
Ca243   54.378280801   64.877537177   80.199017726 XXXX 1      ca+h    Ca  1.500
Ca244   62.533642029   41.335037177   38.949017726 XXXX 1      ca+h    Ca  1.500
Ca245   62.533642029   41.335037177   45.824017726 XXXX 1      ca+h    Ca  1.500
Ca246   62.533642029   41.335037177   52.699017726 XXXX 1      ca+h    Ca  1.500
Ca247   62.533642029   41.335037177   59.574017726 XXXX 1      ca+h    Ca  1.500
Ca248   62.533642029   41.335037177   66.449017726 XXXX 1      ca+h    Ca  1.500
Ca249   62.533642029   41.335037177   73.324017726 XXXX 1      ca+h    Ca  1.500
Ca250   62.533642029   41.335037177   80.199017726 XXXX 1      ca+h    Ca  1.500
Ca251   62.533642029   50.752037177   38.949017726 XXXX 1      ca+h    Ca  1.500
Ca252   62.533642029   50.752037177   45.824017726 XXXX 1      ca+h    Ca  1.500
Ca253   62.533642029   50.752037177   52.699017726 XXXX 1      ca+h    Ca  1.500
Ca254   62.533642029   50.752037177   59.574017726 XXXX 1      ca+h    Ca  1.500
Ca255   62.533642029   50.752037177   66.449017726 XXXX 1      ca+h    Ca  1.500
Ca256   62.533642029   50.752037177   73.324017726 XXXX 1      ca+h    Ca  1.500
Ca257   62.533642029   50.752037177   80.199017726 XXXX 1      ca+h    Ca  1.500
Ca258   62.533642029   60.169037177   38.949017726 XXXX 1      ca+h    Ca  1.500
Ca259   62.533642029   60.169037177   45.824017726 XXXX 1      ca+h    Ca  1.500
Ca260   62.533642029   60.169037177   52.699017726 XXXX 1      ca+h    Ca  1.500
Ca261   62.533642029   60.169037177   59.574017726 XXXX 1      ca+h    Ca  1.500
Ca262   62.533642029   60.169037177   66.449017726 XXXX 1      ca+h    Ca  1.500
Ca263   62.533642029   60.169037177   73.324017726 XXXX 1      ca+h    Ca  1.500
Ca264   62.533642029   60.169037177   80.199017726 XXXX 1      ca+h    Ca  1.500
Ca265   40.786012089   41.335037177   35.511517726 XXXX 1      ca+h    Ca  1.500
Ca266   40.786012089   41.335037177   42.386517726 XXXX 1      ca+h    Ca  1.500
Ca267   40.786012089   41.335037177   49.261517726 XXXX 1      ca+h    Ca  1.500
Ca268   40.786012089   41.335037177   56.136517726 XXXX 1      ca+h    Ca  1.500
Ca269   40.786012089   41.335037177   63.011517726 XXXX 1      ca+h    Ca  1.500
Ca270   40.786012089   41.335037177   69.886517726 XXXX 1      ca+h    Ca  1.500
Ca271   40.786012089   41.335037177   76.761517726 XXXX 1      ca+h    Ca  1.500
Ca272   40.786012089   41.335037177   83.636517726 XXXX 1      ca+h    Ca  1.500
Ca273   40.786012089   50.752037177   35.511517726 XXXX 1      ca+h    Ca  1.500
Ca274   40.786012089   50.752037177   42.386517726 XXXX 1      ca+h    Ca  1.500
Ca275   40.786012089   50.752037177   49.261517726 XXXX 1      ca+h    Ca  1.500
Ca276   40.786012089   50.752037177   56.136517726 XXXX 1      ca+h    Ca  1.500
Ca277   40.786012089   50.752037177   63.011517726 XXXX 1      ca+h    Ca  1.500
Ca278   40.786012089   50.752037177   69.886517726 XXXX 1      ca+h    Ca  1.500
Ca279   40.786012089   50.752037177   76.761517726 XXXX 1      ca+h    Ca  1.500
Ca280   40.786012089   50.752037177   83.636517726 XXXX 1      ca+h    Ca  1.500
Ca281   40.786012089   60.169037177   35.511517726 XXXX 1      ca+h    Ca  1.500
Ca282   40.786012089   60.169037177   42.386517726 XXXX 1      ca+h    Ca  1.500
Ca283   40.786012089   60.169037177   49.261517726 XXXX 1      ca+h    Ca  1.500
Ca284   40.786012089   60.169037177   56.136517726 XXXX 1      ca+h    Ca  1.500
Ca285   40.786012089   60.169037177   63.011517726 XXXX 1      ca+h    Ca  1.500
Ca286   40.786012089   60.169037177   69.886517726 XXXX 1      ca+h    Ca  1.500
Ca287   40.786012089   60.169037177   76.761517726 XXXX 1      ca+h    Ca  1.500
Ca288   40.786012089   60.169037177   83.636517726 XXXX 1      ca+h    Ca  1.500
Ca289   48.941373316   36.626537177   35.511517726 XXXX 1      ca+h    Ca  1.500
Ca290   48.941373316   36.626537177   42.386517726 XXXX 1      ca+h    Ca  1.500
Ca291   48.941373316   36.626537177   49.261517726 XXXX 1      ca+h    Ca  1.500
Ca292   48.941373316   36.626537177   56.136517726 XXXX 1      ca+h    Ca  1.500
Ca293   48.941373316   36.626537177   63.011517726 XXXX 1      ca+h    Ca  1.500
Ca294   48.941373316   36.626537177   69.886517726 XXXX 1      ca+h    Ca  1.500
Ca295   48.941373316   36.626537177   76.761517726 XXXX 1      ca+h    Ca  1.500
Ca296   48.941373316   36.626537177   83.636517726 XXXX 1      ca+h    Ca  1.500
Ca297   48.941373316   46.043537177   35.511517726 XXXX 1      ca+h    Ca  1.500
Ca298   48.941373316   46.043537177   42.386517726 XXXX 1      ca+h    Ca  1.500
Ca299   48.941373316   46.043537177   49.261517726 XXXX 1      ca+h    Ca  1.500
Ca300   48.941373316   46.043537177   56.136517726 XXXX 1      ca+h    Ca  1.500
Ca301   48.941373316   46.043537177   63.011517726 XXXX 1      ca+h    Ca  1.500
Ca302   48.941373316   46.043537177   69.886517726 XXXX 1      ca+h    Ca  1.500
Ca303   48.941373316   46.043537177   76.761517726 XXXX 1      ca+h    Ca  1.500
Ca304   48.941373316   46.043537177   83.636517726 XXXX 1      ca+h    Ca  1.500
Ca305   48.941373316   55.460537177   35.511517726 XXXX 1      ca+h    Ca  1.500
Ca306   48.941373316   55.460537177   42.386517726 XXXX 1      ca+h    Ca  1.500
Ca307   48.941373316   55.460537177   49.261517726 XXXX 1      ca+h    Ca  1.500
Ca308   48.941373316   55.460537177   56.136517726 XXXX 1      ca+h    Ca  1.500
Ca309   48.941373316   55.460537177   63.011517726 XXXX 1      ca+h    Ca  1.500
Ca310   48.941373316   55.460537177   69.886517726 XXXX 1      ca+h    Ca  1.500
Ca311   48.941373316   55.460537177   76.761517726 XXXX 1      ca+h    Ca  1.500
Ca312   48.941373316   55.460537177   83.636517726 XXXX 1      ca+h    Ca  1.500
Ca313   48.941373316   64.877537177   35.511517726 XXXX 1      ca+h    Ca  1.500
Ca314   48.941373316   64.877537177   42.386517726 XXXX 1      ca+h    Ca  1.500
Ca315   48.941373316   64.877537177   49.261517726 XXXX 1      ca+h    Ca  1.500
Ca316   48.941373316   64.877537177   56.136517726 XXXX 1      ca+h    Ca  1.500
Ca317   48.941373316   64.877537177   63.011517726 XXXX 1      ca+h    Ca  1.500
Ca318   48.941373316   64.877537177   69.886517726 XXXX 1      ca+h    Ca  1.500
Ca319   48.941373316   64.877537177   76.761517726 XXXX 1      ca+h    Ca  1.500
Ca320   48.941373316   64.877537177   83.636517726 XXXX 1      ca+h    Ca  1.500
Ca321   57.096734544   41.335037177   35.511517726 XXXX 1      ca+h    Ca  1.500
Ca322   57.096734544   41.335037177   42.386517726 XXXX 1      ca+h    Ca  1.500
Ca323   57.096734544   41.335037177   49.261517726 XXXX 1      ca+h    Ca  1.500
Ca324   57.096734544   41.335037177   56.136517726 XXXX 1      ca+h    Ca  1.500
Ca325   57.096734544   41.335037177   63.011517726 XXXX 1      ca+h    Ca  1.500
Ca326   57.096734544   41.335037177   69.886517726 XXXX 1      ca+h    Ca  1.500
Ca327   57.096734544   41.335037177   76.761517726 XXXX 1      ca+h    Ca  1.500
Ca328   57.096734544   41.335037177   83.636517726 XXXX 1      ca+h    Ca  1.500
Ca329   57.096734544   50.752037177   35.511517726 XXXX 1      ca+h    Ca  1.500
Ca330   57.096734544   50.752037177   42.386517726 XXXX 1      ca+h    Ca  1.500
Ca331   57.096734544   50.752037177   49.261517726 XXXX 1      ca+h    Ca  1.500
Ca332   57.096734544   50.752037177   56.136517726 XXXX 1      ca+h    Ca  1.500
Ca333   57.096734544   50.752037177   63.011517726 XXXX 1      ca+h    Ca  1.500
Ca334   57.096734544   50.752037177   69.886517726 XXXX 1      ca+h    Ca  1.500
Ca335   57.096734544   50.752037177   76.761517726 XXXX 1      ca+h    Ca  1.500
Ca336   57.096734544   50.752037177   83.636517726 XXXX 1      ca+h    Ca  1.500
Ca337   57.096734544   60.169037177   35.511517726 XXXX 1      ca+h    Ca  1.500
Ca338   57.096734544   60.169037177   42.386517726 XXXX 1      ca+h    Ca  1.500
Ca339   57.096734544   60.169037177   49.261517726 XXXX 1      ca+h    Ca  1.500
Ca340   57.096734544   60.169037177   56.136517726 XXXX 1      ca+h    Ca  1.500
Ca341   57.096734544   60.169037177   63.011517726 XXXX 1      ca+h    Ca  1.500
Ca342   57.096734544   60.169037177   69.886517726 XXXX 1      ca+h    Ca  1.500
Ca343   57.096734544   60.169037177   76.761517726 XXXX 1      ca+h    Ca  1.500
Ca344   57.096734544   60.169037177   83.636517726 XXXX 1      ca+h    Ca  1.500
Ca345   65.252095771   46.043537177   35.511517726 XXXX 1      ca+h    Ca  1.500
Ca346   65.252095771   46.043537177   42.386517726 XXXX 1      ca+h    Ca  1.500
Ca347   65.252095771   46.043537177   49.261517726 XXXX 1      ca+h    Ca  1.500
Ca348   65.252095771   46.043537177   56.136517726 XXXX 1      ca+h    Ca  1.500
Ca349   65.252095771   46.043537177   63.011517726 XXXX 1      ca+h    Ca  1.500
Ca350   65.252095771   46.043537177   69.886517726 XXXX 1      ca+h    Ca  1.500
Ca351   65.252095771   46.043537177   76.761517726 XXXX 1      ca+h    Ca  1.500
Ca352   65.252095771   46.043537177   83.636517726 XXXX 1      ca+h    Ca  1.500
Ca353   65.252095771   55.460537177   35.511517726 XXXX 1      ca+h    Ca  1.500
Ca354   65.252095771   55.460537177   42.386517726 XXXX 1      ca+h    Ca  1.500
Ca355   65.252095771   55.460537177   49.261517726 XXXX 1      ca+h    Ca  1.500
Ca356   65.252095771   55.460537177   56.136517726 XXXX 1      ca+h    Ca  1.500
Ca357   65.252095771   55.460537177   63.011517726 XXXX 1      ca+h    Ca  1.500
Ca358   65.252095771   55.460537177   69.886517726 XXXX 1      ca+h    Ca  1.500
Ca359   65.252095771   55.460537177   76.761517726 XXXX 1      ca+h    Ca  1.500
Ca360   65.252095771   55.460537177   83.636517726 XXXX 1      ca+h    Ca  1.500
Ca361   43.558046555   38.922166352   47.552667726 XXXX 1      ca+h    Ca  1.500
Ca362   43.558046555   38.922166352   61.302667726 XXXX 1      ca+h    Ca  1.500
Ca363   43.558046555   38.922166352   68.177667726 XXXX 1      ca+h    Ca  1.500
Ca364   43.558046555   38.922166352   75.052667726 XXXX 1      ca+h    Ca  1.500
Ca365   43.558046555   38.922166352   81.927667726 XXXX 1      ca+h    Ca  1.500
Ca366   43.558046555   48.339166352   40.677667726 XXXX 1      ca+h    Ca  1.500
Ca367   43.558046555   48.339166352   47.552667726 XXXX 1      ca+h    Ca  1.500
Ca368   43.558046555   48.339166352   54.427667726 XXXX 1      ca+h    Ca  1.500
Ca369   43.558046555   48.339166352   61.302667726 XXXX 1      ca+h    Ca  1.500
Ca370   43.558046555   48.339166352   68.177667726 XXXX 1      ca+h    Ca  1.500
Ca371   43.558046555   48.339166352   75.052667726 XXXX 1      ca+h    Ca  1.500
Ca372   43.558046555   48.339166352   81.927667726 XXXX 1      ca+h    Ca  1.500
Ca373   43.558046555   57.756166352   33.802667726 XXXX 1      ca+h    Ca  1.500
Ca374   43.558046555   57.756166352   40.677667726 XXXX 1      ca+h    Ca  1.500
Ca375   43.558046555   57.756166352   47.552667726 XXXX 1      ca+h    Ca  1.500
Ca376   43.558046555   57.756166352   54.427667726 XXXX 1      ca+h    Ca  1.500
Ca377   43.558046555   57.756166352   61.302667726 XXXX 1      ca+h    Ca  1.500
Ca378   43.558046555   57.756166352   68.177667726 XXXX 1      ca+h    Ca  1.500
Ca379   43.558046555   57.756166352   75.052667726 XXXX 1      ca+h    Ca  1.500
Ca380   43.558046555   57.756166352   81.927667726 XXXX 1      ca+h    Ca  1.500
Ca381   51.713407782   34.213666352   40.677667726 XXXX 1      ca+h    Ca  1.500
Ca382   51.713407782   34.213666352   47.552667726 XXXX 1      ca+h    Ca  1.500
Ca383   51.713407782   34.213666352   61.302667726 XXXX 1      ca+h    Ca  1.500
Ca384   51.713407782   34.213666352   68.177667726 XXXX 1      ca+h    Ca  1.500
Ca385   51.713407782   43.630666352   33.802667726 XXXX 1      ca+h    Ca  1.500
Ca386   51.713407782   43.630666352   40.677667726 XXXX 1      ca+h    Ca  1.500
Ca387   51.713407782   43.630666352   47.552667726 XXXX 1      ca+h    Ca  1.500
Ca388   51.713407782   43.630666352   54.427667726 XXXX 1      ca+h    Ca  1.500
Ca389   51.713407782   43.630666352   61.302667726 XXXX 1      ca+h    Ca  1.500
Ca390   51.713407782   43.630666352   68.177667726 XXXX 1      ca+h    Ca  1.500
Ca391   51.713407782   43.630666352   75.052667726 XXXX 1      ca+h    Ca  1.500
Ca392   51.713407782   43.630666352   81.927667726 XXXX 1      ca+h    Ca  1.500
Ca393   51.713407782   53.047666352   40.677667726 XXXX 1      ca+h    Ca  1.500
Ca394   51.713407782   53.047666352   47.552667726 XXXX 1      ca+h    Ca  1.500
Ca395   51.713407782   53.047666352   54.427667726 XXXX 1      ca+h    Ca  1.500
Ca396   51.713407782   53.047666352   61.302667726 XXXX 1      ca+h    Ca  1.500
Ca397   51.713407782   53.047666352   68.177667726 XXXX 1      ca+h    Ca  1.500
Ca398   51.713407782   53.047666352   75.052667726 XXXX 1      ca+h    Ca  1.500
Ca399   51.713407782   53.047666352   81.927667726 XXXX 1      ca+h    Ca  1.500
Ca400   51.713407782   62.464666352   33.802667726 XXXX 1      ca+h    Ca  1.500
Ca401   51.713407782   62.464666352   40.677667726 XXXX 1      ca+h    Ca  1.500
Ca402   51.713407782   62.464666352   47.552667726 XXXX 1      ca+h    Ca  1.500
Ca403   51.713407782   62.464666352   54.427667726 XXXX 1      ca+h    Ca  1.500
Ca404   51.713407782   62.464666352   61.302667726 XXXX 1      ca+h    Ca  1.500
Ca405   51.713407782   62.464666352   68.177667726 XXXX 1      ca+h    Ca  1.500
Ca406   51.713407782   62.464666352   75.052667726 XXXX 1      ca+h    Ca  1.500
Ca407   51.713407782   62.464666352   81.927667726 XXXX 1      ca+h    Ca  1.500
Ca408   59.868769009   38.922166352   33.802667726 XXXX 1      ca+h    Ca  1.500
Ca409   59.868769009   38.922166352   40.677667726 XXXX 1      ca+h    Ca  1.500
Ca410   59.868769009   38.922166352   47.552667726 XXXX 1      ca+h    Ca  1.500
Ca411   59.868769009   38.922166352   54.427667726 XXXX 1      ca+h    Ca  1.500
Ca412   59.868769009   38.922166352   61.302667726 XXXX 1      ca+h    Ca  1.500
Ca413   59.868769009   38.922166352   81.927667726 XXXX 1      ca+h    Ca  1.500
Ca414   59.868769009   48.339166352   40.677667726 XXXX 1      ca+h    Ca  1.500
Ca415   59.868769009   48.339166352   47.552667726 XXXX 1      ca+h    Ca  1.500
Ca416   59.868769009   48.339166352   54.427667726 XXXX 1      ca+h    Ca  1.500
Ca417   59.868769009   48.339166352   61.302667726 XXXX 1      ca+h    Ca  1.500
Ca418   59.868769009   48.339166352   68.177667726 XXXX 1      ca+h    Ca  1.500
Ca419   59.868769009   48.339166352   75.052667726 XXXX 1      ca+h    Ca  1.500
Ca420   59.868769009   48.339166352   81.927667726 XXXX 1      ca+h    Ca  1.500
Ca421   59.868769009   57.756166352   40.677667726 XXXX 1      ca+h    Ca  1.500
Ca422   59.868769009   57.756166352   47.552667726 XXXX 1      ca+h    Ca  1.500
Ca423   59.868769009   57.756166352   54.427667726 XXXX 1      ca+h    Ca  1.500
Ca424   59.868769009   57.756166352   61.302667726 XXXX 1      ca+h    Ca  1.500
Ca425   59.868769009   57.756166352   68.177667726 XXXX 1      ca+h    Ca  1.500
Ca426   59.868769009   57.756166352   75.052667726 XXXX 1      ca+h    Ca  1.500
Ca427   59.868769009   57.756166352   81.927667726 XXXX 1      ca+h    Ca  1.500
P1      38.355170841   43.353665285   33.802667726 XXXX 1      pap     P   1.000
P2      38.355170841   43.353665285   40.677667726 XXXX 1      pap     P   1.000
P3      38.355170841   43.353665285   47.552667726 XXXX 1      pap     P   1.000
P4      38.355170841   43.353665285   54.427667726 XXXX 1      pap     P   1.000
P5      38.355170841   43.353665285   61.302667726 XXXX 1      pap     P   1.000
P6      38.355170841   43.353665285   68.177667726 XXXX 1      pap     P   1.000
P7      38.355170841   43.353665285   75.052667726 XXXX 1      pap     P   1.000
P8      38.355170841   43.353665285   81.927667726 XXXX 1      pap     P   1.000
P9      38.355170841   52.770665285   33.802667726 XXXX 1      pap     P   1.000
P10     38.355170841   52.770665285   40.677667726 XXXX 1      pap     P   1.000
P11     38.355170841   52.770665285   47.552667726 XXXX 1      pap     P   1.000
P12     38.355170841   52.770665285   54.427667726 XXXX 1      pap     P   1.000
P13     38.355170841   52.770665285   61.302667726 XXXX 1      pap     P   1.000
P14     38.355170841   52.770665285   68.177667726 XXXX 1      pap     P   1.000
P15     38.355170841   52.770665285   75.052667726 XXXX 1      pap     P   1.000
P16     38.355170841   52.770665285   81.927667726 XXXX 1      pap     P   1.000
P17     46.510532068   38.645165285   33.802667726 XXXX 1      pap     P   1.000
P18     46.510532068   38.645165285   40.677667726 XXXX 1      pap     P   1.000
P19     46.510532068   38.645165285   47.552667726 XXXX 1      pap     P   1.000
P20     46.510532068   38.645165285   54.427667726 XXXX 1      pap     P   1.000
P21     46.510532068   38.645165285   61.302667726 XXXX 1      pap     P   1.000
P22     46.510532068   38.645165285   68.177667726 XXXX 1      pap     P   1.000
P23     46.510532068   38.645165285   75.052667726 XXXX 1      pap     P   1.000
P24     46.510532068   38.645165285   81.927667726 XXXX 1      pap     P   1.000
P25     46.510532068   48.062165285   33.802667726 XXXX 1      pap     P   1.000
P26     46.510532068   48.062165285   40.677667726 XXXX 1      pap     P   1.000
P27     46.510532068   48.062165285   47.552667726 XXXX 1      pap     P   1.000
P28     46.510532068   48.062165285   54.427667726 XXXX 1      pap     P   1.000
P29     46.510532068   48.062165285   61.302667726 XXXX 1      pap     P   1.000
P30     46.510532068   48.062165285   68.177667726 XXXX 1      pap     P   1.000
P31     46.510532068   48.062165285   75.052667726 XXXX 1      pap     P   1.000
P32     46.510532068   48.062165285   81.927667726 XXXX 1      pap     P   1.000
P33     46.510532068   57.479165285   33.802667726 XXXX 1      pap     P   1.000
P34     46.510532068   57.479165285   40.677667726 XXXX 1      pap     P   1.000
P35     46.510532068   57.479165285   47.552667726 XXXX 1      pap     P   1.000
P36     46.510532068   57.479165285   54.427667726 XXXX 1      pap     P   1.000
P37     46.510532068   57.479165285   61.302667726 XXXX 1      pap     P   1.000
P38     46.510532068   57.479165285   68.177667726 XXXX 1      pap     P   1.000
P39     46.510532068   57.479165285   75.052667726 XXXX 1      pap     P   1.000
P40     46.510532068   57.479165285   81.927667726 XXXX 1      pap     P   1.000
P41     54.665893296   33.936665285   33.802667726 XXXX 1      pap     P   1.000
P42     54.665893296   33.936665285   40.677667726 XXXX 1      pap     P   1.000
P43     54.665893296   33.936665285   47.552667726 XXXX 1      pap     P   1.000
P44     54.665893296   33.936665285   54.427667726 XXXX 1      pap     P   1.000
P45     54.665893296   33.936665285   61.302667726 XXXX 1      pap     P   1.000
P46     54.665893296   33.936665285   68.177667726 XXXX 1      pap     P   1.000
P47     54.665893296   33.936665285   75.052667726 XXXX 1      pap     P   1.000
P48     54.665893296   33.936665285   81.927667726 XXXX 1      pap     P   1.000
P49     54.665893296   43.353665285   33.802667726 XXXX 1      pap     P   1.000
P50     54.665893296   43.353665285   40.677667726 XXXX 1      pap     P   1.000
P51     54.665893296   43.353665285   47.552667726 XXXX 1      pap     P   1.000
P52     54.665893296   43.353665285   54.427667726 XXXX 1      pap     P   1.000
P53     54.665893296   43.353665285   61.302667726 XXXX 1      pap     P   1.000
P54     54.665893296   43.353665285   68.177667726 XXXX 1      pap     P   1.000
P55     54.665893296   43.353665285   75.052667726 XXXX 1      pap     P   1.000
P56     54.665893296   43.353665285   81.927667726 XXXX 1      pap     P   1.000
P57     54.665893296   52.770665285   33.802667726 XXXX 1      pap     P   1.000
P58     54.665893296   52.770665285   40.677667726 XXXX 1      pap     P   1.000
P59     54.665893296   52.770665285   47.552667726 XXXX 1      pap     P   1.000
P60     54.665893296   52.770665285   54.427667726 XXXX 1      pap     P   1.000
P61     54.665893296   52.770665285   61.302667726 XXXX 1      pap     P   1.000
P62     54.665893296   52.770665285   68.177667726 XXXX 1      pap     P   1.000
P63     54.665893296   52.770665285   75.052667726 XXXX 1      pap     P   1.000
P64     54.665893296   52.770665285   81.927667726 XXXX 1      pap     P   1.000
P65     54.665893296   62.187665285   33.802667726 XXXX 1      pap     P   1.000
P66     54.665893296   62.187665285   40.677667726 XXXX 1      pap     P   1.000
P67     54.665893296   62.187665285   47.552667726 XXXX 1      pap     P   1.000
P68     54.665893296   62.187665285   54.427667726 XXXX 1      pap     P   1.000
P69     54.665893296   62.187665285   61.302667726 XXXX 1      pap     P   1.000
P70     54.665893296   62.187665285   68.177667726 XXXX 1      pap     P   1.000
P71     54.665893296   62.187665285   75.052667726 XXXX 1      pap     P   1.000
P72     54.665893296   62.187665285   81.927667726 XXXX 1      pap     P   1.000
P73     62.821254523   38.645165285   33.802667726 XXXX 1      pap     P   1.000
P74     62.821254523   38.645165285   40.677667726 XXXX 1      pap     P   1.000
P75     62.821254523   38.645165285   47.552667726 XXXX 1      pap     P   1.000
P76     62.821254523   38.645165285   54.427667726 XXXX 1      pap     P   1.000
P77     62.821254523   38.645165285   61.302667726 XXXX 1      pap     P   1.000
P78     62.821254523   38.645165285   68.177667726 XXXX 1      pap     P   1.000
P79     62.821254523   38.645165285   75.052667726 XXXX 1      pap     P   1.000
P80     62.821254523   38.645165285   81.927667726 XXXX 1      pap     P   1.000
P81     62.821254523   48.062165285   33.802667726 XXXX 1      pap     P   1.000
P82     62.821254523   48.062165285   40.677667726 XXXX 1      pap     P   1.000
P83     62.821254523   48.062165285   47.552667726 XXXX 1      pap     P   1.000
P84     62.821254523   48.062165285   54.427667726 XXXX 1      pap     P   1.000
P85     62.821254523   48.062165285   61.302667726 XXXX 1      pap     P   1.000
P86     62.821254523   48.062165285   68.177667726 XXXX 1      pap     P   1.000
P87     62.821254523   48.062165285   75.052667726 XXXX 1      pap     P   1.000
P88     62.821254523   48.062165285   81.927667726 XXXX 1      pap     P   1.000
P89     62.821254523   57.479165285   33.802667726 XXXX 1      pap     P   1.000
P90     62.821254523   57.479165285   40.677667726 XXXX 1      pap     P   1.000
P91     62.821254523   57.479165285   47.552667726 XXXX 1      pap     P   1.000
P92     62.821254523   57.479165285   54.427667726 XXXX 1      pap     P   1.000
P93     62.821254523   57.479165285   61.302667726 XXXX 1      pap     P   1.000
P94     62.821254523   57.479165285   68.177667726 XXXX 1      pap     P   1.000
P95     62.821254523   57.479165285   75.052667726 XXXX 1      pap     P   1.000
P96     62.821254523   57.479165285   81.927667726 XXXX 1      pap     P   1.000
O1153   39.140531932   44.674776561   33.802667726 XXXX 1      oap1    O  -0.600
O1154   39.140531932   44.674776561   40.677667726 XXXX 1      oap1    O  -0.800
O1155   39.140531932   44.674776561   47.552667726 XXXX 1      oap1    O  -0.800
O1156   39.140531932   44.674776561   54.427667726 XXXX 1      oap1    O  -0.800
O1157   39.140531932   44.674776561   61.302667726 XXXX 1      oap1    O  -0.800
O1158   39.140531932   44.674776561   68.177667726 XXXX 1      oap1    O  -0.800
O1159   39.140531932   44.674776561   75.052667726 XXXX 1      oap1    O  -0.800
O1160   39.140531932   44.674776561   81.927667726 XXXX 1      oap1    O  -0.800
O1161   39.140531932   54.091776561   33.802667726 XXXX 1      oap1    O  -0.600
O1162   39.140531932   54.091776561   40.677667726 XXXX 1      oap1    O  -0.800
O1163   39.140531932   54.091776561   47.552667726 XXXX 1      oap1    O  -0.800
O1164   39.140531932   54.091776561   54.427667726 XXXX 1      oap1    O  -0.800
O1165   39.140531932   54.091776561   61.302667726 XXXX 1      oap1    O  -0.800
O1166   39.140531932   54.091776561   68.177667726 XXXX 1      oap1    O  -0.800
O1167   39.140531932   54.091776561   75.052667726 XXXX 1      oap1    O  -0.800
O1168   39.140531932   54.091776561   81.927667726 XXXX 1      oap1    O  -0.800
O1169   47.295893160   39.966276561   33.802667726 XXXX 1      oap1    O  -0.695
O1170   47.295893160   39.966276561   40.677667726 XXXX 1      oap1    O  -0.800
O1171   47.295893160   39.966276561   47.552667726 XXXX 1      oap1    O  -0.800
O1172   47.295893160   39.966276561   54.427667726 XXXX 1      oap1    O  -0.800
O1173   47.295893160   39.966276561   61.302667726 XXXX 1      oap1    O  -0.800
O1174   47.295893160   39.966276561   68.177667726 XXXX 1      oap1    O  -0.800
O1175   47.295893160   39.966276561   75.052667726 XXXX 1      oap1    O  -0.800
O1176   47.295893160   39.966276561   81.927667726 XXXX 1      oap1    O  -0.800
O1177   47.295893160   49.383276561   33.802667726 XXXX 1      oap1    O  -0.695
O1178   47.295893160   49.383276561   40.677667726 XXXX 1      oap1    O  -0.800
O1179   47.295893160   49.383276561   47.552667726 XXXX 1      oap1    O  -0.800
O1180   47.295893160   49.383276561   54.427667726 XXXX 1      oap1    O  -0.800
O1181   47.295893160   49.383276561   61.302667726 XXXX 1      oap1    O  -0.800
O1182   47.295893160   49.383276561   68.177667726 XXXX 1      oap1    O  -0.800
O1183   47.295893160   49.383276561   75.052667726 XXXX 1      oap1    O  -0.800
O1184   47.295893160   49.383276561   81.927667726 XXXX 1      oap1    O  -0.800
O1185   47.295893160   58.800276561   33.802667726 XXXX 1      oap1    O  -0.600
O1186   47.295893160   58.800276561   40.677667726 XXXX 1      oap1    O  -0.800
O1187   47.295893160   58.800276561   47.552667726 XXXX 1      oap1    O  -0.800
O1188   47.295893160   58.800276561   54.427667726 XXXX 1      oap1    O  -0.800
O1189   47.295893160   58.800276561   61.302667726 XXXX 1      oap1    O  -0.800
O1190   47.295893160   58.800276561   68.177667726 XXXX 1      oap1    O  -0.800
O1191   47.295893160   58.800276561   75.052667726 XXXX 1      oap1    O  -0.800
O1192   47.295893160   58.800276561   81.927667726 XXXX 1      oap1    O  -0.800
O1193   55.451254387   35.257776561   33.802667726 XXXX 1      oap1    O  -0.600
O1194   55.451254387   35.257776561   40.677667726 XXXX 1      oap1    O  -0.600
O1195   55.451254387   35.257776561   47.552667726 XXXX 1      oap1    O  -0.600
O1196   55.451254387   35.257776561   54.427667726 XXXX 1      oap1    O  -0.600
O1197   55.451254387   35.257776561   61.302667726 XXXX 1      oap1    O  -0.695
O1198   55.451254387   35.257776561   68.177667726 XXXX 1      oap1    O  -0.695
O1199   55.451254387   35.257776561   75.052667726 XXXX 1      oap1    O  -0.695
O1200   55.451254387   35.257776561   81.927667726 XXXX 1      oap1    O  -0.695
O1201   55.451254387   44.674776561   33.802667726 XXXX 1      oap1    O  -0.600
O1202   55.451254387   44.674776561   40.677667726 XXXX 1      oap1    O  -0.800
O1203   55.451254387   44.674776561   47.552667726 XXXX 1      oap1    O  -0.800
O1204   55.451254387   44.674776561   54.427667726 XXXX 1      oap1    O  -0.800
O1205   55.451254387   44.674776561   61.302667726 XXXX 1      oap1    O  -0.800
O1206   55.451254387   44.674776561   68.177667726 XXXX 1      oap1    O  -0.800
O1207   55.451254387   44.674776561   75.052667726 XXXX 1      oap1    O  -0.800
O1208   55.451254387   44.674776561   81.927667726 XXXX 1      oap1    O  -0.800
O1209   55.451254387   54.091776561   33.802667726 XXXX 1      oap1    O  -0.600
O1210   55.451254387   54.091776561   40.677667726 XXXX 1      oap1    O  -0.800
O1211   55.451254387   54.091776561   47.552667726 XXXX 1      oap1    O  -0.800
O1212   55.451254387   54.091776561   54.427667726 XXXX 1      oap1    O  -0.800
O1213   55.451254387   54.091776561   61.302667726 XXXX 1      oap1    O  -0.800
O1214   55.451254387   54.091776561   68.177667726 XXXX 1      oap1    O  -0.800
O1215   55.451254387   54.091776561   75.052667726 XXXX 1      oap1    O  -0.800
O1216   55.451254387   54.091776561   81.927667726 XXXX 1      oap1    O  -0.800
O1217   55.451254387   63.508776561   33.802667726 XXXX 1      oap1    O  -0.600
O1218   55.451254387   63.508776561   40.677667726 XXXX 1      oap1    O  -0.800
O1219   55.451254387   63.508776561   47.552667726 XXXX 1      oap1    O  -0.800
O1220   55.451254387   63.508776561   54.427667726 XXXX 1      oap1    O  -0.800
O1221   55.451254387   63.508776561   61.302667726 XXXX 1      oap1    O  -0.800
O1222   55.451254387   63.508776561   68.177667726 XXXX 1      oap1    O  -0.800
O1223   55.451254387   63.508776561   75.052667726 XXXX 1      oap1    O  -0.800
O1224   55.451254387   63.508776561   81.927667726 XXXX 1      oap1    O  -0.800
O1225   63.606615615   39.966276561   33.802667726 XXXX 1      oap1    O  -0.600
O1226   63.606615615   39.966276561   40.677667726 XXXX 1      oap1    O  -0.600
O1227   63.606615615   39.966276561   47.552667726 XXXX 1      oap1    O  -0.600
O1228   63.606615615   39.966276561   54.427667726 XXXX 1      oap1    O  -0.695
O1229   63.606615615   39.966276561   61.302667726 XXXX 1      oap1    O  -0.695
O1230   63.606615615   39.966276561   68.177667726 XXXX 1      oap1    O  -0.695
O1231   63.606615615   39.966276561   75.052667726 XXXX 1      oap1    O  -0.600
O1232   63.606615615   39.966276561   81.927667726 XXXX 1      oap1    O  -0.695
O1233   63.606615615   49.383276561   33.802667726 XXXX 1      oap1    O  -0.695
O1234   63.606615615   49.383276561   40.677667726 XXXX 1      oap1    O  -0.800
O1235   63.606615615   49.383276561   47.552667726 XXXX 1      oap1    O  -0.800
O1236   63.606615615   49.383276561   54.427667726 XXXX 1      oap1    O  -0.800
O1237   63.606615615   49.383276561   61.302667726 XXXX 1      oap1    O  -0.800
O1238   63.606615615   49.383276561   68.177667726 XXXX 1      oap1    O  -0.800
O1239   63.606615615   49.383276561   75.052667726 XXXX 1      oap1    O  -0.800
O1240   63.606615615   49.383276561   81.927667726 XXXX 1      oap1    O  -0.800
O1241   63.606615615   58.800276561   33.802667726 XXXX 1      oap1    O  -0.600
O1242   63.606615615   58.800276561   40.677667726 XXXX 1      oap1    O  -0.800
O1243   63.606615615   58.800276561   47.552667726 XXXX 1      oap1    O  -0.800
O1244   63.606615615   58.800276561   54.427667726 XXXX 1      oap1    O  -0.800
O1245   63.606615615   58.800276561   61.302667726 XXXX 1      oap1    O  -0.800
O1246   63.606615615   58.800276561   68.177667726 XXXX 1      oap1    O  -0.800
O1247   63.606615615   58.800276561   75.052667726 XXXX 1      oap1    O  -0.800
O1248   63.606615615   58.800276561   81.927667726 XXXX 1      oap1    O  -0.800
O1249   39.304454916   42.148665998   33.802667726 XXXX 1      oap1    O  -0.695
O1250   39.304454916   42.148665998   40.677667726 XXXX 1      oap1    O  -0.800
O1251   39.304454916   42.148665998   47.552667726 XXXX 1      oap1    O  -0.800
O1252   39.304454916   42.148665998   54.427667726 XXXX 1      oap1    O  -0.800
O1253   39.304454916   42.148665998   61.302667726 XXXX 1      oap1    O  -0.800
O1254   39.304454916   42.148665998   68.177667726 XXXX 1      oap1    O  -0.800
O1255   39.304454916   42.148665998   75.052667726 XXXX 1      oap1    O  -0.800
O1256   39.304454916   42.148665998   81.927667726 XXXX 1      oap1    O  -0.800
O1257   39.304454916   51.565665998   33.802667726 XXXX 1      oap1    O  -0.695
O1258   39.304454916   51.565665998   40.677667726 XXXX 1      oap1    O  -0.800
O1259   39.304454916   51.565665998   47.552667726 XXXX 1      oap1    O  -0.800
O1260   39.304454916   51.565665998   54.427667726 XXXX 1      oap1    O  -0.800
O1261   39.304454916   51.565665998   61.302667726 XXXX 1      oap1    O  -0.800
O1262   39.304454916   51.565665998   68.177667726 XXXX 1      oap1    O  -0.800
O1263   39.304454916   51.565665998   75.052667726 XXXX 1      oap1    O  -0.800
O1264   39.304454916   51.565665998   81.927667726 XXXX 1      oap1    O  -0.800
O1265   47.459816143   37.440165998   33.802667726 XXXX 1      oap1    O  -0.600
O1266   47.459816143   37.440165998   40.677667726 XXXX 1      oap1    O  -0.800
O1267   47.459816143   37.440165998   47.552667726 XXXX 1      oap1    O  -0.800
O1268   47.459816143   37.440165998   54.427667726 XXXX 1      oap1    O  -0.800
O1269   47.459816143   37.440165998   61.302667726 XXXX 1      oap1    O  -0.800
O1270   47.459816143   37.440165998   68.177667726 XXXX 1      oap1    O  -0.800
O1271   47.459816143   37.440165998   75.052667726 XXXX 1      oap1    O  -0.800
O1272   47.459816143   37.440165998   81.927667726 XXXX 1      oap1    O  -0.800
O1273   47.459816143   46.857165998   33.802667726 XXXX 1      oap1    O  -0.600
O1274   47.459816143   46.857165998   40.677667726 XXXX 1      oap1    O  -0.800
O1275   47.459816143   46.857165998   47.552667726 XXXX 1      oap1    O  -0.800
O1276   47.459816143   46.857165998   54.427667726 XXXX 1      oap1    O  -0.800
O1277   47.459816143   46.857165998   61.302667726 XXXX 1      oap1    O  -0.800
O1278   47.459816143   46.857165998   68.177667726 XXXX 1      oap1    O  -0.800
O1279   47.459816143   46.857165998   75.052667726 XXXX 1      oap1    O  -0.800
O1280   47.459816143   46.857165998   81.927667726 XXXX 1      oap1    O  -0.800
O1281   47.459816143   56.274165998   33.802667726 XXXX 1      oap1    O  -0.695
O1282   47.459816143   56.274165998   40.677667726 XXXX 1      oap1    O  -0.800
O1283   47.459816143   56.274165998   47.552667726 XXXX 1      oap1    O  -0.800
O1284   47.459816143   56.274165998   54.427667726 XXXX 1      oap1    O  -0.800
O1285   47.459816143   56.274165998   61.302667726 XXXX 1      oap1    O  -0.800
O1286   47.459816143   56.274165998   68.177667726 XXXX 1      oap1    O  -0.800
O1287   47.459816143   56.274165998   75.052667726 XXXX 1      oap1    O  -0.800
O1288   47.459816143   56.274165998   81.927667726 XXXX 1      oap1    O  -0.800
O1289   55.615177371   32.731665998   33.802667726 XXXX 1      oap1    O  -0.600
O1290   55.615177371   32.731665998   40.677667726 XXXX 1      oap1    O  -0.600
O1291   55.615177371   32.731665998   47.552667726 XXXX 1      oap1    O  -0.600
O1292   55.615177371   32.731665998   54.427667726 XXXX 1      oap1    O  -0.600
O1293   55.615177371   32.731665998   61.302667726 XXXX 1      oap1    O  -0.600
O1294   55.615177371   32.731665998   68.177667726 XXXX 1      oap1    O  -0.600
O1295   55.615177371   32.731665998   75.052667726 XXXX 1      oap1    O  -0.600
O1296   55.615177371   32.731665998   81.927667726 XXXX 1      oap1    O  -0.600
O1297   55.615177371   42.148665998   33.802667726 XXXX 1      oap1    O  -0.695
O1298   55.615177371   42.148665998   40.677667726 XXXX 1      oap1    O  -0.800
O1299   55.615177371   42.148665998   47.552667726 XXXX 1      oap1    O  -0.800
O1300   55.615177371   42.148665998   54.427667726 XXXX 1      oap1    O  -0.800
O1301   55.615177371   42.148665998   61.302667726 XXXX 1      oap1    O  -0.800
O1302   55.615177371   42.148665998   68.177667726 XXXX 1      oap1    O  -0.800
O1303   55.615177371   42.148665998   75.052667726 XXXX 1      oap1    O  -0.800
O1304   55.615177371   42.148665998   81.927667726 XXXX 1      oap1    O  -0.800
O1305   55.615177371   51.565665998   33.802667726 XXXX 1      oap1    O  -0.695
O1306   55.615177371   51.565665998   40.677667726 XXXX 1      oap1    O  -0.800
O1307   55.615177371   51.565665998   47.552667726 XXXX 1      oap1    O  -0.800
O1308   55.615177371   51.565665998   54.427667726 XXXX 1      oap1    O  -0.800
O1309   55.615177371   51.565665998   61.302667726 XXXX 1      oap1    O  -0.800
O1310   55.615177371   51.565665998   68.177667726 XXXX 1      oap1    O  -0.800
O1311   55.615177371   51.565665998   75.052667726 XXXX 1      oap1    O  -0.800
O1312   55.615177371   51.565665998   81.927667726 XXXX 1      oap1    O  -0.800
O1313   55.615177371   60.982665998   33.802667726 XXXX 1      oap1    O  -0.695
O1314   55.615177371   60.982665998   40.677667726 XXXX 1      oap1    O  -0.800
O1315   55.615177371   60.982665998   47.552667726 XXXX 1      oap1    O  -0.800
O1316   55.615177371   60.982665998   54.427667726 XXXX 1      oap1    O  -0.800
O1317   55.615177371   60.982665998   61.302667726 XXXX 1      oap1    O  -0.800
O1318   55.615177371   60.982665998   68.177667726 XXXX 1      oap1    O  -0.800
O1319   55.615177371   60.982665998   75.052667726 XXXX 1      oap1    O  -0.800
O1320   55.615177371   60.982665998   81.927667726 XXXX 1      oap1    O  -0.800
O1321   63.770538598   37.440165998   33.802667726 XXXX 1      oap1    O  -0.600
O1322   63.770538598   37.440165998   40.677667726 XXXX 1      oap1    O  -0.600
O1323   63.770538598   37.440165998   47.552667726 XXXX 1      oap1    O  -0.600
O1324   63.770538598   37.440165998   54.427667726 XXXX 1      oap1    O  -0.600
O1325   63.770538598   37.440165998   61.302667726 XXXX 1      oap1    O  -0.600
O1326   63.770538598   37.440165998   68.177667726 XXXX 1      oap1    O  -0.600
O1327   63.770538598   37.440165998   75.052667726 XXXX 1      oap1    O  -0.600
O1328   63.770538598   37.440165998   81.927667726 XXXX 1      oap1    O  -0.600
O1329   63.770538598   46.857165998   33.802667726 XXXX 1      oap1    O  -0.600
O1330   63.770538598   46.857165998   40.677667726 XXXX 1      oap1    O  -0.800
O1331   63.770538598   46.857165998   47.552667726 XXXX 1      oap1    O  -0.800
O1332   63.770538598   46.857165998   54.427667726 XXXX 1      oap1    O  -0.800
O1333   63.770538598   46.857165998   61.302667726 XXXX 1      oap1    O  -0.800
O1334   63.770538598   46.857165998   68.177667726 XXXX 1      oap1    O  -0.800
O1335   63.770538598   46.857165998   75.052667726 XXXX 1      oap1    O  -0.800
O1336   63.770538598   46.857165998   81.927667726 XXXX 1      oap1    O  -0.800
O1337   63.770538598   56.274165998   33.802667726 XXXX 1      oap1    O  -0.695
O1338   63.770538598   56.274165998   40.677667726 XXXX 1      oap1    O  -0.800
O1339   63.770538598   56.274165998   47.552667726 XXXX 1      oap1    O  -0.800
O1340   63.770538598   56.274165998   54.427667726 XXXX 1      oap1    O  -0.800
O1341   63.770538598   56.274165998   61.302667726 XXXX 1      oap1    O  -0.800
O1342   63.770538598   56.274165998   68.177667726 XXXX 1      oap1    O  -0.800
O1343   63.770538598   56.274165998   75.052667726 XXXX 1      oap1    O  -0.800
O1344   63.770538598   56.274165998   81.927667726 XXXX 1      oap1    O  -0.800
Ca428   41.489602286   44.942124857   40.677667726 XXXX 1      ca+h    Ca  1.500
Ca429   41.489602286   44.942124857   47.552667726 XXXX 1      ca+h    Ca  1.500
Ca430   41.489602286   44.942124857   54.427667726 XXXX 1      ca+h    Ca  1.500
Ca431   41.489602286   44.942124857   61.302667726 XXXX 1      ca+h    Ca  1.500
Ca432   41.489602286   44.942124857   68.177667726 XXXX 1      ca+h    Ca  1.500
Ca433   41.489602286   44.942124857   75.052667726 XXXX 1      ca+h    Ca  1.500
Ca434   41.489602286   44.942124857   81.927667726 XXXX 1      ca+h    Ca  1.500
Ca435   41.489602286   54.359124857   40.677667726 XXXX 1      ca+h    Ca  1.500
Ca436   41.489602286   54.359124857   47.552667726 XXXX 1      ca+h    Ca  1.500
Ca437   41.489602286   54.359124857   54.427667726 XXXX 1      ca+h    Ca  1.500
Ca438   41.489602286   54.359124857   61.302667726 XXXX 1      ca+h    Ca  1.500
Ca439   41.489602286   54.359124857   68.177667726 XXXX 1      ca+h    Ca  1.500
Ca440   41.489602286   54.359124857   75.052667726 XXXX 1      ca+h    Ca  1.500
Ca441   41.489602286   54.359124857   81.927667726 XXXX 1      ca+h    Ca  1.500
Ca442   49.644963514   40.233624857   40.677667726 XXXX 1      ca+h    Ca  1.500
Ca443   49.644963514   40.233624857   47.552667726 XXXX 1      ca+h    Ca  1.500
Ca444   49.644963514   40.233624857   54.427667726 XXXX 1      ca+h    Ca  1.500
Ca445   49.644963514   40.233624857   61.302667726 XXXX 1      ca+h    Ca  1.500
Ca446   49.644963514   40.233624857   68.177667726 XXXX 1      ca+h    Ca  1.500
Ca447   49.644963514   40.233624857   75.052667726 XXXX 1      ca+h    Ca  1.500
Ca448   49.644963514   40.233624857   81.927667726 XXXX 1      ca+h    Ca  1.500
Ca449   49.644963514   49.650624857   40.677667726 XXXX 1      ca+h    Ca  1.500
Ca450   49.644963514   49.650624857   47.552667726 XXXX 1      ca+h    Ca  1.500
Ca451   49.644963514   49.650624857   54.427667726 XXXX 1      ca+h    Ca  1.500
Ca452   49.644963514   49.650624857   61.302667726 XXXX 1      ca+h    Ca  1.500
Ca453   49.644963514   49.650624857   68.177667726 XXXX 1      ca+h    Ca  1.500
Ca454   49.644963514   49.650624857   75.052667726 XXXX 1      ca+h    Ca  1.500
Ca455   49.644963514   49.650624857   81.927667726 XXXX 1      ca+h    Ca  1.500
Ca456   49.644963514   59.067624857   33.802667726 XXXX 1      ca+h    Ca  1.500
Ca457   49.644963514   59.067624857   40.677667726 XXXX 1      ca+h    Ca  1.500
Ca458   49.644963514   59.067624857   47.552667726 XXXX 1      ca+h    Ca  1.500
Ca459   49.644963514   59.067624857   54.427667726 XXXX 1      ca+h    Ca  1.500
Ca460   49.644963514   59.067624857   61.302667726 XXXX 1      ca+h    Ca  1.500
Ca461   49.644963514   59.067624857   68.177667726 XXXX 1      ca+h    Ca  1.500
Ca462   49.644963514   59.067624857   75.052667726 XXXX 1      ca+h    Ca  1.500
Ca463   49.644963514   59.067624857   81.927667726 XXXX 1      ca+h    Ca  1.500
Ca464   57.800324741   44.942124857   33.802667726 XXXX 1      ca+h    Ca  1.500
Ca465   57.800324741   44.942124857   40.677667726 XXXX 1      ca+h    Ca  1.500
Ca466   57.800324741   44.942124857   47.552667726 XXXX 1      ca+h    Ca  1.500
Ca467   57.800324741   44.942124857   54.427667726 XXXX 1      ca+h    Ca  1.500
Ca468   57.800324741   44.942124857   61.302667726 XXXX 1      ca+h    Ca  1.500
Ca469   57.800324741   44.942124857   68.177667726 XXXX 1      ca+h    Ca  1.500
Ca470   57.800324741   44.942124857   75.052667726 XXXX 1      ca+h    Ca  1.500
Ca471   57.800324741   44.942124857   81.927667726 XXXX 1      ca+h    Ca  1.500
Ca472   57.800324741   54.359124857   40.677667726 XXXX 1      ca+h    Ca  1.500
Ca473   57.800324741   54.359124857   47.552667726 XXXX 1      ca+h    Ca  1.500
Ca474   57.800324741   54.359124857   54.427667726 XXXX 1      ca+h    Ca  1.500
Ca475   57.800324741   54.359124857   61.302667726 XXXX 1      ca+h    Ca  1.500
Ca476   57.800324741   54.359124857   68.177667726 XXXX 1      ca+h    Ca  1.500
Ca477   57.800324741   54.359124857   75.052667726 XXXX 1      ca+h    Ca  1.500
Ca478   57.800324741   54.359124857   81.927667726 XXXX 1      ca+h    Ca  1.500
Ca479   57.800324741   63.776124857   47.552667726 XXXX 1      ca+h    Ca  1.500
Ca480   57.800324741   63.776124857   54.427667726 XXXX 1      ca+h    Ca  1.500
Ca481   57.800324741   63.776124857   61.302667726 XXXX 1      ca+h    Ca  1.500
Ca482   57.800324741   63.776124857   68.177667726 XXXX 1      ca+h    Ca  1.500
Ca483   57.800324741   63.776124857   75.052667726 XXXX 1      ca+h    Ca  1.500
Ca484   65.955685969   49.650624857   40.677667726 XXXX 1      ca+h    Ca  1.500
Ca485   65.955685969   49.650624857   54.427667726 XXXX 1      ca+h    Ca  1.500
Ca486   65.955685969   49.650624857   61.302667726 XXXX 1      ca+h    Ca  1.500
Ca487   65.955685969   49.650624857   68.177667726 XXXX 1      ca+h    Ca  1.500
Ca488   65.955685969   49.650624857   81.927667726 XXXX 1      ca+h    Ca  1.500
Ca489   65.955685969   59.067624857   47.552667726 XXXX 1      ca+h    Ca  1.500
Ca490   65.955685969   59.067624857   61.302667726 XXXX 1      ca+h    Ca  1.500
Ca491   65.955685969   59.067624857   68.177667726 XXXX 1      ca+h    Ca  1.500
Ca492   65.955685969   59.067624857   75.052667726 XXXX 1      ca+h    Ca  1.500
Ca493   65.955685969   59.067624857   81.927667726 XXXX 1      ca+h    Ca  1.500
P97     40.253249491   47.637552850   33.802667726 XXXX 1      pap     P   1.000
P98     40.253249491   47.637552850   40.677667726 XXXX 1      pap     P   1.000
P99     40.253249491   47.637552850   47.552667726 XXXX 1      pap     P   1.000
P100    40.253249491   47.637552850   54.427667726 XXXX 1      pap     P   1.000
P101    40.253249491   47.637552850   61.302667726 XXXX 1      pap     P   1.000
P102    40.253249491   47.637552850   68.177667726 XXXX 1      pap     P   1.000
P103    40.253249491   47.637552850   75.052667726 XXXX 1      pap     P   1.000
P104    40.253249491   47.637552850   81.927667726 XXXX 1      pap     P   1.000
P105    40.253249491   57.054552850   33.802667726 XXXX 1      pap     P   1.000
P106    40.253249491   57.054552850   40.677667726 XXXX 1      pap     P   1.000
P107    40.253249491   57.054552850   47.552667726 XXXX 1      pap     P   1.000
P108    40.253249491   57.054552850   54.427667726 XXXX 1      pap     P   1.000
P109    40.253249491   57.054552850   61.302667726 XXXX 1      pap     P   1.000
P110    40.253249491   57.054552850   68.177667726 XXXX 1      pap     P   1.000
P111    40.253249491   57.054552850   75.052667726 XXXX 1      pap     P   1.000
P112    40.253249491   57.054552850   81.927667726 XXXX 1      pap     P   1.000
P113    48.408610718   42.929052850   33.802667726 XXXX 1      pap     P   1.000
P114    48.408610718   42.929052850   40.677667726 XXXX 1      pap     P   1.000
P115    48.408610718   42.929052850   47.552667726 XXXX 1      pap     P   1.000
P116    48.408610718   42.929052850   54.427667726 XXXX 1      pap     P   1.000
P117    48.408610718   42.929052850   61.302667726 XXXX 1      pap     P   1.000
P118    48.408610718   42.929052850   68.177667726 XXXX 1      pap     P   1.000
P119    48.408610718   42.929052850   75.052667726 XXXX 1      pap     P   1.000
P120    48.408610718   42.929052850   81.927667726 XXXX 1      pap     P   1.000
P121    48.408610718   52.346052850   33.802667726 XXXX 1      pap     P   1.000
P122    48.408610718   52.346052850   40.677667726 XXXX 1      pap     P   1.000
P123    48.408610718   52.346052850   47.552667726 XXXX 1      pap     P   1.000
P124    48.408610718   52.346052850   54.427667726 XXXX 1      pap     P   1.000
P125    48.408610718   52.346052850   61.302667726 XXXX 1      pap     P   1.000
P126    48.408610718   52.346052850   68.177667726 XXXX 1      pap     P   1.000
P127    48.408610718   52.346052850   75.052667726 XXXX 1      pap     P   1.000
P128    48.408610718   52.346052850   81.927667726 XXXX 1      pap     P   1.000
P129    48.408610718   61.763052850   33.802667726 XXXX 1      pap     P   1.000
P130    48.408610718   61.763052850   40.677667726 XXXX 1      pap     P   1.000
P131    48.408610718   61.763052850   47.552667726 XXXX 1      pap     P   1.000
P132    48.408610718   61.763052850   54.427667726 XXXX 1      pap     P   1.000
P133    48.408610718   61.763052850   61.302667726 XXXX 1      pap     P   1.000
P134    48.408610718   61.763052850   68.177667726 XXXX 1      pap     P   1.000
P135    48.408610718   61.763052850   75.052667726 XXXX 1      pap     P   1.000
P136    48.408610718   61.763052850   81.927667726 XXXX 1      pap     P   1.000
P137    56.563971945   38.220552850   33.802667726 XXXX 1      pap     P   1.000
P138    56.563971945   38.220552850   40.677667726 XXXX 1      pap     P   1.000
P139    56.563971945   38.220552850   47.552667726 XXXX 1      pap     P   1.000
P140    56.563971945   38.220552850   54.427667726 XXXX 1      pap     P   1.000
P141    56.563971945   38.220552850   61.302667726 XXXX 1      pap     P   1.000
P142    56.563971945   38.220552850   68.177667726 XXXX 1      pap     P   1.000
P143    56.563971945   38.220552850   75.052667726 XXXX 1      pap     P   1.000
P144    56.563971945   38.220552850   81.927667726 XXXX 1      pap     P   1.000
P145    56.563971945   47.637552850   33.802667726 XXXX 1      pap     P   1.000
P146    56.563971945   47.637552850   40.677667726 XXXX 1      pap     P   1.000
P147    56.563971945   47.637552850   47.552667726 XXXX 1      pap     P   1.000
P148    56.563971945   47.637552850   54.427667726 XXXX 1      pap     P   1.000
P149    56.563971945   47.637552850   61.302667726 XXXX 1      pap     P   1.000
P150    56.563971945   47.637552850   68.177667726 XXXX 1      pap     P   1.000
P151    56.563971945   47.637552850   75.052667726 XXXX 1      pap     P   1.000
P152    56.563971945   47.637552850   81.927667726 XXXX 1      pap     P   1.000
P153    56.563971945   57.054552850   33.802667726 XXXX 1      pap     P   1.000
P154    56.563971945   57.054552850   40.677667726 XXXX 1      pap     P   1.000
P155    56.563971945   57.054552850   47.552667726 XXXX 1      pap     P   1.000
P156    56.563971945   57.054552850   54.427667726 XXXX 1      pap     P   1.000
P157    56.563971945   57.054552850   61.302667726 XXXX 1      pap     P   1.000
P158    56.563971945   57.054552850   68.177667726 XXXX 1      pap     P   1.000
P159    56.563971945   57.054552850   75.052667726 XXXX 1      pap     P   1.000
P160    56.563971945   57.054552850   81.927667726 XXXX 1      pap     P   1.000
P161    56.563971945   66.471552850   33.802667726 XXXX 1      pap     P   1.000
P162    56.563971945   66.471552850   40.677667726 XXXX 1      pap     P   1.000
P163    56.563971945   66.471552850   47.552667726 XXXX 1      pap     P   1.000
P164    56.563971945   66.471552850   54.427667726 XXXX 1      pap     P   1.000
P165    56.563971945   66.471552850   61.302667726 XXXX 1      pap     P   1.000
P166    56.563971945   66.471552850   68.177667726 XXXX 1      pap     P   1.000
P167    56.563971945   66.471552850   75.052667726 XXXX 1      pap     P   1.000
P168    56.563971945   66.471552850   81.927667726 XXXX 1      pap     P   1.000
P169    64.719333173   42.929052850   33.802667726 XXXX 1      pap     P   1.000
P170    64.719333173   42.929052850   40.677667726 XXXX 1      pap     P   1.000
P171    64.719333173   42.929052850   47.552667726 XXXX 1      pap     P   1.000
P172    64.719333173   42.929052850   54.427667726 XXXX 1      pap     P   1.000
P173    64.719333173   42.929052850   61.302667726 XXXX 1      pap     P   1.000
P174    64.719333173   42.929052850   68.177667726 XXXX 1      pap     P   1.000
P175    64.719333173   42.929052850   75.052667726 XXXX 1      pap     P   1.000
P176    64.719333173   42.929052850   81.927667726 XXXX 1      pap     P   1.000
P177    64.719333173   52.346052850   33.802667726 XXXX 1      pap     P   1.000
P178    64.719333173   52.346052850   40.677667726 XXXX 1      pap     P   1.000
P179    64.719333173   52.346052850   47.552667726 XXXX 1      pap     P   1.000
P180    64.719333173   52.346052850   54.427667726 XXXX 1      pap     P   1.000
P181    64.719333173   52.346052850   61.302667726 XXXX 1      pap     P   1.000
P182    64.719333173   52.346052850   68.177667726 XXXX 1      pap     P   1.000
P183    64.719333173   52.346052850   75.052667726 XXXX 1      pap     P   1.000
P184    64.719333173   52.346052850   81.927667726 XXXX 1      pap     P   1.000
P185    64.719333173   61.763052850   33.802667726 XXXX 1      pap     P   1.000
P186    64.719333173   61.763052850   40.677667726 XXXX 1      pap     P   1.000
P187    64.719333173   61.763052850   47.552667726 XXXX 1      pap     P   1.000
P188    64.719333173   61.763052850   54.427667726 XXXX 1      pap     P   1.000
P189    64.719333173   61.763052850   61.302667726 XXXX 1      pap     P   1.000
P190    64.719333173   61.763052850   68.177667726 XXXX 1      pap     P   1.000
P191    64.719333173   61.763052850   75.052667726 XXXX 1      pap     P   1.000
P192    64.719333173   61.763052850   81.927667726 XXXX 1      pap     P   1.000
O1345   38.716453018   47.657139868   33.802667726 XXXX 1      oap1    O  -0.600
O1346   38.716453018   47.657139868   40.677667726 XXXX 1      oap1    O  -0.800
O1347   38.716453018   47.657139868   47.552667726 XXXX 1      oap1    O  -0.800
O1348   38.716453018   47.657139868   54.427667726 XXXX 1      oap1    O  -0.800
O1349   38.716453018   47.657139868   61.302667726 XXXX 1      oap1    O  -0.800
O1350   38.716453018   47.657139868   68.177667726 XXXX 1      oap1    O  -0.800
O1351   38.716453018   47.657139868   75.052667726 XXXX 1      oap1    O  -0.800
O1352   38.716453018   47.657139868   81.927667726 XXXX 1      oap1    O  -0.800
O1353   38.716453018   57.074139868   33.802667726 XXXX 1      oap1    O  -0.600
O1354   38.716453018   57.074139868   40.677667726 XXXX 1      oap1    O  -0.800
O1355   38.716453018   57.074139868   47.552667726 XXXX 1      oap1    O  -0.800
O1356   38.716453018   57.074139868   54.427667726 XXXX 1      oap1    O  -0.800
O1357   38.716453018   57.074139868   61.302667726 XXXX 1      oap1    O  -0.800
O1358   38.716453018   57.074139868   68.177667726 XXXX 1      oap1    O  -0.800
O1359   38.716453018   57.074139868   75.052667726 XXXX 1      oap1    O  -0.800
O1360   38.716453018   57.074139868   81.927667726 XXXX 1      oap1    O  -0.800
O1361   46.871814246   42.948639868   33.802667726 XXXX 1      oap1    O  -0.600
O1362   46.871814246   42.948639868   40.677667726 XXXX 1      oap1    O  -0.800
O1363   46.871814246   42.948639868   47.552667726 XXXX 1      oap1    O  -0.800
O1364   46.871814246   42.948639868   54.427667726 XXXX 1      oap1    O  -0.800
O1365   46.871814246   42.948639868   61.302667726 XXXX 1      oap1    O  -0.800
O1366   46.871814246   42.948639868   68.177667726 XXXX 1      oap1    O  -0.800
O1367   46.871814246   42.948639868   75.052667726 XXXX 1      oap1    O  -0.800
O1368   46.871814246   42.948639868   81.927667726 XXXX 1      oap1    O  -0.800
O1369   46.871814246   52.365639868   33.802667726 XXXX 1      oap1    O  -0.600
O1370   46.871814246   52.365639868   40.677667726 XXXX 1      oap1    O  -0.800
O1371   46.871814246   52.365639868   47.552667726 XXXX 1      oap1    O  -0.800
O1372   46.871814246   52.365639868   54.427667726 XXXX 1      oap1    O  -0.800
O1373   46.871814246   52.365639868   61.302667726 XXXX 1      oap1    O  -0.800
O1374   46.871814246   52.365639868   68.177667726 XXXX 1      oap1    O  -0.800
O1375   46.871814246   52.365639868   75.052667726 XXXX 1      oap1    O  -0.800
O1376   46.871814246   52.365639868   81.927667726 XXXX 1      oap1    O  -0.800
O1377   46.871814246   61.782639868   33.802667726 XXXX 1      oap1    O  -0.600
O1378   46.871814246   61.782639868   40.677667726 XXXX 1      oap1    O  -0.800
O1379   46.871814246   61.782639868   47.552667726 XXXX 1      oap1    O  -0.800
O1380   46.871814246   61.782639868   54.427667726 XXXX 1      oap1    O  -0.800
O1381   46.871814246   61.782639868   61.302667726 XXXX 1      oap1    O  -0.800
O1382   46.871814246   61.782639868   68.177667726 XXXX 1      oap1    O  -0.800
O1383   46.871814246   61.782639868   75.052667726 XXXX 1      oap1    O  -0.800
O1384   46.871814246   61.782639868   81.927667726 XXXX 1      oap1    O  -0.800
O1385   55.027175473   38.240139868   33.802667726 XXXX 1      oap1    O  -0.600
O1386   55.027175473   38.240139868   40.677667726 XXXX 1      oap1    O  -0.800
O1387   55.027175473   38.240139868   47.552667726 XXXX 1      oap1    O  -0.800
O1388   55.027175473   38.240139868   54.427667726 XXXX 1      oap1    O  -0.800
O1389   55.027175473   38.240139868   61.302667726 XXXX 1      oap1    O  -0.800
O1390   55.027175473   38.240139868   68.177667726 XXXX 1      oap1    O  -0.800
O1391   55.027175473   38.240139868   75.052667726 XXXX 1      oap1    O  -0.800
O1392   55.027175473   38.240139868   81.927667726 XXXX 1      oap1    O  -0.800
O1393   55.027175473   47.657139868   33.802667726 XXXX 1      oap1    O  -0.600
O1394   55.027175473   47.657139868   40.677667726 XXXX 1      oap1    O  -0.800
O1395   55.027175473   47.657139868   47.552667726 XXXX 1      oap1    O  -0.800
O1396   55.027175473   47.657139868   54.427667726 XXXX 1      oap1    O  -0.800
O1397   55.027175473   47.657139868   61.302667726 XXXX 1      oap1    O  -0.800
O1398   55.027175473   47.657139868   68.177667726 XXXX 1      oap1    O  -0.800
O1399   55.027175473   47.657139868   75.052667726 XXXX 1      oap1    O  -0.800
O1400   55.027175473   47.657139868   81.927667726 XXXX 1      oap1    O  -0.800
O1401   55.027175473   57.074139868   33.802667726 XXXX 1      oap1    O  -0.600
O1402   55.027175473   57.074139868   40.677667726 XXXX 1      oap1    O  -0.800
O1403   55.027175473   57.074139868   47.552667726 XXXX 1      oap1    O  -0.800
O1404   55.027175473   57.074139868   54.427667726 XXXX 1      oap1    O  -0.800
O1405   55.027175473   57.074139868   61.302667726 XXXX 1      oap1    O  -0.800
O1406   55.027175473   57.074139868   68.177667726 XXXX 1      oap1    O  -0.800
O1407   55.027175473   57.074139868   75.052667726 XXXX 1      oap1    O  -0.800
O1408   55.027175473   57.074139868   81.927667726 XXXX 1      oap1    O  -0.800
O1409   55.027175473   66.491139868   33.802667726 XXXX 1      oap1    O  -0.600
O1410   55.027175473   66.491139868   40.677667726 XXXX 1      oap1    O  -0.600
O1411   55.027175473   66.491139868   47.552667726 XXXX 1      oap1    O  -0.600
O1412   55.027175473   66.491139868   54.427667726 XXXX 1      oap1    O  -0.695
O1413   55.027175473   66.491139868   61.302667726 XXXX 1      oap1    O  -0.695
O1414   55.027175473   66.491139868   68.177667726 XXXX 1      oap1    O  -0.600
O1415   55.027175473   66.491139868   75.052667726 XXXX 1      oap1    O  -0.695
O1416   55.027175473   66.491139868   81.927667726 XXXX 1      oap1    O  -0.600
O1417   63.182536701   42.948639868   33.802667726 XXXX 1      oap1    O  -0.600
O1418   63.182536701   42.948639868   40.677667726 XXXX 1      oap1    O  -0.800
O1419   63.182536701   42.948639868   47.552667726 XXXX 1      oap1    O  -0.800
O1420   63.182536701   42.948639868   54.427667726 XXXX 1      oap1    O  -0.800
O1421   63.182536701   42.948639868   61.302667726 XXXX 1      oap1    O  -0.800
O1422   63.182536701   42.948639868   68.177667726 XXXX 1      oap1    O  -0.800
O1423   63.182536701   42.948639868   75.052667726 XXXX 1      oap1    O  -0.800
O1424   63.182536701   42.948639868   81.927667726 XXXX 1      oap1    O  -0.800
O1425   63.182536701   52.365639868   33.802667726 XXXX 1      oap1    O  -0.600
O1426   63.182536701   52.365639868   40.677667726 XXXX 1      oap1    O  -0.800
O1427   63.182536701   52.365639868   47.552667726 XXXX 1      oap1    O  -0.800
O1428   63.182536701   52.365639868   54.427667726 XXXX 1      oap1    O  -0.800
O1429   63.182536701   52.365639868   61.302667726 XXXX 1      oap1    O  -0.800
O1430   63.182536701   52.365639868   68.177667726 XXXX 1      oap1    O  -0.800
O1431   63.182536701   52.365639868   75.052667726 XXXX 1      oap1    O  -0.800
O1432   63.182536701   52.365639868   81.927667726 XXXX 1      oap1    O  -0.800
O1433   63.182536701   61.782639868   33.802667726 XXXX 1      oap1    O  -0.600
O1434   63.182536701   61.782639868   40.677667726 XXXX 1      oap1    O  -0.695
O1435   63.182536701   61.782639868   47.552667726 XXXX 1      oap1    O  -0.600
O1436   63.182536701   61.782639868   54.427667726 XXXX 1      oap1    O  -0.695
O1437   63.182536701   61.782639868   61.302667726 XXXX 1      oap1    O  -0.600
O1438   63.182536701   61.782639868   68.177667726 XXXX 1      oap1    O  -0.695
O1439   63.182536701   61.782639868   75.052667726 XXXX 1      oap1    O  -0.600
O1440   63.182536701   61.782639868   81.927667726 XXXX 1      oap1    O  -0.695
O1441   40.822167447   49.062156617   33.802667726 XXXX 1      oap1    O  -0.695
O1442   40.822167447   49.062156617   40.677667726 XXXX 1      oap1    O  -0.800
O1443   40.822167447   49.062156617   47.552667726 XXXX 1      oap1    O  -0.800
O1444   40.822167447   49.062156617   54.427667726 XXXX 1      oap1    O  -0.800
O1445   40.822167447   49.062156617   61.302667726 XXXX 1      oap1    O  -0.800
O1446   40.822167447   49.062156617   68.177667726 XXXX 1      oap1    O  -0.800
O1447   40.822167447   49.062156617   75.052667726 XXXX 1      oap1    O  -0.800
O1448   40.822167447   49.062156617   81.927667726 XXXX 1      oap1    O  -0.800
O1449   40.822167447   58.479156617   33.802667726 XXXX 1      oap1    O  -0.695
O1450   40.822167447   58.479156617   40.677667726 XXXX 1      oap1    O  -0.800
O1451   40.822167447   58.479156617   47.552667726 XXXX 1      oap1    O  -0.800
O1452   40.822167447   58.479156617   54.427667726 XXXX 1      oap1    O  -0.800
O1453   40.822167447   58.479156617   61.302667726 XXXX 1      oap1    O  -0.800
O1454   40.822167447   58.479156617   68.177667726 XXXX 1      oap1    O  -0.800
O1455   40.822167447   58.479156617   75.052667726 XXXX 1      oap1    O  -0.800
O1456   40.822167447   58.479156617   81.927667726 XXXX 1      oap1    O  -0.800
O1457   48.977528674   44.353656617   33.802667726 XXXX 1      oap1    O  -0.695
O1458   48.977528674   44.353656617   40.677667726 XXXX 1      oap1    O  -0.800
O1459   48.977528674   44.353656617   47.552667726 XXXX 1      oap1    O  -0.800
O1460   48.977528674   44.353656617   54.427667726 XXXX 1      oap1    O  -0.800
O1461   48.977528674   44.353656617   61.302667726 XXXX 1      oap1    O  -0.800
O1462   48.977528674   44.353656617   68.177667726 XXXX 1      oap1    O  -0.800
O1463   48.977528674   44.353656617   75.052667726 XXXX 1      oap1    O  -0.800
O1464   48.977528674   44.353656617   81.927667726 XXXX 1      oap1    O  -0.800
O1465   48.977528674   53.770656617   33.802667726 XXXX 1      oap1    O  -0.695
O1466   48.977528674   53.770656617   40.677667726 XXXX 1      oap1    O  -0.800
O1467   48.977528674   53.770656617   47.552667726 XXXX 1      oap1    O  -0.800
O1468   48.977528674   53.770656617   54.427667726 XXXX 1      oap1    O  -0.800
O1469   48.977528674   53.770656617   61.302667726 XXXX 1      oap1    O  -0.800
O1470   48.977528674   53.770656617   68.177667726 XXXX 1      oap1    O  -0.800
O1471   48.977528674   53.770656617   75.052667726 XXXX 1      oap1    O  -0.800
O1472   48.977528674   53.770656617   81.927667726 XXXX 1      oap1    O  -0.800
O1473   48.977528674   63.187656617   33.802667726 XXXX 1      oap1    O  -0.695
O1474   48.977528674   63.187656617   40.677667726 XXXX 1      oap1    O  -0.800
O1475   48.977528674   63.187656617   47.552667726 XXXX 1      oap1    O  -0.800
O1476   48.977528674   63.187656617   54.427667726 XXXX 1      oap1    O  -0.800
O1477   48.977528674   63.187656617   61.302667726 XXXX 1      oap1    O  -0.800
O1478   48.977528674   63.187656617   68.177667726 XXXX 1      oap1    O  -0.800
O1479   48.977528674   63.187656617   75.052667726 XXXX 1      oap1    O  -0.800
O1480   48.977528674   63.187656617   81.927667726 XXXX 1      oap1    O  -0.800
O1481   57.132889902   39.645156617   33.802667726 XXXX 1      oap1    O  -0.695
O1482   57.132889902   39.645156617   40.677667726 XXXX 1      oap1    O  -0.800
O1483   57.132889902   39.645156617   47.552667726 XXXX 1      oap1    O  -0.800
O1484   57.132889902   39.645156617   54.427667726 XXXX 1      oap1    O  -0.800
O1485   57.132889902   39.645156617   61.302667726 XXXX 1      oap1    O  -0.800
O1486   57.132889902   39.645156617   68.177667726 XXXX 1      oap1    O  -0.800
O1487   57.132889902   39.645156617   75.052667726 XXXX 1      oap1    O  -0.800
O1488   57.132889902   39.645156617   81.927667726 XXXX 1      oap1    O  -0.800
O1489   57.132889902   49.062156617   33.802667726 XXXX 1      oap1    O  -0.695
O1490   57.132889902   49.062156617   40.677667726 XXXX 1      oap1    O  -0.800
O1491   57.132889902   49.062156617   47.552667726 XXXX 1      oap1    O  -0.800
O1492   57.132889902   49.062156617   54.427667726 XXXX 1      oap1    O  -0.800
O1493   57.132889902   49.062156617   61.302667726 XXXX 1      oap1    O  -0.800
O1494   57.132889902   49.062156617   68.177667726 XXXX 1      oap1    O  -0.800
O1495   57.132889902   49.062156617   75.052667726 XXXX 1      oap1    O  -0.800
O1496   57.132889902   49.062156617   81.927667726 XXXX 1      oap1    O  -0.800
O1497   57.132889902   58.479156617   33.802667726 XXXX 1      oap1    O  -0.695
O1498   57.132889902   58.479156617   40.677667726 XXXX 1      oap1    O  -0.800
O1499   57.132889902   58.479156617   47.552667726 XXXX 1      oap1    O  -0.800
O1500   57.132889902   58.479156617   54.427667726 XXXX 1      oap1    O  -0.800
O1501   57.132889902   58.479156617   61.302667726 XXXX 1      oap1    O  -0.800
O1502   57.132889902   58.479156617   68.177667726 XXXX 1      oap1    O  -0.800
O1503   57.132889902   58.479156617   75.052667726 XXXX 1      oap1    O  -0.800
O1504   57.132889902   58.479156617   81.927667726 XXXX 1      oap1    O  -0.800
O1505   57.132889902   67.896156617   33.802667726 XXXX 1      oap1    O  -0.600
O1506   57.132889902   67.896156617   40.677667726 XXXX 1      oap1    O  -0.600
O1507   57.132889902   67.896156617   47.552667726 XXXX 1      oap1    O  -0.600
O1508   57.132889902   67.896156617   54.427667726 XXXX 1      oap1    O  -0.600
O1509   57.132889902   67.896156617   61.302667726 XXXX 1      oap1    O  -0.600
O1510   57.132889902   67.896156617   68.177667726 XXXX 1      oap1    O  -0.600
O1511   57.132889902   67.896156617   75.052667726 XXXX 1      oap1    O  -0.600
O1512   57.132889902   67.896156617   81.927667726 XXXX 1      oap1    O  -0.600
O1513   65.288251129   44.353656617   33.802667726 XXXX 1      oap1    O  -0.695
O1514   65.288251129   44.353656617   40.677667726 XXXX 1      oap1    O  -0.800
O1515   65.288251129   44.353656617   47.552667726 XXXX 1      oap1    O  -0.800
O1516   65.288251129   44.353656617   54.427667726 XXXX 1      oap1    O  -0.800
O1517   65.288251129   44.353656617   61.302667726 XXXX 1      oap1    O  -0.800
O1518   65.288251129   44.353656617   68.177667726 XXXX 1      oap1    O  -0.800
O1519   65.288251129   44.353656617   75.052667726 XXXX 1      oap1    O  -0.800
O1520   65.288251129   44.353656617   81.927667726 XXXX 1      oap1    O  -0.800
O1521   65.288251129   53.770656617   33.802667726 XXXX 1      oap1    O  -0.695
O1522   65.288251129   53.770656617   40.677667726 XXXX 1      oap1    O  -0.800
O1523   65.288251129   53.770656617   47.552667726 XXXX 1      oap1    O  -0.800
O1524   65.288251129   53.770656617   54.427667726 XXXX 1      oap1    O  -0.800
O1525   65.288251129   53.770656617   61.302667726 XXXX 1      oap1    O  -0.800
O1526   65.288251129   53.770656617   68.177667726 XXXX 1      oap1    O  -0.800
O1527   65.288251129   53.770656617   75.052667726 XXXX 1      oap1    O  -0.800
O1528   65.288251129   53.770656617   81.927667726 XXXX 1      oap1    O  -0.800
O1529   65.288251129   63.187656617   33.802667726 XXXX 1      oap1    O  -0.600
O1530   65.288251129   63.187656617   40.677667726 XXXX 1      oap1    O  -0.600
O1531   65.288251129   63.187656617   47.552667726 XXXX 1      oap1    O  -0.600
O1532   65.288251129   63.187656617   54.427667726 XXXX 1      oap1    O  -0.600
O1533   65.288251129   63.187656617   61.302667726 XXXX 1      oap1    O  -0.600
O1534   65.288251129   63.187656617   68.177667726 XXXX 1      oap1    O  -0.600
O1535   65.288251129   63.187656617   75.052667726 XXXX 1      oap1    O  -0.600
O1536   65.288251129   63.187656617   81.927667726 XXXX 1      oap1    O  -0.600
Ca494   37.310387425   49.557820322   40.677667726 XXXX 1      ca+h    Ca  1.500
Ca495   37.310387425   49.557820322   47.552667726 XXXX 1      ca+h    Ca  1.500
Ca496   37.310387425   49.557820322   61.302667726 XXXX 1      ca+h    Ca  1.500
Ca497   37.310387425   49.557820322   68.177667726 XXXX 1      ca+h    Ca  1.500
Ca498   37.310387425   49.557820322   75.052667726 XXXX 1      ca+h    Ca  1.500
Ca499   37.310387425   58.974820322   47.552667726 XXXX 1      ca+h    Ca  1.500
Ca500   37.310387425   58.974820322   54.427667726 XXXX 1      ca+h    Ca  1.500
Ca501   37.310387425   58.974820322   68.177667726 XXXX 1      ca+h    Ca  1.500
Ca502   37.310387425   58.974820322   81.927667726 XXXX 1      ca+h    Ca  1.500
Ca503   45.465748653   44.849320322   33.802667726 XXXX 1      ca+h    Ca  1.500
Ca504   45.465748653   44.849320322   40.677667726 XXXX 1      ca+h    Ca  1.500
Ca505   45.465748653   44.849320322   47.552667726 XXXX 1      ca+h    Ca  1.500
Ca506   45.465748653   44.849320322   54.427667726 XXXX 1      ca+h    Ca  1.500
Ca507   45.465748653   44.849320322   61.302667726 XXXX 1      ca+h    Ca  1.500
Ca508   45.465748653   44.849320322   68.177667726 XXXX 1      ca+h    Ca  1.500
Ca509   45.465748653   44.849320322   75.052667726 XXXX 1      ca+h    Ca  1.500
Ca510   45.465748653   44.849320322   81.927667726 XXXX 1      ca+h    Ca  1.500
Ca511   45.465748653   54.266320322   40.677667726 XXXX 1      ca+h    Ca  1.500
Ca512   45.465748653   54.266320322   47.552667726 XXXX 1      ca+h    Ca  1.500
Ca513   45.465748653   54.266320322   54.427667726 XXXX 1      ca+h    Ca  1.500
Ca514   45.465748653   54.266320322   61.302667726 XXXX 1      ca+h    Ca  1.500
Ca515   45.465748653   54.266320322   68.177667726 XXXX 1      ca+h    Ca  1.500
Ca516   45.465748653   54.266320322   75.052667726 XXXX 1      ca+h    Ca  1.500
Ca517   45.465748653   54.266320322   81.927667726 XXXX 1      ca+h    Ca  1.500
Ca518   45.465748653   63.683320322   40.677667726 XXXX 1      ca+h    Ca  1.500
Ca519   45.465748653   63.683320322   47.552667726 XXXX 1      ca+h    Ca  1.500
Ca520   45.465748653   63.683320322   61.302667726 XXXX 1      ca+h    Ca  1.500
Ca521   45.465748653   63.683320322   68.177667726 XXXX 1      ca+h    Ca  1.500
Ca522   45.465748653   63.683320322   75.052667726 XXXX 1      ca+h    Ca  1.500
Ca523   53.621109880   40.140820322   40.677667726 XXXX 1      ca+h    Ca  1.500
Ca524   53.621109880   40.140820322   47.552667726 XXXX 1      ca+h    Ca  1.500
Ca525   53.621109880   40.140820322   54.427667726 XXXX 1      ca+h    Ca  1.500
Ca526   53.621109880   40.140820322   61.302667726 XXXX 1      ca+h    Ca  1.500
Ca527   53.621109880   40.140820322   68.177667726 XXXX 1      ca+h    Ca  1.500
Ca528   53.621109880   40.140820322   75.052667726 XXXX 1      ca+h    Ca  1.500
Ca529   53.621109880   40.140820322   81.927667726 XXXX 1      ca+h    Ca  1.500
Ca530   53.621109880   49.557820322   40.677667726 XXXX 1      ca+h    Ca  1.500
Ca531   53.621109880   49.557820322   47.552667726 XXXX 1      ca+h    Ca  1.500
Ca532   53.621109880   49.557820322   54.427667726 XXXX 1      ca+h    Ca  1.500
Ca533   53.621109880   49.557820322   61.302667726 XXXX 1      ca+h    Ca  1.500
Ca534   53.621109880   49.557820322   68.177667726 XXXX 1      ca+h    Ca  1.500
Ca535   53.621109880   49.557820322   75.052667726 XXXX 1      ca+h    Ca  1.500
Ca536   53.621109880   49.557820322   81.927667726 XXXX 1      ca+h    Ca  1.500
Ca537   53.621109880   58.974820322   33.802667726 XXXX 1      ca+h    Ca  1.500
Ca538   53.621109880   58.974820322   40.677667726 XXXX 1      ca+h    Ca  1.500
Ca539   53.621109880   58.974820322   47.552667726 XXXX 1      ca+h    Ca  1.500
Ca540   53.621109880   58.974820322   54.427667726 XXXX 1      ca+h    Ca  1.500
Ca541   53.621109880   58.974820322   61.302667726 XXXX 1      ca+h    Ca  1.500
Ca542   53.621109880   58.974820322   68.177667726 XXXX 1      ca+h    Ca  1.500
Ca543   53.621109880   58.974820322   75.052667726 XXXX 1      ca+h    Ca  1.500
Ca544   53.621109880   58.974820322   81.927667726 XXXX 1      ca+h    Ca  1.500
Ca545   61.776471108   44.849320322   33.802667726 XXXX 1      ca+h    Ca  1.500
Ca546   61.776471108   44.849320322   40.677667726 XXXX 1      ca+h    Ca  1.500
Ca547   61.776471108   44.849320322   47.552667726 XXXX 1      ca+h    Ca  1.500
Ca548   61.776471108   44.849320322   54.427667726 XXXX 1      ca+h    Ca  1.500
Ca549   61.776471108   44.849320322   61.302667726 XXXX 1      ca+h    Ca  1.500
Ca550   61.776471108   44.849320322   68.177667726 XXXX 1      ca+h    Ca  1.500
Ca551   61.776471108   44.849320322   75.052667726 XXXX 1      ca+h    Ca  1.500
Ca552   61.776471108   44.849320322   81.927667726 XXXX 1      ca+h    Ca  1.500
Ca553   61.776471108   54.266320322   40.677667726 XXXX 1      ca+h    Ca  1.500
Ca554   61.776471108   54.266320322   47.552667726 XXXX 1      ca+h    Ca  1.500
Ca555   61.776471108   54.266320322   54.427667726 XXXX 1      ca+h    Ca  1.500
Ca556   61.776471108   54.266320322   61.302667726 XXXX 1      ca+h    Ca  1.500
Ca557   61.776471108   54.266320322   68.177667726 XXXX 1      ca+h    Ca  1.500
Ca558   61.776471108   54.266320322   75.052667726 XXXX 1      ca+h    Ca  1.500
Ca559   61.776471108   54.266320322   81.927667726 XXXX 1      ca+h    Ca  1.500
P193    35.594254707   47.139393396   33.802667726 XXXX 1      pap     P   1.000
P194    35.594254707   47.139393396   40.677667726 XXXX 1      pap     P   1.000
P195    35.594254707   47.139393396   47.552667726 XXXX 1      pap     P   1.000
P196    35.594254707   47.139393396   54.427667726 XXXX 1      pap     P   1.000
P197    35.594254707   47.139393396   61.302667726 XXXX 1      pap     P   1.000
P198    35.594254707   47.139393396   68.177667726 XXXX 1      pap     P   1.000
P199    35.594254707   47.139393396   75.052667726 XXXX 1      pap     P   1.000
P200    35.594254707   47.139393396   81.927667726 XXXX 1      pap     P   1.000
P201    35.594254707   56.556393396   33.802667726 XXXX 1      pap     P   1.000
P202    35.594254707   56.556393396   40.677667726 XXXX 1      pap     P   1.000
P203    35.594254707   56.556393396   47.552667726 XXXX 1      pap     P   1.000
P204    35.594254707   56.556393396   54.427667726 XXXX 1      pap     P   1.000
P205    35.594254707   56.556393396   61.302667726 XXXX 1      pap     P   1.000
P206    35.594254707   56.556393396   68.177667726 XXXX 1      pap     P   1.000
P207    35.594254707   56.556393396   75.052667726 XXXX 1      pap     P   1.000
P208    35.594254707   56.556393396   81.927667726 XXXX 1      pap     P   1.000
P209    43.749615935   42.430893396   33.802667726 XXXX 1      pap     P   1.000
P210    43.749615935   42.430893396   40.677667726 XXXX 1      pap     P   1.000
P211    43.749615935   42.430893396   47.552667726 XXXX 1      pap     P   1.000
P212    43.749615935   42.430893396   54.427667726 XXXX 1      pap     P   1.000
P213    43.749615935   42.430893396   61.302667726 XXXX 1      pap     P   1.000
P214    43.749615935   42.430893396   68.177667726 XXXX 1      pap     P   1.000
P215    43.749615935   42.430893396   75.052667726 XXXX 1      pap     P   1.000
P216    43.749615935   42.430893396   81.927667726 XXXX 1      pap     P   1.000
P217    43.749615935   51.847893396   33.802667726 XXXX 1      pap     P   1.000
P218    43.749615935   51.847893396   40.677667726 XXXX 1      pap     P   1.000
P219    43.749615935   51.847893396   47.552667726 XXXX 1      pap     P   1.000
P220    43.749615935   51.847893396   54.427667726 XXXX 1      pap     P   1.000
P221    43.749615935   51.847893396   61.302667726 XXXX 1      pap     P   1.000
P222    43.749615935   51.847893396   68.177667726 XXXX 1      pap     P   1.000
P223    43.749615935   51.847893396   75.052667726 XXXX 1      pap     P   1.000
P224    43.749615935   51.847893396   81.927667726 XXXX 1      pap     P   1.000
P225    43.749615935   61.264893396   33.802667726 XXXX 1      pap     P   1.000
P226    43.749615935   61.264893396   40.677667726 XXXX 1      pap     P   1.000
P227    43.749615935   61.264893396   47.552667726 XXXX 1      pap     P   1.000
P228    43.749615935   61.264893396   54.427667726 XXXX 1      pap     P   1.000
P229    43.749615935   61.264893396   61.302667726 XXXX 1      pap     P   1.000
P230    43.749615935   61.264893396   68.177667726 XXXX 1      pap     P   1.000
P231    43.749615935   61.264893396   75.052667726 XXXX 1      pap     P   1.000
P232    43.749615935   61.264893396   81.927667726 XXXX 1      pap     P   1.000
P233    51.904977162   37.722393396   33.802667726 XXXX 1      pap     P   1.000
P234    51.904977162   37.722393396   40.677667726 XXXX 1      pap     P   1.000
P235    51.904977162   37.722393396   47.552667726 XXXX 1      pap     P   1.000
P236    51.904977162   37.722393396   54.427667726 XXXX 1      pap     P   1.000
P237    51.904977162   37.722393396   61.302667726 XXXX 1      pap     P   1.000
P238    51.904977162   37.722393396   68.177667726 XXXX 1      pap     P   1.000
P239    51.904977162   37.722393396   75.052667726 XXXX 1      pap     P   1.000
P240    51.904977162   37.722393396   81.927667726 XXXX 1      pap     P   1.000
P241    51.904977162   47.139393396   33.802667726 XXXX 1      pap     P   1.000
P242    51.904977162   47.139393396   40.677667726 XXXX 1      pap     P   1.000
P243    51.904977162   47.139393396   47.552667726 XXXX 1      pap     P   1.000
P244    51.904977162   47.139393396   54.427667726 XXXX 1      pap     P   1.000
P245    51.904977162   47.139393396   61.302667726 XXXX 1      pap     P   1.000
P246    51.904977162   47.139393396   68.177667726 XXXX 1      pap     P   1.000
P247    51.904977162   47.139393396   75.052667726 XXXX 1      pap     P   1.000
P248    51.904977162   47.139393396   81.927667726 XXXX 1      pap     P   1.000
P249    51.904977162   56.556393396   33.802667726 XXXX 1      pap     P   1.000
P250    51.904977162   56.556393396   40.677667726 XXXX 1      pap     P   1.000
P251    51.904977162   56.556393396   47.552667726 XXXX 1      pap     P   1.000
P252    51.904977162   56.556393396   54.427667726 XXXX 1      pap     P   1.000
P253    51.904977162   56.556393396   61.302667726 XXXX 1      pap     P   1.000
P254    51.904977162   56.556393396   68.177667726 XXXX 1      pap     P   1.000
P255    51.904977162   56.556393396   75.052667726 XXXX 1      pap     P   1.000
P256    51.904977162   56.556393396   81.927667726 XXXX 1      pap     P   1.000
P257    51.904977162   65.973393396   33.802667726 XXXX 1      pap     P   1.000
P258    51.904977162   65.973393396   40.677667726 XXXX 1      pap     P   1.000
P259    51.904977162   65.973393396   47.552667726 XXXX 1      pap     P   1.000
P260    51.904977162   65.973393396   54.427667726 XXXX 1      pap     P   1.000
P261    51.904977162   65.973393396   61.302667726 XXXX 1      pap     P   1.000
P262    51.904977162   65.973393396   68.177667726 XXXX 1      pap     P   1.000
P263    51.904977162   65.973393396   75.052667726 XXXX 1      pap     P   1.000
P264    51.904977162   65.973393396   81.927667726 XXXX 1      pap     P   1.000
P265    60.060338390   42.430893396   33.802667726 XXXX 1      pap     P   1.000
P266    60.060338390   42.430893396   40.677667726 XXXX 1      pap     P   1.000
P267    60.060338390   42.430893396   47.552667726 XXXX 1      pap     P   1.000
P268    60.060338390   42.430893396   54.427667726 XXXX 1      pap     P   1.000
P269    60.060338390   42.430893396   61.302667726 XXXX 1      pap     P   1.000
P270    60.060338390   42.430893396   68.177667726 XXXX 1      pap     P   1.000
P271    60.060338390   42.430893396   75.052667726 XXXX 1      pap     P   1.000
P272    60.060338390   42.430893396   81.927667726 XXXX 1      pap     P   1.000
P273    60.060338390   51.847893396   33.802667726 XXXX 1      pap     P   1.000
P274    60.060338390   51.847893396   40.677667726 XXXX 1      pap     P   1.000
P275    60.060338390   51.847893396   47.552667726 XXXX 1      pap     P   1.000
P276    60.060338390   51.847893396   54.427667726 XXXX 1      pap     P   1.000
P277    60.060338390   51.847893396   61.302667726 XXXX 1      pap     P   1.000
P278    60.060338390   51.847893396   68.177667726 XXXX 1      pap     P   1.000
P279    60.060338390   51.847893396   75.052667726 XXXX 1      pap     P   1.000
P280    60.060338390   51.847893396   81.927667726 XXXX 1      pap     P   1.000
P281    60.060338390   61.264893396   33.802667726 XXXX 1      pap     P   1.000
P282    60.060338390   61.264893396   40.677667726 XXXX 1      pap     P   1.000
P283    60.060338390   61.264893396   47.552667726 XXXX 1      pap     P   1.000
P284    60.060338390   61.264893396   54.427667726 XXXX 1      pap     P   1.000
P285    60.060338390   61.264893396   61.302667726 XXXX 1      pap     P   1.000
P286    60.060338390   61.264893396   68.177667726 XXXX 1      pap     P   1.000
P287    60.060338390   61.264893396   75.052667726 XXXX 1      pap     P   1.000
P288    60.060338390   61.264893396   81.927667726 XXXX 1      pap     P   1.000
O1537   36.345690088   45.798695102   33.802667726 XXXX 1      oap1    O  -0.695
O1538   36.345690088   45.798695102   40.677667726 XXXX 1      oap1    O  -0.695
O1539   36.345690088   45.798695102   47.552667726 XXXX 1      oap1    O  -0.695
O1540   36.345690088   45.798695102   54.427667726 XXXX 1      oap1    O  -0.695
O1541   36.345690088   45.798695102   61.302667726 XXXX 1      oap1    O  -0.600
O1542   36.345690088   45.798695102   68.177667726 XXXX 1      oap1    O  -0.600
O1543   36.345690088   45.798695102   75.052667726 XXXX 1      oap1    O  -0.600
O1544   36.345690088   45.798695102   81.927667726 XXXX 1      oap1    O  -0.600
O1545   36.345690088   55.215695102   33.802667726 XXXX 1      oap1    O  -0.695
O1546   36.345690088   55.215695102   40.677667726 XXXX 1      oap1    O  -0.695
O1547   36.345690088   55.215695102   47.552667726 XXXX 1      oap1    O  -0.695
O1548   36.345690088   55.215695102   54.427667726 XXXX 1      oap1    O  -0.695
O1549   36.345690088   55.215695102   61.302667726 XXXX 1      oap1    O  -0.600
O1550   36.345690088   55.215695102   68.177667726 XXXX 1      oap1    O  -0.600
O1551   36.345690088   55.215695102   75.052667726 XXXX 1      oap1    O  -0.600
O1552   36.345690088   55.215695102   81.927667726 XXXX 1      oap1    O  -0.600
O1553   44.501051316   41.090195102   33.802667726 XXXX 1      oap1    O  -0.695
O1554   44.501051316   41.090195102   40.677667726 XXXX 1      oap1    O  -0.800
O1555   44.501051316   41.090195102   47.552667726 XXXX 1      oap1    O  -0.800
O1556   44.501051316   41.090195102   54.427667726 XXXX 1      oap1    O  -0.800
O1557   44.501051316   41.090195102   61.302667726 XXXX 1      oap1    O  -0.800
O1558   44.501051316   41.090195102   68.177667726 XXXX 1      oap1    O  -0.800
O1559   44.501051316   41.090195102   75.052667726 XXXX 1      oap1    O  -0.800
O1560   44.501051316   41.090195102   81.927667726 XXXX 1      oap1    O  -0.800
O1561   44.501051316   50.507195102   33.802667726 XXXX 1      oap1    O  -0.695
O1562   44.501051316   50.507195102   40.677667726 XXXX 1      oap1    O  -0.800
O1563   44.501051316   50.507195102   47.552667726 XXXX 1      oap1    O  -0.800
O1564   44.501051316   50.507195102   54.427667726 XXXX 1      oap1    O  -0.800
O1565   44.501051316   50.507195102   61.302667726 XXXX 1      oap1    O  -0.800
O1566   44.501051316   50.507195102   68.177667726 XXXX 1      oap1    O  -0.800
O1567   44.501051316   50.507195102   75.052667726 XXXX 1      oap1    O  -0.800
O1568   44.501051316   50.507195102   81.927667726 XXXX 1      oap1    O  -0.800
O1569   44.501051316   59.924195102   33.802667726 XXXX 1      oap1    O  -0.695
O1570   44.501051316   59.924195102   40.677667726 XXXX 1      oap1    O  -0.800
O1571   44.501051316   59.924195102   47.552667726 XXXX 1      oap1    O  -0.800
O1572   44.501051316   59.924195102   54.427667726 XXXX 1      oap1    O  -0.800
O1573   44.501051316   59.924195102   61.302667726 XXXX 1      oap1    O  -0.800
O1574   44.501051316   59.924195102   68.177667726 XXXX 1      oap1    O  -0.800
O1575   44.501051316   59.924195102   75.052667726 XXXX 1      oap1    O  -0.800
O1576   44.501051316   59.924195102   81.927667726 XXXX 1      oap1    O  -0.800
O1577   52.656412543   36.381695102   33.802667726 XXXX 1      oap1    O  -0.695
O1578   52.656412543   36.381695102   40.677667726 XXXX 1      oap1    O  -0.800
O1579   52.656412543   36.381695102   47.552667726 XXXX 1      oap1    O  -0.800
O1580   52.656412543   36.381695102   54.427667726 XXXX 1      oap1    O  -0.800
O1581   52.656412543   36.381695102   61.302667726 XXXX 1      oap1    O  -0.800
O1582   52.656412543   36.381695102   68.177667726 XXXX 1      oap1    O  -0.800
O1583   52.656412543   36.381695102   75.052667726 XXXX 1      oap1    O  -0.800
O1584   52.656412543   36.381695102   81.927667726 XXXX 1      oap1    O  -0.800
O1585   52.656412543   45.798695102   33.802667726 XXXX 1      oap1    O  -0.695
O1586   52.656412543   45.798695102   40.677667726 XXXX 1      oap1    O  -0.800
O1587   52.656412543   45.798695102   47.552667726 XXXX 1      oap1    O  -0.800
O1588   52.656412543   45.798695102   54.427667726 XXXX 1      oap1    O  -0.800
O1589   52.656412543   45.798695102   61.302667726 XXXX 1      oap1    O  -0.800
O1590   52.656412543   45.798695102   68.177667726 XXXX 1      oap1    O  -0.800
O1591   52.656412543   45.798695102   75.052667726 XXXX 1      oap1    O  -0.800
O1592   52.656412543   45.798695102   81.927667726 XXXX 1      oap1    O  -0.800
O1593   52.656412543   55.215695102   33.802667726 XXXX 1      oap1    O  -0.695
O1594   52.656412543   55.215695102   40.677667726 XXXX 1      oap1    O  -0.800
O1595   52.656412543   55.215695102   47.552667726 XXXX 1      oap1    O  -0.800
O1596   52.656412543   55.215695102   54.427667726 XXXX 1      oap1    O  -0.800
O1597   52.656412543   55.215695102   61.302667726 XXXX 1      oap1    O  -0.800
O1598   52.656412543   55.215695102   68.177667726 XXXX 1      oap1    O  -0.800
O1599   52.656412543   55.215695102   75.052667726 XXXX 1      oap1    O  -0.800
O1600   52.656412543   55.215695102   81.927667726 XXXX 1      oap1    O  -0.800
O1601   52.656412543   64.632695102   33.802667726 XXXX 1      oap1    O  -0.600
O1602   52.656412543   64.632695102   40.677667726 XXXX 1      oap1    O  -0.800
O1603   52.656412543   64.632695102   47.552667726 XXXX 1      oap1    O  -0.800
O1604   52.656412543   64.632695102   54.427667726 XXXX 1      oap1    O  -0.800
O1605   52.656412543   64.632695102   61.302667726 XXXX 1      oap1    O  -0.800
O1606   52.656412543   64.632695102   68.177667726 XXXX 1      oap1    O  -0.800
O1607   52.656412543   64.632695102   75.052667726 XXXX 1      oap1    O  -0.800
O1608   52.656412543   64.632695102   81.927667726 XXXX 1      oap1    O  -0.800
O1609   60.811773771   41.090195102   33.802667726 XXXX 1      oap1    O  -0.695
O1610   60.811773771   41.090195102   40.677667726 XXXX 1      oap1    O  -0.800
O1611   60.811773771   41.090195102   47.552667726 XXXX 1      oap1    O  -0.800
O1612   60.811773771   41.090195102   54.427667726 XXXX 1      oap1    O  -0.800
O1613   60.811773771   41.090195102   61.302667726 XXXX 1      oap1    O  -0.800
O1614   60.811773771   41.090195102   68.177667726 XXXX 1      oap1    O  -0.800
O1615   60.811773771   41.090195102   75.052667726 XXXX 1      oap1    O  -0.800
O1616   60.811773771   41.090195102   81.927667726 XXXX 1      oap1    O  -0.800
O1617   60.811773771   50.507195102   33.802667726 XXXX 1      oap1    O  -0.695
O1618   60.811773771   50.507195102   40.677667726 XXXX 1      oap1    O  -0.800
O1619   60.811773771   50.507195102   47.552667726 XXXX 1      oap1    O  -0.800
O1620   60.811773771   50.507195102   54.427667726 XXXX 1      oap1    O  -0.800
O1621   60.811773771   50.507195102   61.302667726 XXXX 1      oap1    O  -0.800
O1622   60.811773771   50.507195102   68.177667726 XXXX 1      oap1    O  -0.800
O1623   60.811773771   50.507195102   75.052667726 XXXX 1      oap1    O  -0.800
O1624   60.811773771   50.507195102   81.927667726 XXXX 1      oap1    O  -0.800
O1625   60.811773771   59.924195102   33.802667726 XXXX 1      oap1    O  -0.695
O1626   60.811773771   59.924195102   40.677667726 XXXX 1      oap1    O  -0.800
O1627   60.811773771   59.924195102   47.552667726 XXXX 1      oap1    O  -0.800
O1628   60.811773771   59.924195102   54.427667726 XXXX 1      oap1    O  -0.800
O1629   60.811773771   59.924195102   61.302667726 XXXX 1      oap1    O  -0.800
O1630   60.811773771   59.924195102   68.177667726 XXXX 1      oap1    O  -0.800
O1631   60.811773771   59.924195102   75.052667726 XXXX 1      oap1    O  -0.800
O1632   60.811773771   59.924195102   81.927667726 XXXX 1      oap1    O  -0.800
O1633   34.076052676   46.919788915   33.802667726 XXXX 1      oap1    O  -0.600
O1634   34.076052676   46.919788915   40.677667726 XXXX 1      oap1    O  -0.600
O1635   34.076052676   46.919788915   47.552667726 XXXX 1      oap1    O  -0.600
O1636   34.076052676   46.919788915   54.427667726 XXXX 1      oap1    O  -0.600
O1637   34.076052676   46.919788915   61.302667726 XXXX 1      oap1    O  -0.600
O1638   34.076052676   46.919788915   68.177667726 XXXX 1      oap1    O  -0.600
O1639   34.076052676   46.919788915   75.052667726 XXXX 1      oap1    O  -0.600
O1640   34.076052676   46.919788915   81.927667726 XXXX 1      oap1    O  -0.600
O1641   34.076052676   56.336788915   33.802667726 XXXX 1      oap1    O  -0.600
O1642   34.076052676   56.336788915   40.677667726 XXXX 1      oap1    O  -0.600
O1643   34.076052676   56.336788915   47.552667726 XXXX 1      oap1    O  -0.600
O1644   34.076052676   56.336788915   54.427667726 XXXX 1      oap1    O  -0.600
O1645   34.076052676   56.336788915   61.302667726 XXXX 1      oap1    O  -0.600
O1646   34.076052676   56.336788915   68.177667726 XXXX 1      oap1    O  -0.600
O1647   34.076052676   56.336788915   75.052667726 XXXX 1      oap1    O  -0.600
O1648   34.076052676   56.336788915   81.927667726 XXXX 1      oap1    O  -0.600
O1649   42.231413904   42.211288915   33.802667726 XXXX 1      oap1    O  -0.600
O1650   42.231413904   42.211288915   40.677667726 XXXX 1      oap1    O  -0.800
O1651   42.231413904   42.211288915   47.552667726 XXXX 1      oap1    O  -0.800
O1652   42.231413904   42.211288915   54.427667726 XXXX 1      oap1    O  -0.800
O1653   42.231413904   42.211288915   61.302667726 XXXX 1      oap1    O  -0.800
O1654   42.231413904   42.211288915   68.177667726 XXXX 1      oap1    O  -0.800
O1655   42.231413904   42.211288915   75.052667726 XXXX 1      oap1    O  -0.800
O1656   42.231413904   42.211288915   81.927667726 XXXX 1      oap1    O  -0.800
O1657   42.231413904   51.628288915   33.802667726 XXXX 1      oap1    O  -0.600
O1658   42.231413904   51.628288915   40.677667726 XXXX 1      oap1    O  -0.800
O1659   42.231413904   51.628288915   47.552667726 XXXX 1      oap1    O  -0.800
O1660   42.231413904   51.628288915   54.427667726 XXXX 1      oap1    O  -0.800
O1661   42.231413904   51.628288915   61.302667726 XXXX 1      oap1    O  -0.800
O1662   42.231413904   51.628288915   68.177667726 XXXX 1      oap1    O  -0.800
O1663   42.231413904   51.628288915   75.052667726 XXXX 1      oap1    O  -0.800
O1664   42.231413904   51.628288915   81.927667726 XXXX 1      oap1    O  -0.800
O1665   42.231413904   61.045288915   33.802667726 XXXX 1      oap1    O  -0.600
O1666   42.231413904   61.045288915   40.677667726 XXXX 1      oap1    O  -0.800
O1667   42.231413904   61.045288915   47.552667726 XXXX 1      oap1    O  -0.800
O1668   42.231413904   61.045288915   54.427667726 XXXX 1      oap1    O  -0.800
O1669   42.231413904   61.045288915   61.302667726 XXXX 1      oap1    O  -0.800
O1670   42.231413904   61.045288915   68.177667726 XXXX 1      oap1    O  -0.800
O1671   42.231413904   61.045288915   75.052667726 XXXX 1      oap1    O  -0.800
O1672   42.231413904   61.045288915   81.927667726 XXXX 1      oap1    O  -0.800
O1673   50.386775131   37.502788915   33.802667726 XXXX 1      oap1    O  -0.600
O1674   50.386775131   37.502788915   40.677667726 XXXX 1      oap1    O  -0.800
O1675   50.386775131   37.502788915   47.552667726 XXXX 1      oap1    O  -0.800
O1676   50.386775131   37.502788915   54.427667726 XXXX 1      oap1    O  -0.800
O1677   50.386775131   37.502788915   61.302667726 XXXX 1      oap1    O  -0.800
O1678   50.386775131   37.502788915   68.177667726 XXXX 1      oap1    O  -0.800
O1679   50.386775131   37.502788915   75.052667726 XXXX 1      oap1    O  -0.800
O1680   50.386775131   37.502788915   81.927667726 XXXX 1      oap1    O  -0.800
O1681   50.386775131   46.919788915   33.802667726 XXXX 1      oap1    O  -0.600
O1682   50.386775131   46.919788915   40.677667726 XXXX 1      oap1    O  -0.800
O1683   50.386775131   46.919788915   47.552667726 XXXX 1      oap1    O  -0.800
O1684   50.386775131   46.919788915   54.427667726 XXXX 1      oap1    O  -0.800
O1685   50.386775131   46.919788915   61.302667726 XXXX 1      oap1    O  -0.800
O1686   50.386775131   46.919788915   68.177667726 XXXX 1      oap1    O  -0.800
O1687   50.386775131   46.919788915   75.052667726 XXXX 1      oap1    O  -0.800
O1688   50.386775131   46.919788915   81.927667726 XXXX 1      oap1    O  -0.800
O1689   50.386775131   56.336788915   33.802667726 XXXX 1      oap1    O  -0.600
O1690   50.386775131   56.336788915   40.677667726 XXXX 1      oap1    O  -0.800
O1691   50.386775131   56.336788915   47.552667726 XXXX 1      oap1    O  -0.800
O1692   50.386775131   56.336788915   54.427667726 XXXX 1      oap1    O  -0.800
O1693   50.386775131   56.336788915   61.302667726 XXXX 1      oap1    O  -0.800
O1694   50.386775131   56.336788915   68.177667726 XXXX 1      oap1    O  -0.800
O1695   50.386775131   56.336788915   75.052667726 XXXX 1      oap1    O  -0.800
O1696   50.386775131   56.336788915   81.927667726 XXXX 1      oap1    O  -0.800
O1697   50.386775131   65.753788915   33.802667726 XXXX 1      oap1    O  -0.695
O1698   50.386775131   65.753788915   40.677667726 XXXX 1      oap1    O  -0.800
O1699   50.386775131   65.753788915   47.552667726 XXXX 1      oap1    O  -0.800
O1700   50.386775131   65.753788915   54.427667726 XXXX 1      oap1    O  -0.800
O1701   50.386775131   65.753788915   61.302667726 XXXX 1      oap1    O  -0.800
O1702   50.386775131   65.753788915   68.177667726 XXXX 1      oap1    O  -0.800
O1703   50.386775131   65.753788915   75.052667726 XXXX 1      oap1    O  -0.800
O1704   50.386775131   65.753788915   81.927667726 XXXX 1      oap1    O  -0.800
O1705   58.542136358   42.211288915   33.802667726 XXXX 1      oap1    O  -0.600
O1706   58.542136358   42.211288915   40.677667726 XXXX 1      oap1    O  -0.800
O1707   58.542136358   42.211288915   47.552667726 XXXX 1      oap1    O  -0.800
O1708   58.542136358   42.211288915   54.427667726 XXXX 1      oap1    O  -0.800
O1709   58.542136358   42.211288915   61.302667726 XXXX 1      oap1    O  -0.800
O1710   58.542136358   42.211288915   68.177667726 XXXX 1      oap1    O  -0.800
O1711   58.542136358   42.211288915   75.052667726 XXXX 1      oap1    O  -0.800
O1712   58.542136358   42.211288915   81.927667726 XXXX 1      oap1    O  -0.800
O1713   58.542136358   51.628288915   33.802667726 XXXX 1      oap1    O  -0.600
O1714   58.542136358   51.628288915   40.677667726 XXXX 1      oap1    O  -0.800
O1715   58.542136358   51.628288915   47.552667726 XXXX 1      oap1    O  -0.800
O1716   58.542136358   51.628288915   54.427667726 XXXX 1      oap1    O  -0.800
O1717   58.542136358   51.628288915   61.302667726 XXXX 1      oap1    O  -0.800
O1718   58.542136358   51.628288915   68.177667726 XXXX 1      oap1    O  -0.800
O1719   58.542136358   51.628288915   75.052667726 XXXX 1      oap1    O  -0.800
O1720   58.542136358   51.628288915   81.927667726 XXXX 1      oap1    O  -0.800
O1721   58.542136358   61.045288915   33.802667726 XXXX 1      oap1    O  -0.600
O1722   58.542136358   61.045288915   40.677667726 XXXX 1      oap1    O  -0.800
O1723   58.542136358   61.045288915   47.552667726 XXXX 1      oap1    O  -0.800
O1724   58.542136358   61.045288915   54.427667726 XXXX 1      oap1    O  -0.800
O1725   58.542136358   61.045288915   61.302667726 XXXX 1      oap1    O  -0.800
O1726   58.542136358   61.045288915   68.177667726 XXXX 1      oap1    O  -0.800
O1727   58.542136358   61.045288915   75.052667726 XXXX 1      oap1    O  -0.800
O1728   58.542136358   61.045288915   81.927667726 XXXX 1      oap1    O  -0.800
Ca560   43.450885108   43.747908002   37.240167726 XXXX 1      ca+h    Ca  1.500
Ca561   43.450885108   43.747908002   44.115167726 XXXX 1      ca+h    Ca  1.500
Ca562   43.450885108   43.747908002   50.990167726 XXXX 1      ca+h    Ca  1.500
Ca563   43.450885108   43.747908002   57.865167726 XXXX 1      ca+h    Ca  1.500
Ca564   43.450885108   43.747908002   64.740167726 XXXX 1      ca+h    Ca  1.500
Ca565   43.450885108   43.747908002   71.615167726 XXXX 1      ca+h    Ca  1.500
Ca566   43.450885108   43.747908002   78.490167726 XXXX 1      ca+h    Ca  1.500
Ca567   43.450885108   43.747908002   85.365167726 XXXX 1      ca+h    Ca  1.500
Ca568   43.450885108   53.164908002   37.240167726 XXXX 1      ca+h    Ca  1.500
Ca569   43.450885108   53.164908002   44.115167726 XXXX 1      ca+h    Ca  1.500
Ca570   43.450885108   53.164908002   50.990167726 XXXX 1      ca+h    Ca  1.500
Ca571   43.450885108   53.164908002   57.865167726 XXXX 1      ca+h    Ca  1.500
Ca572   43.450885108   53.164908002   64.740167726 XXXX 1      ca+h    Ca  1.500
Ca573   43.450885108   53.164908002   71.615167726 XXXX 1      ca+h    Ca  1.500
Ca574   43.450885108   53.164908002   78.490167726 XXXX 1      ca+h    Ca  1.500
Ca575   43.450885108   62.581908002   37.240167726 XXXX 1      ca+h    Ca  1.500
Ca576   43.450885108   62.581908002   50.990167726 XXXX 1      ca+h    Ca  1.500
Ca577   43.450885108   62.581908002   57.865167726 XXXX 1      ca+h    Ca  1.500
Ca578   43.450885108   62.581908002   64.740167726 XXXX 1      ca+h    Ca  1.500
Ca579   43.450885108   62.581908002   71.615167726 XXXX 1      ca+h    Ca  1.500
Ca580   51.606246335   39.039408002   37.240167726 XXXX 1      ca+h    Ca  1.500
Ca581   51.606246335   39.039408002   44.115167726 XXXX 1      ca+h    Ca  1.500
Ca582   51.606246335   39.039408002   50.990167726 XXXX 1      ca+h    Ca  1.500
Ca583   51.606246335   39.039408002   57.865167726 XXXX 1      ca+h    Ca  1.500
Ca584   51.606246335   39.039408002   64.740167726 XXXX 1      ca+h    Ca  1.500
Ca585   51.606246335   39.039408002   71.615167726 XXXX 1      ca+h    Ca  1.500
Ca586   51.606246335   39.039408002   78.490167726 XXXX 1      ca+h    Ca  1.500
Ca587   51.606246335   39.039408002   85.365167726 XXXX 1      ca+h    Ca  1.500
Ca588   51.606246335   48.456408002   37.240167726 XXXX 1      ca+h    Ca  1.500
Ca589   51.606246335   48.456408002   44.115167726 XXXX 1      ca+h    Ca  1.500
Ca590   51.606246335   48.456408002   50.990167726 XXXX 1      ca+h    Ca  1.500
Ca591   51.606246335   48.456408002   57.865167726 XXXX 1      ca+h    Ca  1.500
Ca592   51.606246335   48.456408002   64.740167726 XXXX 1      ca+h    Ca  1.500
Ca593   51.606246335   48.456408002   71.615167726 XXXX 1      ca+h    Ca  1.500
Ca594   51.606246335   48.456408002   78.490167726 XXXX 1      ca+h    Ca  1.500
Ca595   51.606246335   57.873408002   37.240167726 XXXX 1      ca+h    Ca  1.500
Ca596   51.606246335   57.873408002   44.115167726 XXXX 1      ca+h    Ca  1.500
Ca597   51.606246335   57.873408002   50.990167726 XXXX 1      ca+h    Ca  1.500
Ca598   51.606246335   57.873408002   57.865167726 XXXX 1      ca+h    Ca  1.500
Ca599   51.606246335   57.873408002   64.740167726 XXXX 1      ca+h    Ca  1.500
Ca600   51.606246335   57.873408002   71.615167726 XXXX 1      ca+h    Ca  1.500
Ca601   51.606246335   57.873408002   78.490167726 XXXX 1      ca+h    Ca  1.500
Ca602   51.606246335   57.873408002   85.365167726 XXXX 1      ca+h    Ca  1.500
Ca603   51.606246335   67.290408002   37.240167726 XXXX 1      ca+h    Ca  1.500
Ca604   51.606246335   67.290408002   44.115167726 XXXX 1      ca+h    Ca  1.500
Ca605   51.606246335   67.290408002   57.865167726 XXXX 1      ca+h    Ca  1.500
Ca606   51.606246335   67.290408002   64.740167726 XXXX 1      ca+h    Ca  1.500
Ca607   59.761607563   43.747908002   37.240167726 XXXX 1      ca+h    Ca  1.500
Ca608   59.761607563   43.747908002   44.115167726 XXXX 1      ca+h    Ca  1.500
Ca609   59.761607563   43.747908002   50.990167726 XXXX 1      ca+h    Ca  1.500
Ca610   59.761607563   43.747908002   57.865167726 XXXX 1      ca+h    Ca  1.500
Ca611   59.761607563   43.747908002   64.740167726 XXXX 1      ca+h    Ca  1.500
Ca612   59.761607563   43.747908002   71.615167726 XXXX 1      ca+h    Ca  1.500
Ca613   59.761607563   43.747908002   78.490167726 XXXX 1      ca+h    Ca  1.500
Ca614   59.761607563   43.747908002   85.365167726 XXXX 1      ca+h    Ca  1.500
Ca615   59.761607563   53.164908002   37.240167726 XXXX 1      ca+h    Ca  1.500
Ca616   59.761607563   53.164908002   44.115167726 XXXX 1      ca+h    Ca  1.500
Ca617   59.761607563   53.164908002   50.990167726 XXXX 1      ca+h    Ca  1.500
Ca618   59.761607563   53.164908002   57.865167726 XXXX 1      ca+h    Ca  1.500
Ca619   59.761607563   53.164908002   64.740167726 XXXX 1      ca+h    Ca  1.500
Ca620   59.761607563   53.164908002   71.615167726 XXXX 1      ca+h    Ca  1.500
Ca621   59.761607563   53.164908002   78.490167726 XXXX 1      ca+h    Ca  1.500
Ca622   59.761607563   53.164908002   85.365167726 XXXX 1      ca+h    Ca  1.500
Ca623   59.761607563   62.581908002   37.240167726 XXXX 1      ca+h    Ca  1.500
Ca624   59.761607563   62.581908002   44.115167726 XXXX 1      ca+h    Ca  1.500
Ca625   59.761607563   62.581908002   57.865167726 XXXX 1      ca+h    Ca  1.500
Ca626   59.761607563   62.581908002   64.740167726 XXXX 1      ca+h    Ca  1.500
Ca627   59.761607563   62.581908002   71.615167726 XXXX 1      ca+h    Ca  1.500
P289    40.498399594   44.024909069   37.240167726 XXXX 1      pap     P   1.000
P290    40.498399594   44.024909069   44.115167726 XXXX 1      pap     P   1.000
P291    40.498399594   44.024909069   50.990167726 XXXX 1      pap     P   1.000
P292    40.498399594   44.024909069   57.865167726 XXXX 1      pap     P   1.000
P293    40.498399594   44.024909069   64.740167726 XXXX 1      pap     P   1.000
P294    40.498399594   44.024909069   71.615167726 XXXX 1      pap     P   1.000
P295    40.498399594   44.024909069   78.490167726 XXXX 1      pap     P   1.000
P296    40.498399594   44.024909069   85.365167726 XXXX 1      pap     P   1.000
P297    40.498399594   53.441909069   37.240167726 XXXX 1      pap     P   1.000
P298    40.498399594   53.441909069   44.115167726 XXXX 1      pap     P   1.000
P299    40.498399594   53.441909069   50.990167726 XXXX 1      pap     P   1.000
P300    40.498399594   53.441909069   57.865167726 XXXX 1      pap     P   1.000
P301    40.498399594   53.441909069   64.740167726 XXXX 1      pap     P   1.000
P302    40.498399594   53.441909069   71.615167726 XXXX 1      pap     P   1.000
P303    40.498399594   53.441909069   78.490167726 XXXX 1      pap     P   1.000
P304    40.498399594   53.441909069   85.365167726 XXXX 1      pap     P   1.000
P305    40.498399594   62.858909069   37.240167726 XXXX 1      pap     P   1.000
P306    40.498399594   62.858909069   44.115167726 XXXX 1      pap     P   1.000
P307    40.498399594   62.858909069   50.990167726 XXXX 1      pap     P   1.000
P308    40.498399594   62.858909069   57.865167726 XXXX 1      pap     P   1.000
P309    40.498399594   62.858909069   64.740167726 XXXX 1      pap     P   1.000
P310    40.498399594   62.858909069   71.615167726 XXXX 1      pap     P   1.000
P311    40.498399594   62.858909069   78.490167726 XXXX 1      pap     P   1.000
P312    40.498399594   62.858909069   85.365167726 XXXX 1      pap     P   1.000
P313    48.653760822   39.316409069   37.240167726 XXXX 1      pap     P   1.000
P314    48.653760822   39.316409069   44.115167726 XXXX 1      pap     P   1.000
P315    48.653760822   39.316409069   50.990167726 XXXX 1      pap     P   1.000
P316    48.653760822   39.316409069   57.865167726 XXXX 1      pap     P   1.000
P317    48.653760822   39.316409069   64.740167726 XXXX 1      pap     P   1.000
P318    48.653760822   39.316409069   71.615167726 XXXX 1      pap     P   1.000
P319    48.653760822   39.316409069   78.490167726 XXXX 1      pap     P   1.000
P320    48.653760822   39.316409069   85.365167726 XXXX 1      pap     P   1.000
P321    48.653760822   48.733409069   37.240167726 XXXX 1      pap     P   1.000
P322    48.653760822   48.733409069   44.115167726 XXXX 1      pap     P   1.000
P323    48.653760822   48.733409069   50.990167726 XXXX 1      pap     P   1.000
P324    48.653760822   48.733409069   57.865167726 XXXX 1      pap     P   1.000
P325    48.653760822   48.733409069   64.740167726 XXXX 1      pap     P   1.000
P326    48.653760822   48.733409069   71.615167726 XXXX 1      pap     P   1.000
P327    48.653760822   48.733409069   78.490167726 XXXX 1      pap     P   1.000
P328    48.653760822   48.733409069   85.365167726 XXXX 1      pap     P   1.000
P329    48.653760822   58.150409069   37.240167726 XXXX 1      pap     P   1.000
P330    48.653760822   58.150409069   44.115167726 XXXX 1      pap     P   1.000
P331    48.653760822   58.150409069   50.990167726 XXXX 1      pap     P   1.000
P332    48.653760822   58.150409069   57.865167726 XXXX 1      pap     P   1.000
P333    48.653760822   58.150409069   64.740167726 XXXX 1      pap     P   1.000
P334    48.653760822   58.150409069   71.615167726 XXXX 1      pap     P   1.000
P335    48.653760822   58.150409069   78.490167726 XXXX 1      pap     P   1.000
P336    48.653760822   58.150409069   85.365167726 XXXX 1      pap     P   1.000
P337    48.653760822   67.567409069   37.240167726 XXXX 1      pap     P   1.000
P338    48.653760822   67.567409069   44.115167726 XXXX 1      pap     P   1.000
P339    48.653760822   67.567409069   50.990167726 XXXX 1      pap     P   1.000
P340    48.653760822   67.567409069   57.865167726 XXXX 1      pap     P   1.000
P341    48.653760822   67.567409069   64.740167726 XXXX 1      pap     P   1.000
P342    48.653760822   67.567409069   71.615167726 XXXX 1      pap     P   1.000
P343    48.653760822   67.567409069   78.490167726 XXXX 1      pap     P   1.000
P344    48.653760822   67.567409069   85.365167726 XXXX 1      pap     P   1.000
P345    56.809122049   44.024909069   37.240167726 XXXX 1      pap     P   1.000
P346    56.809122049   44.024909069   44.115167726 XXXX 1      pap     P   1.000
P347    56.809122049   44.024909069   50.990167726 XXXX 1      pap     P   1.000
P348    56.809122049   44.024909069   57.865167726 XXXX 1      pap     P   1.000
P349    56.809122049   44.024909069   64.740167726 XXXX 1      pap     P   1.000
P350    56.809122049   44.024909069   71.615167726 XXXX 1      pap     P   1.000
P351    56.809122049   44.024909069   78.490167726 XXXX 1      pap     P   1.000
P352    56.809122049   44.024909069   85.365167726 XXXX 1      pap     P   1.000
P353    56.809122049   53.441909069   37.240167726 XXXX 1      pap     P   1.000
P354    56.809122049   53.441909069   44.115167726 XXXX 1      pap     P   1.000
P355    56.809122049   53.441909069   50.990167726 XXXX 1      pap     P   1.000
P356    56.809122049   53.441909069   57.865167726 XXXX 1      pap     P   1.000
P357    56.809122049   53.441909069   64.740167726 XXXX 1      pap     P   1.000
P358    56.809122049   53.441909069   71.615167726 XXXX 1      pap     P   1.000
P359    56.809122049   53.441909069   78.490167726 XXXX 1      pap     P   1.000
P360    56.809122049   53.441909069   85.365167726 XXXX 1      pap     P   1.000
P361    56.809122049   62.858909069   37.240167726 XXXX 1      pap     P   1.000
P362    56.809122049   62.858909069   44.115167726 XXXX 1      pap     P   1.000
P363    56.809122049   62.858909069   50.990167726 XXXX 1      pap     P   1.000
P364    56.809122049   62.858909069   57.865167726 XXXX 1      pap     P   1.000
P365    56.809122049   62.858909069   64.740167726 XXXX 1      pap     P   1.000
P366    56.809122049   62.858909069   71.615167726 XXXX 1      pap     P   1.000
P367    56.809122049   62.858909069   78.490167726 XXXX 1      pap     P   1.000
P368    56.809122049   62.858909069   85.365167726 XXXX 1      pap     P   1.000
P369    64.964483276   48.733409069   37.240167726 XXXX 1      pap     P   1.000
P370    64.964483276   48.733409069   44.115167726 XXXX 1      pap     P   1.000
P371    64.964483276   48.733409069   50.990167726 XXXX 1      pap     P   1.000
P372    64.964483276   48.733409069   57.865167726 XXXX 1      pap     P   1.000
P373    64.964483276   48.733409069   64.740167726 XXXX 1      pap     P   1.000
P374    64.964483276   48.733409069   71.615167726 XXXX 1      pap     P   1.000
P375    64.964483276   48.733409069   78.490167726 XXXX 1      pap     P   1.000
P376    64.964483276   48.733409069   85.365167726 XXXX 1      pap     P   1.000
P377    64.964483276   58.150409069   37.240167726 XXXX 1      pap     P   1.000
P378    64.964483276   58.150409069   44.115167726 XXXX 1      pap     P   1.000
P379    64.964483276   58.150409069   50.990167726 XXXX 1      pap     P   1.000
P380    64.964483276   58.150409069   57.865167726 XXXX 1      pap     P   1.000
P381    64.964483276   58.150409069   64.740167726 XXXX 1      pap     P   1.000
P382    64.964483276   58.150409069   71.615167726 XXXX 1      pap     P   1.000
P383    64.964483276   58.150409069   78.490167726 XXXX 1      pap     P   1.000
P384    64.964483276   58.150409069   85.365167726 XXXX 1      pap     P   1.000
O1729   39.713038503   42.703797792   37.240167726 XXXX 1      oap1    O  -0.800
O1730   39.713038503   42.703797792   44.115167726 XXXX 1      oap1    O  -0.800
O1731   39.713038503   42.703797792   50.990167726 XXXX 1      oap1    O  -0.800
O1732   39.713038503   42.703797792   57.865167726 XXXX 1      oap1    O  -0.800
O1733   39.713038503   42.703797792   64.740167726 XXXX 1      oap1    O  -0.800
O1734   39.713038503   42.703797792   71.615167726 XXXX 1      oap1    O  -0.800
O1735   39.713038503   42.703797792   78.490167726 XXXX 1      oap1    O  -0.800
O1736   39.713038503   42.703797792   85.365167726 XXXX 1      oap1    O  -0.600
O1737   39.713038503   52.120797792   37.240167726 XXXX 1      oap1    O  -0.800
O1738   39.713038503   52.120797792   44.115167726 XXXX 1      oap1    O  -0.800
O1739   39.713038503   52.120797792   50.990167726 XXXX 1      oap1    O  -0.800
O1740   39.713038503   52.120797792   57.865167726 XXXX 1      oap1    O  -0.800
O1741   39.713038503   52.120797792   64.740167726 XXXX 1      oap1    O  -0.800
O1742   39.713038503   52.120797792   71.615167726 XXXX 1      oap1    O  -0.800
O1743   39.713038503   52.120797792   78.490167726 XXXX 1      oap1    O  -0.800
O1744   39.713038503   52.120797792   85.365167726 XXXX 1      oap1    O  -0.600
O1745   39.713038503   61.537797792   37.240167726 XXXX 1      oap1    O  -0.600
O1746   39.713038503   61.537797792   44.115167726 XXXX 1      oap1    O  -0.600
O1747   39.713038503   61.537797792   50.990167726 XXXX 1      oap1    O  -0.600
O1748   39.713038503   61.537797792   57.865167726 XXXX 1      oap1    O  -0.695
O1749   39.713038503   61.537797792   64.740167726 XXXX 1      oap1    O  -0.600
O1750   39.713038503   61.537797792   71.615167726 XXXX 1      oap1    O  -0.695
O1751   39.713038503   61.537797792   78.490167726 XXXX 1      oap1    O  -0.695
O1752   39.713038503   61.537797792   85.365167726 XXXX 1      oap1    O  -0.695
O1753   47.868399730   37.995297792   37.240167726 XXXX 1      oap1    O  -0.800
O1754   47.868399730   37.995297792   44.115167726 XXXX 1      oap1    O  -0.800
O1755   47.868399730   37.995297792   50.990167726 XXXX 1      oap1    O  -0.800
O1756   47.868399730   37.995297792   57.865167726 XXXX 1      oap1    O  -0.800
O1757   47.868399730   37.995297792   64.740167726 XXXX 1      oap1    O  -0.800
O1758   47.868399730   37.995297792   71.615167726 XXXX 1      oap1    O  -0.800
O1759   47.868399730   37.995297792   78.490167726 XXXX 1      oap1    O  -0.800
O1760   47.868399730   37.995297792   85.365167726 XXXX 1      oap1    O  -0.600
O1761   47.868399730   47.412297792   37.240167726 XXXX 1      oap1    O  -0.800
O1762   47.868399730   47.412297792   44.115167726 XXXX 1      oap1    O  -0.800
O1763   47.868399730   47.412297792   50.990167726 XXXX 1      oap1    O  -0.800
O1764   47.868399730   47.412297792   57.865167726 XXXX 1      oap1    O  -0.800
O1765   47.868399730   47.412297792   64.740167726 XXXX 1      oap1    O  -0.800
O1766   47.868399730   47.412297792   71.615167726 XXXX 1      oap1    O  -0.800
O1767   47.868399730   47.412297792   78.490167726 XXXX 1      oap1    O  -0.800
O1768   47.868399730   47.412297792   85.365167726 XXXX 1      oap1    O  -0.600
O1769   47.868399730   56.829297792   37.240167726 XXXX 1      oap1    O  -0.800
O1770   47.868399730   56.829297792   44.115167726 XXXX 1      oap1    O  -0.800
O1771   47.868399730   56.829297792   50.990167726 XXXX 1      oap1    O  -0.800
O1772   47.868399730   56.829297792   57.865167726 XXXX 1      oap1    O  -0.800
O1773   47.868399730   56.829297792   64.740167726 XXXX 1      oap1    O  -0.800
O1774   47.868399730   56.829297792   71.615167726 XXXX 1      oap1    O  -0.800
O1775   47.868399730   56.829297792   78.490167726 XXXX 1      oap1    O  -0.800
O1776   47.868399730   56.829297792   85.365167726 XXXX 1      oap1    O  -0.695
O1777   47.868399730   66.246297792   37.240167726 XXXX 1      oap1    O  -0.695
O1778   47.868399730   66.246297792   44.115167726 XXXX 1      oap1    O  -0.695
O1779   47.868399730   66.246297792   50.990167726 XXXX 1      oap1    O  -0.695
O1780   47.868399730   66.246297792   57.865167726 XXXX 1      oap1    O  -0.695
O1781   47.868399730   66.246297792   64.740167726 XXXX 1      oap1    O  -0.600
O1782   47.868399730   66.246297792   71.615167726 XXXX 1      oap1    O  -0.600
O1783   47.868399730   66.246297792   78.490167726 XXXX 1      oap1    O  -0.600
O1784   47.868399730   66.246297792   85.365167726 XXXX 1      oap1    O  -0.600
O1785   56.023760958   42.703797792   37.240167726 XXXX 1      oap1    O  -0.800
O1786   56.023760958   42.703797792   44.115167726 XXXX 1      oap1    O  -0.800
O1787   56.023760958   42.703797792   50.990167726 XXXX 1      oap1    O  -0.800
O1788   56.023760958   42.703797792   57.865167726 XXXX 1      oap1    O  -0.800
O1789   56.023760958   42.703797792   64.740167726 XXXX 1      oap1    O  -0.800
O1790   56.023760958   42.703797792   71.615167726 XXXX 1      oap1    O  -0.800
O1791   56.023760958   42.703797792   78.490167726 XXXX 1      oap1    O  -0.800
O1792   56.023760958   42.703797792   85.365167726 XXXX 1      oap1    O  -0.695
O1793   56.023760958   52.120797792   37.240167726 XXXX 1      oap1    O  -0.800
O1794   56.023760958   52.120797792   44.115167726 XXXX 1      oap1    O  -0.800
O1795   56.023760958   52.120797792   50.990167726 XXXX 1      oap1    O  -0.800
O1796   56.023760958   52.120797792   57.865167726 XXXX 1      oap1    O  -0.800
O1797   56.023760958   52.120797792   64.740167726 XXXX 1      oap1    O  -0.800
O1798   56.023760958   52.120797792   71.615167726 XXXX 1      oap1    O  -0.800
O1799   56.023760958   52.120797792   78.490167726 XXXX 1      oap1    O  -0.800
O1800   56.023760958   52.120797792   85.365167726 XXXX 1      oap1    O  -0.695
O1801   56.023760958   61.537797792   37.240167726 XXXX 1      oap1    O  -0.800
O1802   56.023760958   61.537797792   44.115167726 XXXX 1      oap1    O  -0.800
O1803   56.023760958   61.537797792   50.990167726 XXXX 1      oap1    O  -0.800
O1804   56.023760958   61.537797792   57.865167726 XXXX 1      oap1    O  -0.800
O1805   56.023760958   61.537797792   64.740167726 XXXX 1      oap1    O  -0.800
O1806   56.023760958   61.537797792   71.615167726 XXXX 1      oap1    O  -0.800
O1807   56.023760958   61.537797792   78.490167726 XXXX 1      oap1    O  -0.800
O1808   56.023760958   61.537797792   85.365167726 XXXX 1      oap1    O  -0.695
O1809   64.179122185   47.412297792   37.240167726 XXXX 1      oap1    O  -0.800
O1810   64.179122185   47.412297792   44.115167726 XXXX 1      oap1    O  -0.800
O1811   64.179122185   47.412297792   50.990167726 XXXX 1      oap1    O  -0.800
O1812   64.179122185   47.412297792   57.865167726 XXXX 1      oap1    O  -0.800
O1813   64.179122185   47.412297792   64.740167726 XXXX 1      oap1    O  -0.800
O1814   64.179122185   47.412297792   71.615167726 XXXX 1      oap1    O  -0.800
O1815   64.179122185   47.412297792   78.490167726 XXXX 1      oap1    O  -0.800
O1816   64.179122185   47.412297792   85.365167726 XXXX 1      oap1    O  -0.695
O1817   64.179122185   56.829297792   37.240167726 XXXX 1      oap1    O  -0.800
O1818   64.179122185   56.829297792   44.115167726 XXXX 1      oap1    O  -0.800
O1819   64.179122185   56.829297792   50.990167726 XXXX 1      oap1    O  -0.800
O1820   64.179122185   56.829297792   57.865167726 XXXX 1      oap1    O  -0.800
O1821   64.179122185   56.829297792   64.740167726 XXXX 1      oap1    O  -0.800
O1822   64.179122185   56.829297792   71.615167726 XXXX 1      oap1    O  -0.800
O1823   64.179122185   56.829297792   78.490167726 XXXX 1      oap1    O  -0.800
O1824   64.179122185   56.829297792   85.365167726 XXXX 1      oap1    O  -0.695
O1825   39.549115519   45.229908356   37.240167726 XXXX 1      oap1    O  -0.800
O1826   39.549115519   45.229908356   44.115167726 XXXX 1      oap1    O  -0.800
O1827   39.549115519   45.229908356   50.990167726 XXXX 1      oap1    O  -0.800
O1828   39.549115519   45.229908356   57.865167726 XXXX 1      oap1    O  -0.800
O1829   39.549115519   45.229908356   64.740167726 XXXX 1      oap1    O  -0.800
O1830   39.549115519   45.229908356   71.615167726 XXXX 1      oap1    O  -0.800
O1831   39.549115519   45.229908356   78.490167726 XXXX 1      oap1    O  -0.800
O1832   39.549115519   45.229908356   85.365167726 XXXX 1      oap1    O  -0.695
O1833   39.549115519   54.646908356   37.240167726 XXXX 1      oap1    O  -0.800
O1834   39.549115519   54.646908356   44.115167726 XXXX 1      oap1    O  -0.800
O1835   39.549115519   54.646908356   50.990167726 XXXX 1      oap1    O  -0.800
O1836   39.549115519   54.646908356   57.865167726 XXXX 1      oap1    O  -0.800
O1837   39.549115519   54.646908356   64.740167726 XXXX 1      oap1    O  -0.800
O1838   39.549115519   54.646908356   71.615167726 XXXX 1      oap1    O  -0.800
O1839   39.549115519   54.646908356   78.490167726 XXXX 1      oap1    O  -0.800
O1840   39.549115519   54.646908356   85.365167726 XXXX 1      oap1    O  -0.695
O1841   39.549115519   64.063908356   37.240167726 XXXX 1      oap1    O  -0.600
O1842   39.549115519   64.063908356   44.115167726 XXXX 1      oap1    O  -0.600
O1843   39.549115519   64.063908356   50.990167726 XXXX 1      oap1    O  -0.600
O1844   39.549115519   64.063908356   57.865167726 XXXX 1      oap1    O  -0.600
O1845   39.549115519   64.063908356   64.740167726 XXXX 1      oap1    O  -0.600
O1846   39.549115519   64.063908356   71.615167726 XXXX 1      oap1    O  -0.600
O1847   39.549115519   64.063908356   78.490167726 XXXX 1      oap1    O  -0.600
O1848   39.549115519   64.063908356   85.365167726 XXXX 1      oap1    O  -0.600
O1849   47.704476747   40.521408356   37.240167726 XXXX 1      oap1    O  -0.800
O1850   47.704476747   40.521408356   44.115167726 XXXX 1      oap1    O  -0.800
O1851   47.704476747   40.521408356   50.990167726 XXXX 1      oap1    O  -0.800
O1852   47.704476747   40.521408356   57.865167726 XXXX 1      oap1    O  -0.800
O1853   47.704476747   40.521408356   64.740167726 XXXX 1      oap1    O  -0.800
O1854   47.704476747   40.521408356   71.615167726 XXXX 1      oap1    O  -0.800
O1855   47.704476747   40.521408356   78.490167726 XXXX 1      oap1    O  -0.800
O1856   47.704476747   40.521408356   85.365167726 XXXX 1      oap1    O  -0.695
O1857   47.704476747   49.938408356   37.240167726 XXXX 1      oap1    O  -0.800
O1858   47.704476747   49.938408356   44.115167726 XXXX 1      oap1    O  -0.800
O1859   47.704476747   49.938408356   50.990167726 XXXX 1      oap1    O  -0.800
O1860   47.704476747   49.938408356   57.865167726 XXXX 1      oap1    O  -0.800
O1861   47.704476747   49.938408356   64.740167726 XXXX 1      oap1    O  -0.800
O1862   47.704476747   49.938408356   71.615167726 XXXX 1      oap1    O  -0.800
O1863   47.704476747   49.938408356   78.490167726 XXXX 1      oap1    O  -0.800
O1864   47.704476747   49.938408356   85.365167726 XXXX 1      oap1    O  -0.695
O1865   47.704476747   59.355408356   37.240167726 XXXX 1      oap1    O  -0.800
O1866   47.704476747   59.355408356   44.115167726 XXXX 1      oap1    O  -0.800
O1867   47.704476747   59.355408356   50.990167726 XXXX 1      oap1    O  -0.800
O1868   47.704476747   59.355408356   57.865167726 XXXX 1      oap1    O  -0.800
O1869   47.704476747   59.355408356   64.740167726 XXXX 1      oap1    O  -0.800
O1870   47.704476747   59.355408356   71.615167726 XXXX 1      oap1    O  -0.800
O1871   47.704476747   59.355408356   78.490167726 XXXX 1      oap1    O  -0.800
O1872   47.704476747   59.355408356   85.365167726 XXXX 1      oap1    O  -0.600
O1873   47.704476747   68.772408356   37.240167726 XXXX 1      oap1    O  -0.600
O1874   47.704476747   68.772408356   44.115167726 XXXX 1      oap1    O  -0.600
O1875   47.704476747   68.772408356   50.990167726 XXXX 1      oap1    O  -0.600
O1876   47.704476747   68.772408356   57.865167726 XXXX 1      oap1    O  -0.600
O1877   47.704476747   68.772408356   64.740167726 XXXX 1      oap1    O  -0.600
O1878   47.704476747   68.772408356   71.615167726 XXXX 1      oap1    O  -0.600
O1879   47.704476747   68.772408356   78.490167726 XXXX 1      oap1    O  -0.600
O1880   47.704476747   68.772408356   85.365167726 XXXX 1      oap1    O  -0.600
O1881   55.859837974   45.229908356   37.240167726 XXXX 1      oap1    O  -0.800
O1882   55.859837974   45.229908356   44.115167726 XXXX 1      oap1    O  -0.800
O1883   55.859837974   45.229908356   50.990167726 XXXX 1      oap1    O  -0.800
O1884   55.859837974   45.229908356   57.865167726 XXXX 1      oap1    O  -0.800
O1885   55.859837974   45.229908356   64.740167726 XXXX 1      oap1    O  -0.800
O1886   55.859837974   45.229908356   71.615167726 XXXX 1      oap1    O  -0.800
O1887   55.859837974   45.229908356   78.490167726 XXXX 1      oap1    O  -0.800
O1888   55.859837974   45.229908356   85.365167726 XXXX 1      oap1    O  -0.600
O1889   55.859837974   54.646908356   37.240167726 XXXX 1      oap1    O  -0.800
O1890   55.859837974   54.646908356   44.115167726 XXXX 1      oap1    O  -0.800
O1891   55.859837974   54.646908356   50.990167726 XXXX 1      oap1    O  -0.800
O1892   55.859837974   54.646908356   57.865167726 XXXX 1      oap1    O  -0.800
O1893   55.859837974   54.646908356   64.740167726 XXXX 1      oap1    O  -0.800
O1894   55.859837974   54.646908356   71.615167726 XXXX 1      oap1    O  -0.800
O1895   55.859837974   54.646908356   78.490167726 XXXX 1      oap1    O  -0.800
O1896   55.859837974   54.646908356   85.365167726 XXXX 1      oap1    O  -0.600
O1897   55.859837974   64.063908356   37.240167726 XXXX 1      oap1    O  -0.800
O1898   55.859837974   64.063908356   44.115167726 XXXX 1      oap1    O  -0.800
O1899   55.859837974   64.063908356   50.990167726 XXXX 1      oap1    O  -0.800
O1900   55.859837974   64.063908356   57.865167726 XXXX 1      oap1    O  -0.800
O1901   55.859837974   64.063908356   64.740167726 XXXX 1      oap1    O  -0.800
O1902   55.859837974   64.063908356   71.615167726 XXXX 1      oap1    O  -0.800
O1903   55.859837974   64.063908356   78.490167726 XXXX 1      oap1    O  -0.800
O1904   55.859837974   64.063908356   85.365167726 XXXX 1      oap1    O  -0.600
O1905   64.015199202   49.938408356   37.240167726 XXXX 1      oap1    O  -0.800
O1906   64.015199202   49.938408356   44.115167726 XXXX 1      oap1    O  -0.800
O1907   64.015199202   49.938408356   50.990167726 XXXX 1      oap1    O  -0.800
O1908   64.015199202   49.938408356   57.865167726 XXXX 1      oap1    O  -0.800
O1909   64.015199202   49.938408356   64.740167726 XXXX 1      oap1    O  -0.800
O1910   64.015199202   49.938408356   71.615167726 XXXX 1      oap1    O  -0.800
O1911   64.015199202   49.938408356   78.490167726 XXXX 1      oap1    O  -0.800
O1912   64.015199202   49.938408356   85.365167726 XXXX 1      oap1    O  -0.600
O1913   64.015199202   59.355408356   37.240167726 XXXX 1      oap1    O  -0.800
O1914   64.015199202   59.355408356   44.115167726 XXXX 1      oap1    O  -0.800
O1915   64.015199202   59.355408356   50.990167726 XXXX 1      oap1    O  -0.800
O1916   64.015199202   59.355408356   57.865167726 XXXX 1      oap1    O  -0.800
O1917   64.015199202   59.355408356   64.740167726 XXXX 1      oap1    O  -0.800
O1918   64.015199202   59.355408356   71.615167726 XXXX 1      oap1    O  -0.800
O1919   64.015199202   59.355408356   78.490167726 XXXX 1      oap1    O  -0.800
O1920   64.015199202   59.355408356   85.365167726 XXXX 1      oap1    O  -0.600
Ca628   37.363968149   42.436449497   37.240167726 XXXX 1      ca+h    Ca  1.500
Ca629   37.363968149   42.436449497   44.115167726 XXXX 1      ca+h    Ca  1.500
Ca630   37.363968149   42.436449497   57.865167726 XXXX 1      ca+h    Ca  1.500
Ca631   37.363968149   42.436449497   64.740167726 XXXX 1      ca+h    Ca  1.500
Ca632   37.363968149   51.853449497   44.115167726 XXXX 1      ca+h    Ca  1.500
Ca633   37.363968149   51.853449497   50.990167726 XXXX 1      ca+h    Ca  1.500
Ca634   37.363968149   51.853449497   57.865167726 XXXX 1      ca+h    Ca  1.500
Ca635   37.363968149   51.853449497   64.740167726 XXXX 1      ca+h    Ca  1.500
Ca636   37.363968149   51.853449497   71.615167726 XXXX 1      ca+h    Ca  1.500
Ca637   45.519329376   37.727949497   44.115167726 XXXX 1      ca+h    Ca  1.500
Ca638   45.519329376   37.727949497   57.865167726 XXXX 1      ca+h    Ca  1.500
Ca639   45.519329376   37.727949497   64.740167726 XXXX 1      ca+h    Ca  1.500
Ca640   45.519329376   37.727949497   71.615167726 XXXX 1      ca+h    Ca  1.500
Ca641   45.519329376   37.727949497   78.490167726 XXXX 1      ca+h    Ca  1.500
Ca642   45.519329376   37.727949497   85.365167726 XXXX 1      ca+h    Ca  1.500
Ca643   45.519329376   47.144949497   37.240167726 XXXX 1      ca+h    Ca  1.500
Ca644   45.519329376   47.144949497   44.115167726 XXXX 1      ca+h    Ca  1.500
Ca645   45.519329376   47.144949497   50.990167726 XXXX 1      ca+h    Ca  1.500
Ca646   45.519329376   47.144949497   57.865167726 XXXX 1      ca+h    Ca  1.500
Ca647   45.519329376   47.144949497   64.740167726 XXXX 1      ca+h    Ca  1.500
Ca648   45.519329376   47.144949497   71.615167726 XXXX 1      ca+h    Ca  1.500
Ca649   45.519329376   47.144949497   78.490167726 XXXX 1      ca+h    Ca  1.500
Ca650   45.519329376   56.561949497   37.240167726 XXXX 1      ca+h    Ca  1.500
Ca651   45.519329376   56.561949497   44.115167726 XXXX 1      ca+h    Ca  1.500
Ca652   45.519329376   56.561949497   50.990167726 XXXX 1      ca+h    Ca  1.500
Ca653   45.519329376   56.561949497   57.865167726 XXXX 1      ca+h    Ca  1.500
Ca654   45.519329376   56.561949497   64.740167726 XXXX 1      ca+h    Ca  1.500
Ca655   45.519329376   56.561949497   71.615167726 XXXX 1      ca+h    Ca  1.500
Ca656   45.519329376   56.561949497   78.490167726 XXXX 1      ca+h    Ca  1.500
Ca657   53.674690604   42.436449497   37.240167726 XXXX 1      ca+h    Ca  1.500
Ca658   53.674690604   42.436449497   44.115167726 XXXX 1      ca+h    Ca  1.500
Ca659   53.674690604   42.436449497   50.990167726 XXXX 1      ca+h    Ca  1.500
Ca660   53.674690604   42.436449497   57.865167726 XXXX 1      ca+h    Ca  1.500
Ca661   53.674690604   42.436449497   64.740167726 XXXX 1      ca+h    Ca  1.500
Ca662   53.674690604   42.436449497   71.615167726 XXXX 1      ca+h    Ca  1.500
Ca663   53.674690604   42.436449497   78.490167726 XXXX 1      ca+h    Ca  1.500
Ca664   53.674690604   51.853449497   37.240167726 XXXX 1      ca+h    Ca  1.500
Ca665   53.674690604   51.853449497   44.115167726 XXXX 1      ca+h    Ca  1.500
Ca666   53.674690604   51.853449497   50.990167726 XXXX 1      ca+h    Ca  1.500
Ca667   53.674690604   51.853449497   57.865167726 XXXX 1      ca+h    Ca  1.500
Ca668   53.674690604   51.853449497   64.740167726 XXXX 1      ca+h    Ca  1.500
Ca669   53.674690604   51.853449497   71.615167726 XXXX 1      ca+h    Ca  1.500
Ca670   53.674690604   51.853449497   78.490167726 XXXX 1      ca+h    Ca  1.500
Ca671   53.674690604   61.270449497   37.240167726 XXXX 1      ca+h    Ca  1.500
Ca672   53.674690604   61.270449497   44.115167726 XXXX 1      ca+h    Ca  1.500
Ca673   53.674690604   61.270449497   50.990167726 XXXX 1      ca+h    Ca  1.500
Ca674   53.674690604   61.270449497   57.865167726 XXXX 1      ca+h    Ca  1.500
Ca675   53.674690604   61.270449497   64.740167726 XXXX 1      ca+h    Ca  1.500
Ca676   53.674690604   61.270449497   71.615167726 XXXX 1      ca+h    Ca  1.500
Ca677   53.674690604   61.270449497   78.490167726 XXXX 1      ca+h    Ca  1.500
Ca678   53.674690604   61.270449497   85.365167726 XXXX 1      ca+h    Ca  1.500
Ca679   61.830051831   47.144949497   37.240167726 XXXX 1      ca+h    Ca  1.500
Ca680   61.830051831   47.144949497   44.115167726 XXXX 1      ca+h    Ca  1.500
Ca681   61.830051831   47.144949497   50.990167726 XXXX 1      ca+h    Ca  1.500
Ca682   61.830051831   47.144949497   57.865167726 XXXX 1      ca+h    Ca  1.500
Ca683   61.830051831   47.144949497   64.740167726 XXXX 1      ca+h    Ca  1.500
Ca684   61.830051831   47.144949497   71.615167726 XXXX 1      ca+h    Ca  1.500
Ca685   61.830051831   47.144949497   78.490167726 XXXX 1      ca+h    Ca  1.500
Ca686   61.830051831   56.561949497   37.240167726 XXXX 1      ca+h    Ca  1.500
Ca687   61.830051831   56.561949497   44.115167726 XXXX 1      ca+h    Ca  1.500
Ca688   61.830051831   56.561949497   50.990167726 XXXX 1      ca+h    Ca  1.500
Ca689   61.830051831   56.561949497   57.865167726 XXXX 1      ca+h    Ca  1.500
Ca690   61.830051831   56.561949497   64.740167726 XXXX 1      ca+h    Ca  1.500
Ca691   61.830051831   56.561949497   71.615167726 XXXX 1      ca+h    Ca  1.500
Ca692   61.830051831   56.561949497   78.490167726 XXXX 1      ca+h    Ca  1.500
P385    38.600320945   39.741021504   37.240167726 XXXX 1      pap     P   1.000
P386    38.600320945   39.741021504   44.115167726 XXXX 1      pap     P   1.000
P387    38.600320945   39.741021504   50.990167726 XXXX 1      pap     P   1.000
P388    38.600320945   39.741021504   57.865167726 XXXX 1      pap     P   1.000
P389    38.600320945   39.741021504   64.740167726 XXXX 1      pap     P   1.000
P390    38.600320945   39.741021504   71.615167726 XXXX 1      pap     P   1.000
P391    38.600320945   39.741021504   78.490167726 XXXX 1      pap     P   1.000
P392    38.600320945   39.741021504   85.365167726 XXXX 1      pap     P   1.000
P393    38.600320945   49.158021504   37.240167726 XXXX 1      pap     P   1.000
P394    38.600320945   49.158021504   44.115167726 XXXX 1      pap     P   1.000
P395    38.600320945   49.158021504   50.990167726 XXXX 1      pap     P   1.000
P396    38.600320945   49.158021504   57.865167726 XXXX 1      pap     P   1.000
P397    38.600320945   49.158021504   64.740167726 XXXX 1      pap     P   1.000
P398    38.600320945   49.158021504   71.615167726 XXXX 1      pap     P   1.000
P399    38.600320945   49.158021504   78.490167726 XXXX 1      pap     P   1.000
P400    38.600320945   49.158021504   85.365167726 XXXX 1      pap     P   1.000
P401    38.600320945   58.575021504   37.240167726 XXXX 1      pap     P   1.000
P402    38.600320945   58.575021504   44.115167726 XXXX 1      pap     P   1.000
P403    38.600320945   58.575021504   50.990167726 XXXX 1      pap     P   1.000
P404    38.600320945   58.575021504   57.865167726 XXXX 1      pap     P   1.000
P405    38.600320945   58.575021504   64.740167726 XXXX 1      pap     P   1.000
P406    38.600320945   58.575021504   71.615167726 XXXX 1      pap     P   1.000
P407    38.600320945   58.575021504   78.490167726 XXXX 1      pap     P   1.000
P408    38.600320945   58.575021504   85.365167726 XXXX 1      pap     P   1.000
P409    46.755682172   35.032521504   37.240167726 XXXX 1      pap     P   1.000
P410    46.755682172   35.032521504   44.115167726 XXXX 1      pap     P   1.000
P411    46.755682172   35.032521504   50.990167726 XXXX 1      pap     P   1.000
P412    46.755682172   35.032521504   57.865167726 XXXX 1      pap     P   1.000
P413    46.755682172   35.032521504   64.740167726 XXXX 1      pap     P   1.000
P414    46.755682172   35.032521504   71.615167726 XXXX 1      pap     P   1.000
P415    46.755682172   35.032521504   78.490167726 XXXX 1      pap     P   1.000
P416    46.755682172   35.032521504   85.365167726 XXXX 1      pap     P   1.000
P417    46.755682172   44.449521504   37.240167726 XXXX 1      pap     P   1.000
P418    46.755682172   44.449521504   44.115167726 XXXX 1      pap     P   1.000
P419    46.755682172   44.449521504   50.990167726 XXXX 1      pap     P   1.000
P420    46.755682172   44.449521504   57.865167726 XXXX 1      pap     P   1.000
P421    46.755682172   44.449521504   64.740167726 XXXX 1      pap     P   1.000
P422    46.755682172   44.449521504   71.615167726 XXXX 1      pap     P   1.000
P423    46.755682172   44.449521504   78.490167726 XXXX 1      pap     P   1.000
P424    46.755682172   44.449521504   85.365167726 XXXX 1      pap     P   1.000
P425    46.755682172   53.866521504   37.240167726 XXXX 1      pap     P   1.000
P426    46.755682172   53.866521504   44.115167726 XXXX 1      pap     P   1.000
P427    46.755682172   53.866521504   50.990167726 XXXX 1      pap     P   1.000
P428    46.755682172   53.866521504   57.865167726 XXXX 1      pap     P   1.000
P429    46.755682172   53.866521504   64.740167726 XXXX 1      pap     P   1.000
P430    46.755682172   53.866521504   71.615167726 XXXX 1      pap     P   1.000
P431    46.755682172   53.866521504   78.490167726 XXXX 1      pap     P   1.000
P432    46.755682172   53.866521504   85.365167726 XXXX 1      pap     P   1.000
P433    46.755682172   63.283521504   37.240167726 XXXX 1      pap     P   1.000
P434    46.755682172   63.283521504   44.115167726 XXXX 1      pap     P   1.000
P435    46.755682172   63.283521504   50.990167726 XXXX 1      pap     P   1.000
P436    46.755682172   63.283521504   57.865167726 XXXX 1      pap     P   1.000
P437    46.755682172   63.283521504   64.740167726 XXXX 1      pap     P   1.000
P438    46.755682172   63.283521504   71.615167726 XXXX 1      pap     P   1.000
P439    46.755682172   63.283521504   78.490167726 XXXX 1      pap     P   1.000
P440    46.755682172   63.283521504   85.365167726 XXXX 1      pap     P   1.000
P441    54.911043399   39.741021504   37.240167726 XXXX 1      pap     P   1.000
P442    54.911043399   39.741021504   44.115167726 XXXX 1      pap     P   1.000
P443    54.911043399   39.741021504   50.990167726 XXXX 1      pap     P   1.000
P444    54.911043399   39.741021504   57.865167726 XXXX 1      pap     P   1.000
P445    54.911043399   39.741021504   64.740167726 XXXX 1      pap     P   1.000
P446    54.911043399   39.741021504   71.615167726 XXXX 1      pap     P   1.000
P447    54.911043399   39.741021504   78.490167726 XXXX 1      pap     P   1.000
P448    54.911043399   39.741021504   85.365167726 XXXX 1      pap     P   1.000
P449    54.911043399   49.158021504   37.240167726 XXXX 1      pap     P   1.000
P450    54.911043399   49.158021504   44.115167726 XXXX 1      pap     P   1.000
P451    54.911043399   49.158021504   50.990167726 XXXX 1      pap     P   1.000
P452    54.911043399   49.158021504   57.865167726 XXXX 1      pap     P   1.000
P453    54.911043399   49.158021504   64.740167726 XXXX 1      pap     P   1.000
P454    54.911043399   49.158021504   71.615167726 XXXX 1      pap     P   1.000
P455    54.911043399   49.158021504   78.490167726 XXXX 1      pap     P   1.000
P456    54.911043399   49.158021504   85.365167726 XXXX 1      pap     P   1.000
P457    54.911043399   58.575021504   37.240167726 XXXX 1      pap     P   1.000
P458    54.911043399   58.575021504   44.115167726 XXXX 1      pap     P   1.000
P459    54.911043399   58.575021504   50.990167726 XXXX 1      pap     P   1.000
P460    54.911043399   58.575021504   57.865167726 XXXX 1      pap     P   1.000
P461    54.911043399   58.575021504   64.740167726 XXXX 1      pap     P   1.000
P462    54.911043399   58.575021504   71.615167726 XXXX 1      pap     P   1.000
P463    54.911043399   58.575021504   78.490167726 XXXX 1      pap     P   1.000
P464    54.911043399   58.575021504   85.365167726 XXXX 1      pap     P   1.000
P465    63.066404627   44.449521504   37.240167726 XXXX 1      pap     P   1.000
P466    63.066404627   44.449521504   44.115167726 XXXX 1      pap     P   1.000
P467    63.066404627   44.449521504   50.990167726 XXXX 1      pap     P   1.000
P468    63.066404627   44.449521504   57.865167726 XXXX 1      pap     P   1.000
P469    63.066404627   44.449521504   64.740167726 XXXX 1      pap     P   1.000
P470    63.066404627   44.449521504   71.615167726 XXXX 1      pap     P   1.000
P471    63.066404627   44.449521504   78.490167726 XXXX 1      pap     P   1.000
P472    63.066404627   44.449521504   85.365167726 XXXX 1      pap     P   1.000
P473    63.066404627   53.866521504   37.240167726 XXXX 1      pap     P   1.000
P474    63.066404627   53.866521504   44.115167726 XXXX 1      pap     P   1.000
P475    63.066404627   53.866521504   50.990167726 XXXX 1      pap     P   1.000
P476    63.066404627   53.866521504   57.865167726 XXXX 1      pap     P   1.000
P477    63.066404627   53.866521504   64.740167726 XXXX 1      pap     P   1.000
P478    63.066404627   53.866521504   71.615167726 XXXX 1      pap     P   1.000
P479    63.066404627   53.866521504   78.490167726 XXXX 1      pap     P   1.000
P480    63.066404627   53.866521504   85.365167726 XXXX 1      pap     P   1.000
O1921   40.137117417   39.721434486   37.240167726 XXXX 1      oap1    O  -0.600
O1922   40.137117417   39.721434486   44.115167726 XXXX 1      oap1    O  -0.695
O1923   40.137117417   39.721434486   50.990167726 XXXX 1      oap1    O  -0.695
O1924   40.137117417   39.721434486   57.865167726 XXXX 1      oap1    O  -0.600
O1925   40.137117417   39.721434486   64.740167726 XXXX 1      oap1    O  -0.600
O1926   40.137117417   39.721434486   71.615167726 XXXX 1      oap1    O  -0.695
O1927   40.137117417   39.721434486   78.490167726 XXXX 1      oap1    O  -0.695
O1928   40.137117417   39.721434486   85.365167726 XXXX 1      oap1    O  -0.600
O1929   40.137117417   49.138434486   37.240167726 XXXX 1      oap1    O  -0.800
O1930   40.137117417   49.138434486   44.115167726 XXXX 1      oap1    O  -0.800
O1931   40.137117417   49.138434486   50.990167726 XXXX 1      oap1    O  -0.800
O1932   40.137117417   49.138434486   57.865167726 XXXX 1      oap1    O  -0.800
O1933   40.137117417   49.138434486   64.740167726 XXXX 1      oap1    O  -0.800
O1934   40.137117417   49.138434486   71.615167726 XXXX 1      oap1    O  -0.800
O1935   40.137117417   49.138434486   78.490167726 XXXX 1      oap1    O  -0.800
O1936   40.137117417   49.138434486   85.365167726 XXXX 1      oap1    O  -0.695
O1937   40.137117417   58.555434486   37.240167726 XXXX 1      oap1    O  -0.800
O1938   40.137117417   58.555434486   44.115167726 XXXX 1      oap1    O  -0.800
O1939   40.137117417   58.555434486   50.990167726 XXXX 1      oap1    O  -0.800
O1940   40.137117417   58.555434486   57.865167726 XXXX 1      oap1    O  -0.800
O1941   40.137117417   58.555434486   64.740167726 XXXX 1      oap1    O  -0.800
O1942   40.137117417   58.555434486   71.615167726 XXXX 1      oap1    O  -0.800
O1943   40.137117417   58.555434486   78.490167726 XXXX 1      oap1    O  -0.800
O1944   40.137117417   58.555434486   85.365167726 XXXX 1      oap1    O  -0.695
O1945   48.292478644   35.012934486   37.240167726 XXXX 1      oap1    O  -0.600
O1946   48.292478644   35.012934486   44.115167726 XXXX 1      oap1    O  -0.600
O1947   48.292478644   35.012934486   50.990167726 XXXX 1      oap1    O  -0.600
O1948   48.292478644   35.012934486   57.865167726 XXXX 1      oap1    O  -0.600
O1949   48.292478644   35.012934486   64.740167726 XXXX 1      oap1    O  -0.695
O1950   48.292478644   35.012934486   71.615167726 XXXX 1      oap1    O  -0.695
O1951   48.292478644   35.012934486   78.490167726 XXXX 1      oap1    O  -0.695
O1952   48.292478644   35.012934486   85.365167726 XXXX 1      oap1    O  -0.695
O1953   48.292478644   44.429934486   37.240167726 XXXX 1      oap1    O  -0.800
O1954   48.292478644   44.429934486   44.115167726 XXXX 1      oap1    O  -0.800
O1955   48.292478644   44.429934486   50.990167726 XXXX 1      oap1    O  -0.800
O1956   48.292478644   44.429934486   57.865167726 XXXX 1      oap1    O  -0.800
O1957   48.292478644   44.429934486   64.740167726 XXXX 1      oap1    O  -0.800
O1958   48.292478644   44.429934486   71.615167726 XXXX 1      oap1    O  -0.800
O1959   48.292478644   44.429934486   78.490167726 XXXX 1      oap1    O  -0.800
O1960   48.292478644   44.429934486   85.365167726 XXXX 1      oap1    O  -0.600
O1961   48.292478644   53.846934486   37.240167726 XXXX 1      oap1    O  -0.800
O1962   48.292478644   53.846934486   44.115167726 XXXX 1      oap1    O  -0.800
O1963   48.292478644   53.846934486   50.990167726 XXXX 1      oap1    O  -0.800
O1964   48.292478644   53.846934486   57.865167726 XXXX 1      oap1    O  -0.800
O1965   48.292478644   53.846934486   64.740167726 XXXX 1      oap1    O  -0.800
O1966   48.292478644   53.846934486   71.615167726 XXXX 1      oap1    O  -0.800
O1967   48.292478644   53.846934486   78.490167726 XXXX 1      oap1    O  -0.800
O1968   48.292478644   53.846934486   85.365167726 XXXX 1      oap1    O  -0.695
O1969   48.292478644   63.263934486   37.240167726 XXXX 1      oap1    O  -0.800
O1970   48.292478644   63.263934486   44.115167726 XXXX 1      oap1    O  -0.800
O1971   48.292478644   63.263934486   50.990167726 XXXX 1      oap1    O  -0.800
O1972   48.292478644   63.263934486   57.865167726 XXXX 1      oap1    O  -0.800
O1973   48.292478644   63.263934486   64.740167726 XXXX 1      oap1    O  -0.800
O1974   48.292478644   63.263934486   71.615167726 XXXX 1      oap1    O  -0.800
O1975   48.292478644   63.263934486   78.490167726 XXXX 1      oap1    O  -0.800
O1976   48.292478644   63.263934486   85.365167726 XXXX 1      oap1    O  -0.695
O1977   56.447839872   39.721434486   37.240167726 XXXX 1      oap1    O  -0.800
O1978   56.447839872   39.721434486   44.115167726 XXXX 1      oap1    O  -0.800
O1979   56.447839872   39.721434486   50.990167726 XXXX 1      oap1    O  -0.800
O1980   56.447839872   39.721434486   57.865167726 XXXX 1      oap1    O  -0.800
O1981   56.447839872   39.721434486   64.740167726 XXXX 1      oap1    O  -0.800
O1982   56.447839872   39.721434486   71.615167726 XXXX 1      oap1    O  -0.800
O1983   56.447839872   39.721434486   78.490167726 XXXX 1      oap1    O  -0.800
O1984   56.447839872   39.721434486   85.365167726 XXXX 1      oap1    O  -0.600
O1985   56.447839872   49.138434486   37.240167726 XXXX 1      oap1    O  -0.800
O1986   56.447839872   49.138434486   44.115167726 XXXX 1      oap1    O  -0.800
O1987   56.447839872   49.138434486   50.990167726 XXXX 1      oap1    O  -0.800
O1988   56.447839872   49.138434486   57.865167726 XXXX 1      oap1    O  -0.800
O1989   56.447839872   49.138434486   64.740167726 XXXX 1      oap1    O  -0.800
O1990   56.447839872   49.138434486   71.615167726 XXXX 1      oap1    O  -0.800
O1991   56.447839872   49.138434486   78.490167726 XXXX 1      oap1    O  -0.800
O1992   56.447839872   49.138434486   85.365167726 XXXX 1      oap1    O  -0.600
O1993   56.447839872   58.555434486   37.240167726 XXXX 1      oap1    O  -0.800
O1994   56.447839872   58.555434486   44.115167726 XXXX 1      oap1    O  -0.800
O1995   56.447839872   58.555434486   50.990167726 XXXX 1      oap1    O  -0.800
O1996   56.447839872   58.555434486   57.865167726 XXXX 1      oap1    O  -0.800
O1997   56.447839872   58.555434486   64.740167726 XXXX 1      oap1    O  -0.800
O1998   56.447839872   58.555434486   71.615167726 XXXX 1      oap1    O  -0.800
O1999   56.447839872   58.555434486   78.490167726 XXXX 1      oap1    O  -0.800
O2000   56.447839872   58.555434486   85.365167726 XXXX 1      oap1    O  -0.600
O2001   64.603201099   44.429934486   37.240167726 XXXX 1      oap1    O  -0.800
O2002   64.603201099   44.429934486   44.115167726 XXXX 1      oap1    O  -0.800
O2003   64.603201099   44.429934486   50.990167726 XXXX 1      oap1    O  -0.800
O2004   64.603201099   44.429934486   57.865167726 XXXX 1      oap1    O  -0.800
O2005   64.603201099   44.429934486   64.740167726 XXXX 1      oap1    O  -0.800
O2006   64.603201099   44.429934486   71.615167726 XXXX 1      oap1    O  -0.800
O2007   64.603201099   44.429934486   78.490167726 XXXX 1      oap1    O  -0.800
O2008   64.603201099   44.429934486   85.365167726 XXXX 1      oap1    O  -0.600
O2009   64.603201099   53.846934486   37.240167726 XXXX 1      oap1    O  -0.800
O2010   64.603201099   53.846934486   44.115167726 XXXX 1      oap1    O  -0.800
O2011   64.603201099   53.846934486   50.990167726 XXXX 1      oap1    O  -0.800
O2012   64.603201099   53.846934486   57.865167726 XXXX 1      oap1    O  -0.800
O2013   64.603201099   53.846934486   64.740167726 XXXX 1      oap1    O  -0.800
O2014   64.603201099   53.846934486   71.615167726 XXXX 1      oap1    O  -0.800
O2015   64.603201099   53.846934486   78.490167726 XXXX 1      oap1    O  -0.800
O2016   64.603201099   53.846934486   85.365167726 XXXX 1      oap1    O  -0.600
O2017   38.031402988   38.316417736   37.240167726 XXXX 1      oap1    O  -0.600
O2018   38.031402988   38.316417736   44.115167726 XXXX 1      oap1    O  -0.600
O2019   38.031402988   38.316417736   50.990167726 XXXX 1      oap1    O  -0.600
O2020   38.031402988   38.316417736   57.865167726 XXXX 1      oap1    O  -0.600
O2021   38.031402988   38.316417736   64.740167726 XXXX 1      oap1    O  -0.600
O2022   38.031402988   38.316417736   71.615167726 XXXX 1      oap1    O  -0.600
O2023   38.031402988   38.316417736   78.490167726 XXXX 1      oap1    O  -0.600
O2024   38.031402988   38.316417736   85.365167726 XXXX 1      oap1    O  -0.600
O2025   38.031402988   47.733417736   37.240167726 XXXX 1      oap1    O  -0.800
O2026   38.031402988   47.733417736   44.115167726 XXXX 1      oap1    O  -0.800
O2027   38.031402988   47.733417736   50.990167726 XXXX 1      oap1    O  -0.800
O2028   38.031402988   47.733417736   57.865167726 XXXX 1      oap1    O  -0.800
O2029   38.031402988   47.733417736   64.740167726 XXXX 1      oap1    O  -0.800
O2030   38.031402988   47.733417736   71.615167726 XXXX 1      oap1    O  -0.800
O2031   38.031402988   47.733417736   78.490167726 XXXX 1      oap1    O  -0.800
O2032   38.031402988   47.733417736   85.365167726 XXXX 1      oap1    O  -0.600
O2033   38.031402988   57.150417736   37.240167726 XXXX 1      oap1    O  -0.800
O2034   38.031402988   57.150417736   44.115167726 XXXX 1      oap1    O  -0.800
O2035   38.031402988   57.150417736   50.990167726 XXXX 1      oap1    O  -0.800
O2036   38.031402988   57.150417736   57.865167726 XXXX 1      oap1    O  -0.800
O2037   38.031402988   57.150417736   64.740167726 XXXX 1      oap1    O  -0.800
O2038   38.031402988   57.150417736   71.615167726 XXXX 1      oap1    O  -0.800
O2039   38.031402988   57.150417736   78.490167726 XXXX 1      oap1    O  -0.800
O2040   38.031402988   57.150417736   85.365167726 XXXX 1      oap1    O  -0.600
O2041   46.186764216   33.607917736   37.240167726 XXXX 1      oap1    O  -0.600
O2042   46.186764216   33.607917736   44.115167726 XXXX 1      oap1    O  -0.600
O2043   46.186764216   33.607917736   50.990167726 XXXX 1      oap1    O  -0.600
O2044   46.186764216   33.607917736   57.865167726 XXXX 1      oap1    O  -0.600
O2045   46.186764216   33.607917736   64.740167726 XXXX 1      oap1    O  -0.600
O2046   46.186764216   33.607917736   71.615167726 XXXX 1      oap1    O  -0.600
O2047   46.186764216   33.607917736   78.490167726 XXXX 1      oap1    O  -0.600
O2048   46.186764216   33.607917736   85.365167726 XXXX 1      oap1    O  -0.600
O2049   46.186764216   43.024917736   37.240167726 XXXX 1      oap1    O  -0.800
O2050   46.186764216   43.024917736   44.115167726 XXXX 1      oap1    O  -0.800
O2051   46.186764216   43.024917736   50.990167726 XXXX 1      oap1    O  -0.800
O2052   46.186764216   43.024917736   57.865167726 XXXX 1      oap1    O  -0.800
O2053   46.186764216   43.024917736   64.740167726 XXXX 1      oap1    O  -0.800
O2054   46.186764216   43.024917736   71.615167726 XXXX 1      oap1    O  -0.800
O2055   46.186764216   43.024917736   78.490167726 XXXX 1      oap1    O  -0.800
O2056   46.186764216   43.024917736   85.365167726 XXXX 1      oap1    O  -0.695
O2057   46.186764216   52.441917736   37.240167726 XXXX 1      oap1    O  -0.800
O2058   46.186764216   52.441917736   44.115167726 XXXX 1      oap1    O  -0.800
O2059   46.186764216   52.441917736   50.990167726 XXXX 1      oap1    O  -0.800
O2060   46.186764216   52.441917736   57.865167726 XXXX 1      oap1    O  -0.800
O2061   46.186764216   52.441917736   64.740167726 XXXX 1      oap1    O  -0.800
O2062   46.186764216   52.441917736   71.615167726 XXXX 1      oap1    O  -0.800
O2063   46.186764216   52.441917736   78.490167726 XXXX 1      oap1    O  -0.800
O2064   46.186764216   52.441917736   85.365167726 XXXX 1      oap1    O  -0.600
O2065   46.186764216   61.858917736   37.240167726 XXXX 1      oap1    O  -0.800
O2066   46.186764216   61.858917736   44.115167726 XXXX 1      oap1    O  -0.800
O2067   46.186764216   61.858917736   50.990167726 XXXX 1      oap1    O  -0.800
O2068   46.186764216   61.858917736   57.865167726 XXXX 1      oap1    O  -0.800
O2069   46.186764216   61.858917736   64.740167726 XXXX 1      oap1    O  -0.800
O2070   46.186764216   61.858917736   71.615167726 XXXX 1      oap1    O  -0.800
O2071   46.186764216   61.858917736   78.490167726 XXXX 1      oap1    O  -0.800
O2072   46.186764216   61.858917736   85.365167726 XXXX 1      oap1    O  -0.600
O2073   54.342125443   38.316417736   37.240167726 XXXX 1      oap1    O  -0.800
O2074   54.342125443   38.316417736   44.115167726 XXXX 1      oap1    O  -0.800
O2075   54.342125443   38.316417736   50.990167726 XXXX 1      oap1    O  -0.800
O2076   54.342125443   38.316417736   57.865167726 XXXX 1      oap1    O  -0.800
O2077   54.342125443   38.316417736   64.740167726 XXXX 1      oap1    O  -0.800
O2078   54.342125443   38.316417736   71.615167726 XXXX 1      oap1    O  -0.800
O2079   54.342125443   38.316417736   78.490167726 XXXX 1      oap1    O  -0.800
O2080   54.342125443   38.316417736   85.365167726 XXXX 1      oap1    O  -0.695
O2081   54.342125443   47.733417736   37.240167726 XXXX 1      oap1    O  -0.800
O2082   54.342125443   47.733417736   44.115167726 XXXX 1      oap1    O  -0.800
O2083   54.342125443   47.733417736   50.990167726 XXXX 1      oap1    O  -0.800
O2084   54.342125443   47.733417736   57.865167726 XXXX 1      oap1    O  -0.800
O2085   54.342125443   47.733417736   64.740167726 XXXX 1      oap1    O  -0.800
O2086   54.342125443   47.733417736   71.615167726 XXXX 1      oap1    O  -0.800
O2087   54.342125443   47.733417736   78.490167726 XXXX 1      oap1    O  -0.800
O2088   54.342125443   47.733417736   85.365167726 XXXX 1      oap1    O  -0.695
O2089   54.342125443   57.150417736   37.240167726 XXXX 1      oap1    O  -0.800
O2090   54.342125443   57.150417736   44.115167726 XXXX 1      oap1    O  -0.800
O2091   54.342125443   57.150417736   50.990167726 XXXX 1      oap1    O  -0.800
O2092   54.342125443   57.150417736   57.865167726 XXXX 1      oap1    O  -0.800
O2093   54.342125443   57.150417736   64.740167726 XXXX 1      oap1    O  -0.800
O2094   54.342125443   57.150417736   71.615167726 XXXX 1      oap1    O  -0.800
O2095   54.342125443   57.150417736   78.490167726 XXXX 1      oap1    O  -0.800
O2096   54.342125443   57.150417736   85.365167726 XXXX 1      oap1    O  -0.695
O2097   62.497486670   43.024917736   37.240167726 XXXX 1      oap1    O  -0.800
O2098   62.497486670   43.024917736   44.115167726 XXXX 1      oap1    O  -0.800
O2099   62.497486670   43.024917736   50.990167726 XXXX 1      oap1    O  -0.800
O2100   62.497486670   43.024917736   57.865167726 XXXX 1      oap1    O  -0.800
O2101   62.497486670   43.024917736   64.740167726 XXXX 1      oap1    O  -0.800
O2102   62.497486670   43.024917736   71.615167726 XXXX 1      oap1    O  -0.800
O2103   62.497486670   43.024917736   78.490167726 XXXX 1      oap1    O  -0.800
O2104   62.497486670   43.024917736   85.365167726 XXXX 1      oap1    O  -0.695
O2105   62.497486670   52.441917736   37.240167726 XXXX 1      oap1    O  -0.800
O2106   62.497486670   52.441917736   44.115167726 XXXX 1      oap1    O  -0.800
O2107   62.497486670   52.441917736   50.990167726 XXXX 1      oap1    O  -0.800
O2108   62.497486670   52.441917736   57.865167726 XXXX 1      oap1    O  -0.800
O2109   62.497486670   52.441917736   64.740167726 XXXX 1      oap1    O  -0.800
O2110   62.497486670   52.441917736   71.615167726 XXXX 1      oap1    O  -0.800
O2111   62.497486670   52.441917736   78.490167726 XXXX 1      oap1    O  -0.800
O2112   62.497486670   52.441917736   85.365167726 XXXX 1      oap1    O  -0.695
Ca693   41.543183010   47.237754032   37.240167726 XXXX 1      ca+h    Ca  1.500
Ca694   41.543183010   47.237754032   44.115167726 XXXX 1      ca+h    Ca  1.500
Ca695   41.543183010   47.237754032   50.990167726 XXXX 1      ca+h    Ca  1.500
Ca696   41.543183010   47.237754032   57.865167726 XXXX 1      ca+h    Ca  1.500
Ca697   41.543183010   47.237754032   64.740167726 XXXX 1      ca+h    Ca  1.500
Ca698   41.543183010   47.237754032   71.615167726 XXXX 1      ca+h    Ca  1.500
Ca699   41.543183010   47.237754032   78.490167726 XXXX 1      ca+h    Ca  1.500
Ca700   41.543183010   56.654754032   37.240167726 XXXX 1      ca+h    Ca  1.500
Ca701   41.543183010   56.654754032   44.115167726 XXXX 1      ca+h    Ca  1.500
Ca702   41.543183010   56.654754032   50.990167726 XXXX 1      ca+h    Ca  1.500
Ca703   41.543183010   56.654754032   57.865167726 XXXX 1      ca+h    Ca  1.500
Ca704   41.543183010   56.654754032   64.740167726 XXXX 1      ca+h    Ca  1.500
Ca705   41.543183010   56.654754032   71.615167726 XXXX 1      ca+h    Ca  1.500
Ca706   41.543183010   56.654754032   78.490167726 XXXX 1      ca+h    Ca  1.500
Ca707   49.698544237   42.529254032   37.240167726 XXXX 1      ca+h    Ca  1.500
Ca708   49.698544237   42.529254032   44.115167726 XXXX 1      ca+h    Ca  1.500
Ca709   49.698544237   42.529254032   50.990167726 XXXX 1      ca+h    Ca  1.500
Ca710   49.698544237   42.529254032   57.865167726 XXXX 1      ca+h    Ca  1.500
Ca711   49.698544237   42.529254032   64.740167726 XXXX 1      ca+h    Ca  1.500
Ca712   49.698544237   42.529254032   71.615167726 XXXX 1      ca+h    Ca  1.500
Ca713   49.698544237   42.529254032   78.490167726 XXXX 1      ca+h    Ca  1.500
Ca714   49.698544237   51.946254032   37.240167726 XXXX 1      ca+h    Ca  1.500
Ca715   49.698544237   51.946254032   44.115167726 XXXX 1      ca+h    Ca  1.500
Ca716   49.698544237   51.946254032   50.990167726 XXXX 1      ca+h    Ca  1.500
Ca717   49.698544237   51.946254032   57.865167726 XXXX 1      ca+h    Ca  1.500
Ca718   49.698544237   51.946254032   64.740167726 XXXX 1      ca+h    Ca  1.500
Ca719   49.698544237   51.946254032   71.615167726 XXXX 1      ca+h    Ca  1.500
Ca720   49.698544237   51.946254032   78.490167726 XXXX 1      ca+h    Ca  1.500
Ca721   49.698544237   51.946254032   85.365167726 XXXX 1      ca+h    Ca  1.500
Ca722   49.698544237   61.363254032   37.240167726 XXXX 1      ca+h    Ca  1.500
Ca723   49.698544237   61.363254032   44.115167726 XXXX 1      ca+h    Ca  1.500
Ca724   49.698544237   61.363254032   50.990167726 XXXX 1      ca+h    Ca  1.500
Ca725   49.698544237   61.363254032   57.865167726 XXXX 1      ca+h    Ca  1.500
Ca726   49.698544237   61.363254032   64.740167726 XXXX 1      ca+h    Ca  1.500
Ca727   49.698544237   61.363254032   71.615167726 XXXX 1      ca+h    Ca  1.500
Ca728   49.698544237   61.363254032   78.490167726 XXXX 1      ca+h    Ca  1.500
Ca729   57.853905465   37.820754032   37.240167726 XXXX 1      ca+h    Ca  1.500
Ca730   57.853905465   37.820754032   50.990167726 XXXX 1      ca+h    Ca  1.500
Ca731   57.853905465   37.820754032   57.865167726 XXXX 1      ca+h    Ca  1.500
Ca732   57.853905465   37.820754032   64.740167726 XXXX 1      ca+h    Ca  1.500
Ca733   57.853905465   37.820754032   71.615167726 XXXX 1      ca+h    Ca  1.500
Ca734   57.853905465   37.820754032   78.490167726 XXXX 1      ca+h    Ca  1.500
Ca735   57.853905465   47.237754032   37.240167726 XXXX 1      ca+h    Ca  1.500
Ca736   57.853905465   47.237754032   44.115167726 XXXX 1      ca+h    Ca  1.500
Ca737   57.853905465   47.237754032   50.990167726 XXXX 1      ca+h    Ca  1.500
Ca738   57.853905465   47.237754032   57.865167726 XXXX 1      ca+h    Ca  1.500
Ca739   57.853905465   47.237754032   64.740167726 XXXX 1      ca+h    Ca  1.500
Ca740   57.853905465   47.237754032   71.615167726 XXXX 1      ca+h    Ca  1.500
Ca741   57.853905465   47.237754032   78.490167726 XXXX 1      ca+h    Ca  1.500
Ca742   57.853905465   56.654754032   37.240167726 XXXX 1      ca+h    Ca  1.500
Ca743   57.853905465   56.654754032   44.115167726 XXXX 1      ca+h    Ca  1.500
Ca744   57.853905465   56.654754032   50.990167726 XXXX 1      ca+h    Ca  1.500
Ca745   57.853905465   56.654754032   57.865167726 XXXX 1      ca+h    Ca  1.500
Ca746   57.853905465   56.654754032   64.740167726 XXXX 1      ca+h    Ca  1.500
Ca747   57.853905465   56.654754032   71.615167726 XXXX 1      ca+h    Ca  1.500
Ca748   57.853905465   56.654754032   78.490167726 XXXX 1      ca+h    Ca  1.500
Ca749   66.009266692   42.529254032   37.240167726 XXXX 1      ca+h    Ca  1.500
Ca750   66.009266692   42.529254032   50.990167726 XXXX 1      ca+h    Ca  1.500
Ca751   66.009266692   42.529254032   64.740167726 XXXX 1      ca+h    Ca  1.500
Ca752   66.009266692   42.529254032   71.615167726 XXXX 1      ca+h    Ca  1.500
Ca753   66.009266692   51.946254032   37.240167726 XXXX 1      ca+h    Ca  1.500
Ca754   66.009266692   51.946254032   50.990167726 XXXX 1      ca+h    Ca  1.500
Ca755   66.009266692   51.946254032   57.865167726 XXXX 1      ca+h    Ca  1.500
Ca756   66.009266692   51.946254032   64.740167726 XXXX 1      ca+h    Ca  1.500
Ca757   66.009266692   51.946254032   71.615167726 XXXX 1      ca+h    Ca  1.500
P481    43.259315728   40.239180957   37.240167726 XXXX 1      pap     P   1.000
P482    43.259315728   40.239180957   44.115167726 XXXX 1      pap     P   1.000
P483    43.259315728   40.239180957   50.990167726 XXXX 1      pap     P   1.000
P484    43.259315728   40.239180957   57.865167726 XXXX 1      pap     P   1.000
P485    43.259315728   40.239180957   64.740167726 XXXX 1      pap     P   1.000
P486    43.259315728   40.239180957   71.615167726 XXXX 1      pap     P   1.000
P487    43.259315728   40.239180957   78.490167726 XXXX 1      pap     P   1.000
P488    43.259315728   40.239180957   85.365167726 XXXX 1      pap     P   1.000
P489    43.259315728   49.656180957   37.240167726 XXXX 1      pap     P   1.000
P490    43.259315728   49.656180957   44.115167726 XXXX 1      pap     P   1.000
P491    43.259315728   49.656180957   50.990167726 XXXX 1      pap     P   1.000
P492    43.259315728   49.656180957   57.865167726 XXXX 1      pap     P   1.000
P493    43.259315728   49.656180957   64.740167726 XXXX 1      pap     P   1.000
P494    43.259315728   49.656180957   71.615167726 XXXX 1      pap     P   1.000
P495    43.259315728   49.656180957   78.490167726 XXXX 1      pap     P   1.000
P496    43.259315728   49.656180957   85.365167726 XXXX 1      pap     P   1.000
P497    43.259315728   59.073180957   37.240167726 XXXX 1      pap     P   1.000
P498    43.259315728   59.073180957   44.115167726 XXXX 1      pap     P   1.000
P499    43.259315728   59.073180957   50.990167726 XXXX 1      pap     P   1.000
P500    43.259315728   59.073180957   57.865167726 XXXX 1      pap     P   1.000
P501    43.259315728   59.073180957   64.740167726 XXXX 1      pap     P   1.000
P502    43.259315728   59.073180957   71.615167726 XXXX 1      pap     P   1.000
P503    43.259315728   59.073180957   78.490167726 XXXX 1      pap     P   1.000
P504    43.259315728   59.073180957   85.365167726 XXXX 1      pap     P   1.000
P505    51.414676955   35.530680957   37.240167726 XXXX 1      pap     P   1.000
P506    51.414676955   35.530680957   44.115167726 XXXX 1      pap     P   1.000
P507    51.414676955   35.530680957   50.990167726 XXXX 1      pap     P   1.000
P508    51.414676955   35.530680957   57.865167726 XXXX 1      pap     P   1.000
P509    51.414676955   35.530680957   64.740167726 XXXX 1      pap     P   1.000
P510    51.414676955   35.530680957   71.615167726 XXXX 1      pap     P   1.000
P511    51.414676955   35.530680957   78.490167726 XXXX 1      pap     P   1.000
P512    51.414676955   35.530680957   85.365167726 XXXX 1      pap     P   1.000
P513    51.414676955   44.947680957   37.240167726 XXXX 1      pap     P   1.000
P514    51.414676955   44.947680957   44.115167726 XXXX 1      pap     P   1.000
P515    51.414676955   44.947680957   50.990167726 XXXX 1      pap     P   1.000
P516    51.414676955   44.947680957   57.865167726 XXXX 1      pap     P   1.000
P517    51.414676955   44.947680957   64.740167726 XXXX 1      pap     P   1.000
P518    51.414676955   44.947680957   71.615167726 XXXX 1      pap     P   1.000
P519    51.414676955   44.947680957   78.490167726 XXXX 1      pap     P   1.000
P520    51.414676955   44.947680957   85.365167726 XXXX 1      pap     P   1.000
P521    51.414676955   54.364680957   37.240167726 XXXX 1      pap     P   1.000
P522    51.414676955   54.364680957   44.115167726 XXXX 1      pap     P   1.000
P523    51.414676955   54.364680957   50.990167726 XXXX 1      pap     P   1.000
P524    51.414676955   54.364680957   57.865167726 XXXX 1      pap     P   1.000
P525    51.414676955   54.364680957   64.740167726 XXXX 1      pap     P   1.000
P526    51.414676955   54.364680957   71.615167726 XXXX 1      pap     P   1.000
P527    51.414676955   54.364680957   78.490167726 XXXX 1      pap     P   1.000
P528    51.414676955   54.364680957   85.365167726 XXXX 1      pap     P   1.000
P529    51.414676955   63.781680957   37.240167726 XXXX 1      pap     P   1.000
P530    51.414676955   63.781680957   44.115167726 XXXX 1      pap     P   1.000
P531    51.414676955   63.781680957   50.990167726 XXXX 1      pap     P   1.000
P532    51.414676955   63.781680957   57.865167726 XXXX 1      pap     P   1.000
P533    51.414676955   63.781680957   64.740167726 XXXX 1      pap     P   1.000
P534    51.414676955   63.781680957   71.615167726 XXXX 1      pap     P   1.000
P535    51.414676955   63.781680957   78.490167726 XXXX 1      pap     P   1.000
P536    51.414676955   63.781680957   85.365167726 XXXX 1      pap     P   1.000
P537    59.570038183   40.239180957   37.240167726 XXXX 1      pap     P   1.000
P538    59.570038183   40.239180957   44.115167726 XXXX 1      pap     P   1.000
P539    59.570038183   40.239180957   50.990167726 XXXX 1      pap     P   1.000
P540    59.570038183   40.239180957   57.865167726 XXXX 1      pap     P   1.000
P541    59.570038183   40.239180957   64.740167726 XXXX 1      pap     P   1.000
P542    59.570038183   40.239180957   71.615167726 XXXX 1      pap     P   1.000
P543    59.570038183   40.239180957   78.490167726 XXXX 1      pap     P   1.000
P544    59.570038183   40.239180957   85.365167726 XXXX 1      pap     P   1.000
P545    59.570038183   49.656180957   37.240167726 XXXX 1      pap     P   1.000
P546    59.570038183   49.656180957   44.115167726 XXXX 1      pap     P   1.000
P547    59.570038183   49.656180957   50.990167726 XXXX 1      pap     P   1.000
P548    59.570038183   49.656180957   57.865167726 XXXX 1      pap     P   1.000
P549    59.570038183   49.656180957   64.740167726 XXXX 1      pap     P   1.000
P550    59.570038183   49.656180957   71.615167726 XXXX 1      pap     P   1.000
P551    59.570038183   49.656180957   78.490167726 XXXX 1      pap     P   1.000
P552    59.570038183   49.656180957   85.365167726 XXXX 1      pap     P   1.000
P553    59.570038183   59.073180957   37.240167726 XXXX 1      pap     P   1.000
P554    59.570038183   59.073180957   44.115167726 XXXX 1      pap     P   1.000
P555    59.570038183   59.073180957   50.990167726 XXXX 1      pap     P   1.000
P556    59.570038183   59.073180957   57.865167726 XXXX 1      pap     P   1.000
P557    59.570038183   59.073180957   64.740167726 XXXX 1      pap     P   1.000
P558    59.570038183   59.073180957   71.615167726 XXXX 1      pap     P   1.000
P559    59.570038183   59.073180957   78.490167726 XXXX 1      pap     P   1.000
P560    59.570038183   59.073180957   85.365167726 XXXX 1      pap     P   1.000
P561    67.725399410   44.947680957   37.240167726 XXXX 1      pap     P   1.000
P562    67.725399410   44.947680957   44.115167726 XXXX 1      pap     P   1.000
P563    67.725399410   44.947680957   50.990167726 XXXX 1      pap     P   1.000
P564    67.725399410   44.947680957   57.865167726 XXXX 1      pap     P   1.000
P565    67.725399410   44.947680957   64.740167726 XXXX 1      pap     P   1.000
P566    67.725399410   44.947680957   71.615167726 XXXX 1      pap     P   1.000
P567    67.725399410   44.947680957   78.490167726 XXXX 1      pap     P   1.000
P568    67.725399410   44.947680957   85.365167726 XXXX 1      pap     P   1.000
P569    67.725399410   54.364680957   37.240167726 XXXX 1      pap     P   1.000
P570    67.725399410   54.364680957   44.115167726 XXXX 1      pap     P   1.000
P571    67.725399410   54.364680957   50.990167726 XXXX 1      pap     P   1.000
P572    67.725399410   54.364680957   57.865167726 XXXX 1      pap     P   1.000
P573    67.725399410   54.364680957   64.740167726 XXXX 1      pap     P   1.000
P574    67.725399410   54.364680957   71.615167726 XXXX 1      pap     P   1.000
P575    67.725399410   54.364680957   78.490167726 XXXX 1      pap     P   1.000
P576    67.725399410   54.364680957   85.365167726 XXXX 1      pap     P   1.000
O2113   42.507880347   41.579879252   37.240167726 XXXX 1      oap1    O  -0.800
O2114   42.507880347   41.579879252   44.115167726 XXXX 1      oap1    O  -0.800
O2115   42.507880347   41.579879252   50.990167726 XXXX 1      oap1    O  -0.800
O2116   42.507880347   41.579879252   57.865167726 XXXX 1      oap1    O  -0.800
O2117   42.507880347   41.579879252   64.740167726 XXXX 1      oap1    O  -0.800
O2118   42.507880347   41.579879252   71.615167726 XXXX 1      oap1    O  -0.800
O2119   42.507880347   41.579879252   78.490167726 XXXX 1      oap1    O  -0.800
O2120   42.507880347   41.579879252   85.365167726 XXXX 1      oap1    O  -0.695
O2121   42.507880347   50.996879252   37.240167726 XXXX 1      oap1    O  -0.800
O2122   42.507880347   50.996879252   44.115167726 XXXX 1      oap1    O  -0.800
O2123   42.507880347   50.996879252   50.990167726 XXXX 1      oap1    O  -0.800
O2124   42.507880347   50.996879252   57.865167726 XXXX 1      oap1    O  -0.800
O2125   42.507880347   50.996879252   64.740167726 XXXX 1      oap1    O  -0.800
O2126   42.507880347   50.996879252   71.615167726 XXXX 1      oap1    O  -0.800
O2127   42.507880347   50.996879252   78.490167726 XXXX 1      oap1    O  -0.800
O2128   42.507880347   50.996879252   85.365167726 XXXX 1      oap1    O  -0.695
O2129   42.507880347   60.413879252   37.240167726 XXXX 1      oap1    O  -0.800
O2130   42.507880347   60.413879252   44.115167726 XXXX 1      oap1    O  -0.800
O2131   42.507880347   60.413879252   50.990167726 XXXX 1      oap1    O  -0.800
O2132   42.507880347   60.413879252   57.865167726 XXXX 1      oap1    O  -0.800
O2133   42.507880347   60.413879252   64.740167726 XXXX 1      oap1    O  -0.800
O2134   42.507880347   60.413879252   71.615167726 XXXX 1      oap1    O  -0.800
O2135   42.507880347   60.413879252   78.490167726 XXXX 1      oap1    O  -0.800
O2136   42.507880347   60.413879252   85.365167726 XXXX 1      oap1    O  -0.695
O2137   50.663241574   36.871379252   37.240167726 XXXX 1      oap1    O  -0.800
O2138   50.663241574   36.871379252   44.115167726 XXXX 1      oap1    O  -0.800
O2139   50.663241574   36.871379252   50.990167726 XXXX 1      oap1    O  -0.800
O2140   50.663241574   36.871379252   57.865167726 XXXX 1      oap1    O  -0.800
O2141   50.663241574   36.871379252   64.740167726 XXXX 1      oap1    O  -0.800
O2142   50.663241574   36.871379252   71.615167726 XXXX 1      oap1    O  -0.800
O2143   50.663241574   36.871379252   78.490167726 XXXX 1      oap1    O  -0.800
O2144   50.663241574   36.871379252   85.365167726 XXXX 1      oap1    O  -0.600
O2145   50.663241574   46.288379252   37.240167726 XXXX 1      oap1    O  -0.800
O2146   50.663241574   46.288379252   44.115167726 XXXX 1      oap1    O  -0.800
O2147   50.663241574   46.288379252   50.990167726 XXXX 1      oap1    O  -0.800
O2148   50.663241574   46.288379252   57.865167726 XXXX 1      oap1    O  -0.800
O2149   50.663241574   46.288379252   64.740167726 XXXX 1      oap1    O  -0.800
O2150   50.663241574   46.288379252   71.615167726 XXXX 1      oap1    O  -0.800
O2151   50.663241574   46.288379252   78.490167726 XXXX 1      oap1    O  -0.800
O2152   50.663241574   46.288379252   85.365167726 XXXX 1      oap1    O  -0.695
O2153   50.663241574   55.705379252   37.240167726 XXXX 1      oap1    O  -0.800
O2154   50.663241574   55.705379252   44.115167726 XXXX 1      oap1    O  -0.800
O2155   50.663241574   55.705379252   50.990167726 XXXX 1      oap1    O  -0.800
O2156   50.663241574   55.705379252   57.865167726 XXXX 1      oap1    O  -0.800
O2157   50.663241574   55.705379252   64.740167726 XXXX 1      oap1    O  -0.800
O2158   50.663241574   55.705379252   71.615167726 XXXX 1      oap1    O  -0.800
O2159   50.663241574   55.705379252   78.490167726 XXXX 1      oap1    O  -0.800
O2160   50.663241574   55.705379252   85.365167726 XXXX 1      oap1    O  -0.695
O2161   50.663241574   65.122379252   37.240167726 XXXX 1      oap1    O  -0.800
O2162   50.663241574   65.122379252   44.115167726 XXXX 1      oap1    O  -0.800
O2163   50.663241574   65.122379252   50.990167726 XXXX 1      oap1    O  -0.800
O2164   50.663241574   65.122379252   57.865167726 XXXX 1      oap1    O  -0.800
O2165   50.663241574   65.122379252   64.740167726 XXXX 1      oap1    O  -0.800
O2166   50.663241574   65.122379252   71.615167726 XXXX 1      oap1    O  -0.800
O2167   50.663241574   65.122379252   78.490167726 XXXX 1      oap1    O  -0.800
O2168   50.663241574   65.122379252   85.365167726 XXXX 1      oap1    O  -0.695
O2169   58.818602802   41.579879252   37.240167726 XXXX 1      oap1    O  -0.800
O2170   58.818602802   41.579879252   44.115167726 XXXX 1      oap1    O  -0.800
O2171   58.818602802   41.579879252   50.990167726 XXXX 1      oap1    O  -0.800
O2172   58.818602802   41.579879252   57.865167726 XXXX 1      oap1    O  -0.800
O2173   58.818602802   41.579879252   64.740167726 XXXX 1      oap1    O  -0.800
O2174   58.818602802   41.579879252   71.615167726 XXXX 1      oap1    O  -0.800
O2175   58.818602802   41.579879252   78.490167726 XXXX 1      oap1    O  -0.800
O2176   58.818602802   41.579879252   85.365167726 XXXX 1      oap1    O  -0.695
O2177   58.818602802   50.996879252   37.240167726 XXXX 1      oap1    O  -0.800
O2178   58.818602802   50.996879252   44.115167726 XXXX 1      oap1    O  -0.800
O2179   58.818602802   50.996879252   50.990167726 XXXX 1      oap1    O  -0.800
O2180   58.818602802   50.996879252   57.865167726 XXXX 1      oap1    O  -0.800
O2181   58.818602802   50.996879252   64.740167726 XXXX 1      oap1    O  -0.800
O2182   58.818602802   50.996879252   71.615167726 XXXX 1      oap1    O  -0.800
O2183   58.818602802   50.996879252   78.490167726 XXXX 1      oap1    O  -0.800
O2184   58.818602802   50.996879252   85.365167726 XXXX 1      oap1    O  -0.695
O2185   58.818602802   60.413879252   37.240167726 XXXX 1      oap1    O  -0.800
O2186   58.818602802   60.413879252   44.115167726 XXXX 1      oap1    O  -0.800
O2187   58.818602802   60.413879252   50.990167726 XXXX 1      oap1    O  -0.800
O2188   58.818602802   60.413879252   57.865167726 XXXX 1      oap1    O  -0.800
O2189   58.818602802   60.413879252   64.740167726 XXXX 1      oap1    O  -0.800
O2190   58.818602802   60.413879252   71.615167726 XXXX 1      oap1    O  -0.800
O2191   58.818602802   60.413879252   78.490167726 XXXX 1      oap1    O  -0.800
O2192   58.818602802   60.413879252   85.365167726 XXXX 1      oap1    O  -0.695
O2193   66.973964029   46.288379252   37.240167726 XXXX 1      oap1    O  -0.695
O2194   66.973964029   46.288379252   44.115167726 XXXX 1      oap1    O  -0.695
O2195   66.973964029   46.288379252   50.990167726 XXXX 1      oap1    O  -0.695
O2196   66.973964029   46.288379252   57.865167726 XXXX 1      oap1    O  -0.695
O2197   66.973964029   46.288379252   64.740167726 XXXX 1      oap1    O  -0.600
O2198   66.973964029   46.288379252   71.615167726 XXXX 1      oap1    O  -0.600
O2199   66.973964029   46.288379252   78.490167726 XXXX 1      oap1    O  -0.600
O2200   66.973964029   46.288379252   85.365167726 XXXX 1      oap1    O  -0.600
O2201   66.973964029   55.705379252   37.240167726 XXXX 1      oap1    O  -0.695
O2202   66.973964029   55.705379252   44.115167726 XXXX 1      oap1    O  -0.600
O2203   66.973964029   55.705379252   50.990167726 XXXX 1      oap1    O  -0.695
O2204   66.973964029   55.705379252   57.865167726 XXXX 1      oap1    O  -0.695
O2205   66.973964029   55.705379252   64.740167726 XXXX 1      oap1    O  -0.695
O2206   66.973964029   55.705379252   71.615167726 XXXX 1      oap1    O  -0.600
O2207   66.973964029   55.705379252   78.490167726 XXXX 1      oap1    O  -0.600
O2208   66.973964029   55.705379252   85.365167726 XXXX 1      oap1    O  -0.600
O2209   44.777517759   40.458785438   37.240167726 XXXX 1      oap1    O  -0.800
O2210   44.777517759   40.458785438   44.115167726 XXXX 1      oap1    O  -0.800
O2211   44.777517759   40.458785438   50.990167726 XXXX 1      oap1    O  -0.800
O2212   44.777517759   40.458785438   57.865167726 XXXX 1      oap1    O  -0.800
O2213   44.777517759   40.458785438   64.740167726 XXXX 1      oap1    O  -0.800
O2214   44.777517759   40.458785438   71.615167726 XXXX 1      oap1    O  -0.800
O2215   44.777517759   40.458785438   78.490167726 XXXX 1      oap1    O  -0.800
O2216   44.777517759   40.458785438   85.365167726 XXXX 1      oap1    O  -0.600
O2217   44.777517759   49.875785438   37.240167726 XXXX 1      oap1    O  -0.800
O2218   44.777517759   49.875785438   44.115167726 XXXX 1      oap1    O  -0.800
O2219   44.777517759   49.875785438   50.990167726 XXXX 1      oap1    O  -0.800
O2220   44.777517759   49.875785438   57.865167726 XXXX 1      oap1    O  -0.800
O2221   44.777517759   49.875785438   64.740167726 XXXX 1      oap1    O  -0.800
O2222   44.777517759   49.875785438   71.615167726 XXXX 1      oap1    O  -0.800
O2223   44.777517759   49.875785438   78.490167726 XXXX 1      oap1    O  -0.800
O2224   44.777517759   49.875785438   85.365167726 XXXX 1      oap1    O  -0.600
O2225   44.777517759   59.292785438   37.240167726 XXXX 1      oap1    O  -0.800
O2226   44.777517759   59.292785438   44.115167726 XXXX 1      oap1    O  -0.800
O2227   44.777517759   59.292785438   50.990167726 XXXX 1      oap1    O  -0.800
O2228   44.777517759   59.292785438   57.865167726 XXXX 1      oap1    O  -0.800
O2229   44.777517759   59.292785438   64.740167726 XXXX 1      oap1    O  -0.800
O2230   44.777517759   59.292785438   71.615167726 XXXX 1      oap1    O  -0.800
O2231   44.777517759   59.292785438   78.490167726 XXXX 1      oap1    O  -0.800
O2232   44.777517759   59.292785438   85.365167726 XXXX 1      oap1    O  -0.600
O2233   52.932878986   35.750285438   37.240167726 XXXX 1      oap1    O  -0.800
O2234   52.932878986   35.750285438   44.115167726 XXXX 1      oap1    O  -0.800
O2235   52.932878986   35.750285438   50.990167726 XXXX 1      oap1    O  -0.800
O2236   52.932878986   35.750285438   57.865167726 XXXX 1      oap1    O  -0.800
O2237   52.932878986   35.750285438   64.740167726 XXXX 1      oap1    O  -0.800
O2238   52.932878986   35.750285438   71.615167726 XXXX 1      oap1    O  -0.800
O2239   52.932878986   35.750285438   78.490167726 XXXX 1      oap1    O  -0.800
O2240   52.932878986   35.750285438   85.365167726 XXXX 1      oap1    O  -0.695
O2241   52.932878986   45.167285438   37.240167726 XXXX 1      oap1    O  -0.800
O2242   52.932878986   45.167285438   44.115167726 XXXX 1      oap1    O  -0.800
O2243   52.932878986   45.167285438   50.990167726 XXXX 1      oap1    O  -0.800
O2244   52.932878986   45.167285438   57.865167726 XXXX 1      oap1    O  -0.800
O2245   52.932878986   45.167285438   64.740167726 XXXX 1      oap1    O  -0.800
O2246   52.932878986   45.167285438   71.615167726 XXXX 1      oap1    O  -0.800
O2247   52.932878986   45.167285438   78.490167726 XXXX 1      oap1    O  -0.800
O2248   52.932878986   45.167285438   85.365167726 XXXX 1      oap1    O  -0.600
O2249   52.932878986   54.584285438   37.240167726 XXXX 1      oap1    O  -0.800
O2250   52.932878986   54.584285438   44.115167726 XXXX 1      oap1    O  -0.800
O2251   52.932878986   54.584285438   50.990167726 XXXX 1      oap1    O  -0.800
O2252   52.932878986   54.584285438   57.865167726 XXXX 1      oap1    O  -0.800
O2253   52.932878986   54.584285438   64.740167726 XXXX 1      oap1    O  -0.800
O2254   52.932878986   54.584285438   71.615167726 XXXX 1      oap1    O  -0.800
O2255   52.932878986   54.584285438   78.490167726 XXXX 1      oap1    O  -0.800
O2256   52.932878986   54.584285438   85.365167726 XXXX 1      oap1    O  -0.600
O2257   52.932878986   64.001285438   37.240167726 XXXX 1      oap1    O  -0.800
O2258   52.932878986   64.001285438   44.115167726 XXXX 1      oap1    O  -0.800
O2259   52.932878986   64.001285438   50.990167726 XXXX 1      oap1    O  -0.800
O2260   52.932878986   64.001285438   57.865167726 XXXX 1      oap1    O  -0.800
O2261   52.932878986   64.001285438   64.740167726 XXXX 1      oap1    O  -0.800
O2262   52.932878986   64.001285438   71.615167726 XXXX 1      oap1    O  -0.800
O2263   52.932878986   64.001285438   78.490167726 XXXX 1      oap1    O  -0.800
O2264   52.932878986   64.001285438   85.365167726 XXXX 1      oap1    O  -0.600
O2265   61.088240214   40.458785438   37.240167726 XXXX 1      oap1    O  -0.800
O2266   61.088240214   40.458785438   44.115167726 XXXX 1      oap1    O  -0.800
O2267   61.088240214   40.458785438   50.990167726 XXXX 1      oap1    O  -0.800
O2268   61.088240214   40.458785438   57.865167726 XXXX 1      oap1    O  -0.800
O2269   61.088240214   40.458785438   64.740167726 XXXX 1      oap1    O  -0.800
O2270   61.088240214   40.458785438   71.615167726 XXXX 1      oap1    O  -0.800
O2271   61.088240214   40.458785438   78.490167726 XXXX 1      oap1    O  -0.800
O2272   61.088240214   40.458785438   85.365167726 XXXX 1      oap1    O  -0.600
O2273   61.088240214   49.875785438   37.240167726 XXXX 1      oap1    O  -0.800
O2274   61.088240214   49.875785438   44.115167726 XXXX 1      oap1    O  -0.800
O2275   61.088240214   49.875785438   50.990167726 XXXX 1      oap1    O  -0.800
O2276   61.088240214   49.875785438   57.865167726 XXXX 1      oap1    O  -0.800
O2277   61.088240214   49.875785438   64.740167726 XXXX 1      oap1    O  -0.800
O2278   61.088240214   49.875785438   71.615167726 XXXX 1      oap1    O  -0.800
O2279   61.088240214   49.875785438   78.490167726 XXXX 1      oap1    O  -0.800
O2280   61.088240214   49.875785438   85.365167726 XXXX 1      oap1    O  -0.600
O2281   61.088240214   59.292785438   37.240167726 XXXX 1      oap1    O  -0.800
O2282   61.088240214   59.292785438   44.115167726 XXXX 1      oap1    O  -0.800
O2283   61.088240214   59.292785438   50.990167726 XXXX 1      oap1    O  -0.800
O2284   61.088240214   59.292785438   57.865167726 XXXX 1      oap1    O  -0.800
O2285   61.088240214   59.292785438   64.740167726 XXXX 1      oap1    O  -0.800
O2286   61.088240214   59.292785438   71.615167726 XXXX 1      oap1    O  -0.800
O2287   61.088240214   59.292785438   78.490167726 XXXX 1      oap1    O  -0.800
O2288   61.088240214   59.292785438   85.365167726 XXXX 1      oap1    O  -0.600
O2289   69.243601441   45.167285438   37.240167726 XXXX 1      oap1    O  -0.600
O2290   69.243601441   45.167285438   44.115167726 XXXX 1      oap1    O  -0.600
O2291   69.243601441   45.167285438   50.990167726 XXXX 1      oap1    O  -0.600
O2292   69.243601441   45.167285438   57.865167726 XXXX 1      oap1    O  -0.600
O2293   69.243601441   45.167285438   64.740167726 XXXX 1      oap1    O  -0.600
O2294   69.243601441   45.167285438   71.615167726 XXXX 1      oap1    O  -0.600
O2295   69.243601441   45.167285438   78.490167726 XXXX 1      oap1    O  -0.600
O2296   69.243601441   45.167285438   85.365167726 XXXX 1      oap1    O  -0.600
O2297   69.243601441   54.584285438   37.240167726 XXXX 1      oap1    O  -0.600
O2298   69.243601441   54.584285438   44.115167726 XXXX 1      oap1    O  -0.600
O2299   69.243601441   54.584285438   50.990167726 XXXX 1      oap1    O  -0.600
O2300   69.243601441   54.584285438   57.865167726 XXXX 1      oap1    O  -0.600
O2301   69.243601441   54.584285438   64.740167726 XXXX 1      oap1    O  -0.600
O2302   69.243601441   54.584285438   71.615167726 XXXX 1      oap1    O  -0.600
O2303   69.243601441   54.584285438   78.490167726 XXXX 1      oap1    O  -0.600
O2304   69.243601441   54.584285438   85.365167726 XXXX 1      oap1    O  -0.600
O2305   43.504465831   46.043537177   37.598355245 XXXX 1      oap2    O  -1.100
O2306   43.504465831   46.043537177   44.473355245 XXXX 1      oap2    O  -1.100
O2307   43.504465831   46.043537177   51.348355245 XXXX 1      oap2    O  -1.100
O2308   43.504465831   46.043537177   58.223355245 XXXX 1      oap2    O  -1.100
O2309   43.504465831   46.043537177   65.098355245 XXXX 1      oap2    O  -1.100
O2310   43.504465831   46.043537177   71.973355245 XXXX 1      oap2    O  -1.100
O2311   43.504465831   46.043537177   78.848355245 XXXX 1      oap2    O  -1.100
O2312   43.504465831   55.460537177   37.598355245 XXXX 1      oap2    O  -1.100
O2313   43.504465831   55.460537177   44.473355245 XXXX 1      oap2    O  -1.100
O2314   43.504465831   55.460537177   51.348355245 XXXX 1      oap2    O  -1.100
O2315   43.504465831   55.460537177   58.223355245 XXXX 1      oap2    O  -1.100
O2316   43.504465831   55.460537177   65.098355245 XXXX 1      oap2    O  -1.100
O2317   43.504465831   55.460537177   71.973355245 XXXX 1      oap2    O  -1.100
O2318   43.504465831   55.460537177   78.848355245 XXXX 1      oap2    O  -1.100
O2319   51.659827059   41.335037177   37.598355245 XXXX 1      oap2    O  -1.100
O2320   51.659827059   41.335037177   44.473355245 XXXX 1      oap2    O  -1.100
O2321   51.659827059   41.335037177   51.348355245 XXXX 1      oap2    O  -1.100
O2322   51.659827059   41.335037177   58.223355245 XXXX 1      oap2    O  -1.100
O2323   51.659827059   41.335037177   65.098355245 XXXX 1      oap2    O  -1.100
O2324   51.659827059   41.335037177   71.973355245 XXXX 1      oap2    O  -1.100
O2325   51.659827059   41.335037177   78.848355245 XXXX 1      oap2    O  -1.100
O2326   51.659827059   50.752037177   37.598355245 XXXX 1      oap2    O  -1.100
O2327   51.659827059   50.752037177   44.473355245 XXXX 1      oap2    O  -1.100
O2328   51.659827059   50.752037177   51.348355245 XXXX 1      oap2    O  -1.100
O2329   51.659827059   50.752037177   58.223355245 XXXX 1      oap2    O  -1.100
O2330   51.659827059   50.752037177   65.098355245 XXXX 1      oap2    O  -1.100
O2331   51.659827059   50.752037177   71.973355245 XXXX 1      oap2    O  -1.100
O2332   51.659827059   50.752037177   78.848355245 XXXX 1      oap2    O  -1.100
O2333   51.659827059   60.169037177   37.598355245 XXXX 1      oap2    O  -1.100
O2334   51.659827059   60.169037177   44.473355245 XXXX 1      oap2    O  -1.100
O2335   51.659827059   60.169037177   51.348355245 XXXX 1      oap2    O  -1.100
O2336   51.659827059   60.169037177   58.223355245 XXXX 1      oap2    O  -1.100
O2337   51.659827059   60.169037177   65.098355245 XXXX 1      oap2    O  -1.100
O2338   51.659827059   60.169037177   71.973355245 XXXX 1      oap2    O  -1.100
O2339   51.659827059   60.169037177   78.848355245 XXXX 1      oap2    O  -1.100
O2340   59.815188286   46.043537177   37.598355245 XXXX 1      oap2    O  -1.100
O2341   59.815188286   46.043537177   44.473355245 XXXX 1      oap2    O  -1.100
O2342   59.815188286   46.043537177   51.348355245 XXXX 1      oap2    O  -1.100
O2343   59.815188286   46.043537177   58.223355245 XXXX 1      oap2    O  -1.100
O2344   59.815188286   46.043537177   65.098355245 XXXX 1      oap2    O  -1.100
O2345   59.815188286   46.043537177   71.973355245 XXXX 1      oap2    O  -1.100
O2346   59.815188286   46.043537177   78.848355245 XXXX 1      oap2    O  -1.100
O2347   59.815188286   55.460537177   37.598355245 XXXX 1      oap2    O  -1.100
O2348   59.815188286   55.460537177   44.473355245 XXXX 1      oap2    O  -1.100
O2349   59.815188286   55.460537177   51.348355245 XXXX 1      oap2    O  -1.100
O2350   59.815188286   55.460537177   58.223355245 XXXX 1      oap2    O  -1.100
O2351   59.815188286   55.460537177   65.098355245 XXXX 1      oap2    O  -1.100
O2352   59.815188286   55.460537177   71.973355245 XXXX 1      oap2    O  -1.100
O2353   59.815188286   55.460537177   78.848355245 XXXX 1      oap2    O  -1.100
O2354   43.504465831   46.043537177   41.035855245 XXXX 1      oap2    O  -1.100
O2355   43.504465831   46.043537177   47.910855245 XXXX 1      oap2    O  -1.100
O2356   43.504465831   46.043537177   54.785855245 XXXX 1      oap2    O  -1.100
O2357   43.504465831   46.043537177   61.660855245 XXXX 1      oap2    O  -1.100
O2358   43.504465831   46.043537177   68.535855245 XXXX 1      oap2    O  -1.100
O2359   43.504465831   46.043537177   75.410855245 XXXX 1      oap2    O  -1.100
O2360   43.504465831   46.043537177   82.285855245 XXXX 1      oap2    O  -1.100
O2361   43.504465831   55.460537177   41.035855245 XXXX 1      oap2    O  -1.100
O2362   43.504465831   55.460537177   47.910855245 XXXX 1      oap2    O  -1.100
O2363   43.504465831   55.460537177   54.785855245 XXXX 1      oap2    O  -1.100
O2364   43.504465831   55.460537177   61.660855245 XXXX 1      oap2    O  -1.100
O2365   43.504465831   55.460537177   68.535855245 XXXX 1      oap2    O  -1.100
O2366   43.504465831   55.460537177   75.410855245 XXXX 1      oap2    O  -1.100
O2367   43.504465831   55.460537177   82.285855245 XXXX 1      oap2    O  -1.100
O2368   51.659827059   41.335037177   41.035855245 XXXX 1      oap2    O  -1.100
O2369   51.659827059   41.335037177   47.910855245 XXXX 1      oap2    O  -1.100
O2370   51.659827059   41.335037177   54.785855245 XXXX 1      oap2    O  -1.100
O2371   51.659827059   41.335037177   61.660855245 XXXX 1      oap2    O  -1.100
O2372   51.659827059   41.335037177   68.535855245 XXXX 1      oap2    O  -1.100
O2373   51.659827059   41.335037177   75.410855245 XXXX 1      oap2    O  -1.100
O2374   51.659827059   41.335037177   82.285855245 XXXX 1      oap2    O  -1.100
O2375   51.659827059   50.752037177   41.035855245 XXXX 1      oap2    O  -1.100
O2376   51.659827059   50.752037177   47.910855245 XXXX 1      oap2    O  -1.100
O2377   51.659827059   50.752037177   54.785855245 XXXX 1      oap2    O  -1.100
O2378   51.659827059   50.752037177   61.660855245 XXXX 1      oap2    O  -1.100
O2379   51.659827059   50.752037177   68.535855245 XXXX 1      oap2    O  -1.100
O2380   51.659827059   50.752037177   75.410855245 XXXX 1      oap2    O  -1.100
O2381   51.659827059   50.752037177   82.285855245 XXXX 1      oap2    O  -1.100
O2382   51.659827059   60.169037177   41.035855245 XXXX 1      oap2    O  -1.100
O2383   51.659827059   60.169037177   47.910855245 XXXX 1      oap2    O  -1.100
O2384   51.659827059   60.169037177   54.785855245 XXXX 1      oap2    O  -1.100
O2385   51.659827059   60.169037177   61.660855245 XXXX 1      oap2    O  -1.100
O2386   51.659827059   60.169037177   68.535855245 XXXX 1      oap2    O  -1.100
O2387   51.659827059   60.169037177   75.410855245 XXXX 1      oap2    O  -1.100
O2388   51.659827059   60.169037177   82.285855245 XXXX 1      oap2    O  -1.100
O2389   59.815188286   46.043537177   41.035855245 XXXX 1      oap2    O  -1.100
O2390   59.815188286   46.043537177   47.910855245 XXXX 1      oap2    O  -1.100
O2391   59.815188286   46.043537177   54.785855245 XXXX 1      oap2    O  -1.100
O2392   59.815188286   46.043537177   61.660855245 XXXX 1      oap2    O  -1.100
O2393   59.815188286   46.043537177   68.535855245 XXXX 1      oap2    O  -1.100
O2394   59.815188286   46.043537177   75.410855245 XXXX 1      oap2    O  -1.100
O2395   59.815188286   46.043537177   82.285855245 XXXX 1      oap2    O  -1.100
O2396   59.815188286   55.460537177   41.035855245 XXXX 1      oap2    O  -1.100
O2397   59.815188286   55.460537177   47.910855245 XXXX 1      oap2    O  -1.100
O2398   59.815188286   55.460537177   54.785855245 XXXX 1      oap2    O  -1.100
O2399   59.815188286   55.460537177   61.660855245 XXXX 1      oap2    O  -1.100
O2400   59.815188286   55.460537177   68.535855245 XXXX 1      oap2    O  -1.100
O2401   59.815188286   55.460537177   75.410855245 XXXX 1      oap2    O  -1.100
O2402   59.815188286   55.460537177   82.285855245 XXXX 1      oap2    O  -1.100
H1      43.504463453   46.043768702   38.708355220 XXXX 1      hop     H   0.200
H2      43.504463453   46.043768702   45.583355220 XXXX 1      hop     H   0.200
H3      43.504463453   46.043768702   52.458355220 XXXX 1      hop     H   0.200
H4      43.504463453   46.043768702   59.333355220 XXXX 1      hop     H   0.200
H5      43.504463453   46.043768702   66.208355220 XXXX 1      hop     H   0.200
H6      43.504463453   46.043768702   73.083355220 XXXX 1      hop     H   0.200
H7      43.504463453   46.043768702   79.958355220 XXXX 1      hop     H   0.200
H8      43.504463453   55.460768702   38.708355220 XXXX 1      hop     H   0.200
H9      43.504463453   55.460768702   45.583355220 XXXX 1      hop     H   0.200
H10     43.504463453   55.460768702   52.458355220 XXXX 1      hop     H   0.200
H11     43.504463453   55.460768702   59.333355220 XXXX 1      hop     H   0.200
H12     43.504463453   55.460768702   66.208355220 XXXX 1      hop     H   0.200
H13     43.504463453   55.460768702   73.083355220 XXXX 1      hop     H   0.200
H14     43.504463453   55.460768702   79.958355220 XXXX 1      hop     H   0.200
H15     51.659824680   41.335268702   38.708355220 XXXX 1      hop     H   0.200
H16     51.659824680   41.335268702   45.583355220 XXXX 1      hop     H   0.200
H17     51.659824680   41.335268702   52.458355220 XXXX 1      hop     H   0.200
H18     51.659824680   41.335268702   59.333355220 XXXX 1      hop     H   0.200
H19     51.659824680   41.335268702   66.208355220 XXXX 1      hop     H   0.200
H20     51.659824680   41.335268702   73.083355220 XXXX 1      hop     H   0.200
H21     51.659824680   41.335268702   79.958355220 XXXX 1      hop     H   0.200
H22     51.659824680   50.752268702   38.708355220 XXXX 1      hop     H   0.200
H23     51.659824680   50.752268702   45.583355220 XXXX 1      hop     H   0.200
H24     51.659824680   50.752268702   52.458355220 XXXX 1      hop     H   0.200
H25     51.659824680   50.752268702   59.333355220 XXXX 1      hop     H   0.200
H26     51.659824680   50.752268702   66.208355220 XXXX 1      hop     H   0.200
H27     51.659824680   50.752268702   73.083355220 XXXX 1      hop     H   0.200
H28     51.659824680   50.752268702   79.958355220 XXXX 1      hop     H   0.200
H29     51.659824680   60.169268702   38.708355220 XXXX 1      hop     H   0.200
H30     51.659824680   60.169268702   45.583355220 XXXX 1      hop     H   0.200
H31     51.659824680   60.169268702   52.458355220 XXXX 1      hop     H   0.200
H32     51.659824680   60.169268702   59.333355220 XXXX 1      hop     H   0.200
H33     51.659824680   60.169268702   66.208355220 XXXX 1      hop     H   0.200
H34     51.659824680   60.169268702   73.083355220 XXXX 1      hop     H   0.200
H35     51.659824680   60.169268702   79.958355220 XXXX 1      hop     H   0.200
H36     59.815185908   46.043768702   38.708355220 XXXX 1      hop     H   0.200
H37     59.815185908   46.043768702   45.583355220 XXXX 1      hop     H   0.200
H38     59.815185908   46.043768702   52.458355220 XXXX 1      hop     H   0.200
H39     59.815185908   46.043768702   59.333355220 XXXX 1      hop     H   0.200
H40     59.815185908   46.043768702   66.208355220 XXXX 1      hop     H   0.200
H41     59.815185908   46.043768702   73.083355220 XXXX 1      hop     H   0.200
H42     59.815185908   46.043768702   79.958355220 XXXX 1      hop     H   0.200
H43     59.815185908   55.460768702   38.708355220 XXXX 1      hop     H   0.200
H44     59.815185908   55.460768702   45.583355220 XXXX 1      hop     H   0.200
H45     59.815185908   55.460768702   52.458355220 XXXX 1      hop     H   0.200
H46     59.815185908   55.460768702   59.333355220 XXXX 1      hop     H   0.200
H47     59.815185908   55.460768702   66.208355220 XXXX 1      hop     H   0.200
H48     59.815185908   55.460768702   73.083355220 XXXX 1      hop     H   0.200
H49     59.815185908   55.460768702   79.958355220 XXXX 1      hop     H   0.200
H50     43.504587265   46.035364665   42.145825147 XXXX 1      hop     H   0.200
H51     43.504587265   46.035364665   49.020825147 XXXX 1      hop     H   0.200
H52     43.504587265   46.035364665   55.895825147 XXXX 1      hop     H   0.200
H53     43.504587265   46.035364665   62.770825147 XXXX 1      hop     H   0.200
H54     43.504587265   46.035364665   69.645825147 XXXX 1      hop     H   0.200
H55     43.504587265   46.035364665   76.520825147 XXXX 1      hop     H   0.200
H56     43.504587265   46.035364665   83.395825147 XXXX 1      hop     H   0.200
H57     43.504587265   55.452364665   42.145825147 XXXX 1      hop     H   0.200
H58     43.504587265   55.452364665   49.020825147 XXXX 1      hop     H   0.200
H59     43.504587265   55.452364665   55.895825147 XXXX 1      hop     H   0.200
H60     43.504587265   55.452364665   62.770825147 XXXX 1      hop     H   0.200
H61     43.504587265   55.452364665   69.645825147 XXXX 1      hop     H   0.200
H62     43.504587265   55.452364665   76.520825147 XXXX 1      hop     H   0.200
H63     43.504587265   55.452364665   83.395825147 XXXX 1      hop     H   0.200
H64     51.659948493   41.326864665   42.145825147 XXXX 1      hop     H   0.200
H65     51.659948493   41.326864665   49.020825147 XXXX 1      hop     H   0.200
H66     51.659948493   41.326864665   55.895825147 XXXX 1      hop     H   0.200
H67     51.659948493   41.326864665   62.770825147 XXXX 1      hop     H   0.200
H68     51.659948493   41.326864665   69.645825147 XXXX 1      hop     H   0.200
H69     51.659948493   41.326864665   76.520825147 XXXX 1      hop     H   0.200
H70     51.659948493   41.326864665   83.395825147 XXXX 1      hop     H   0.200
H71     51.659948493   50.743864665   42.145825147 XXXX 1      hop     H   0.200
H72     51.659948493   50.743864665   49.020825147 XXXX 1      hop     H   0.200
H73     51.659948493   50.743864665   55.895825147 XXXX 1      hop     H   0.200
H74     51.659948493   50.743864665   62.770825147 XXXX 1      hop     H   0.200
H75     51.659948493   50.743864665   69.645825147 XXXX 1      hop     H   0.200
H76     51.659948493   50.743864665   76.520825147 XXXX 1      hop     H   0.200
H77     51.659948493   50.743864665   83.395825147 XXXX 1      hop     H   0.200
H78     51.659948493   60.160864665   42.145825147 XXXX 1      hop     H   0.200
H79     51.659948493   60.160864665   49.020825147 XXXX 1      hop     H   0.200
H80     51.659948493   60.160864665   55.895825147 XXXX 1      hop     H   0.200
H81     51.659948493   60.160864665   62.770825147 XXXX 1      hop     H   0.200
H82     51.659948493   60.160864665   69.645825147 XXXX 1      hop     H   0.200
H83     51.659948493   60.160864665   76.520825147 XXXX 1      hop     H   0.200
H84     51.659948493   60.160864665   83.395825147 XXXX 1      hop     H   0.200
H85     59.815309720   46.035364665   42.145825147 XXXX 1      hop     H   0.200
H86     59.815309720   46.035364665   49.020825147 XXXX 1      hop     H   0.200
H87     59.815309720   46.035364665   55.895825147 XXXX 1      hop     H   0.200
H88     59.815309720   46.035364665   62.770825147 XXXX 1      hop     H   0.200
H89     59.815309720   46.035364665   69.645825147 XXXX 1      hop     H   0.200
H90     59.815309720   46.035364665   76.520825147 XXXX 1      hop     H   0.200
H91     59.815309720   46.035364665   83.395825147 XXXX 1      hop     H   0.200
H92     59.815309720   55.452364665   42.145825147 XXXX 1      hop     H   0.200
H93     59.815309720   55.452364665   49.020825147 XXXX 1      hop     H   0.200
H94     59.815309720   55.452364665   55.895825147 XXXX 1      hop     H   0.200
H95     59.815309720   55.452364665   62.770825147 XXXX 1      hop     H   0.200
H96     59.815309720   55.452364665   69.645825147 XXXX 1      hop     H   0.200
H97     59.815309720   55.452364665   76.520825147 XXXX 1      hop     H   0.200
H98     59.815309720   55.452364665   83.395825147 XXXX 1      hop     H   0.200
H99     46.601668580   68.893278240   85.401287667 XXXX 1      hop     H   0.400
H100    46.606751467   68.933530027   78.523917562 XXXX 1      hop     H   0.400
H101    46.626120052   69.034108160   71.642737467 XXXX 1      hop     H   0.400
H102    46.614756187   68.981350742   64.771025753 XXXX 1      hop     H   0.400
H103    46.606223651   68.929844891   57.899136966 XXXX 1      hop     H   0.400
H104    46.630649365   69.052224316   51.016584064 XXXX 1      hop     H   0.400
H105    46.598754912   68.862083029   44.153084844 XXXX 1      hop     H   0.400
H106    46.638746832   69.081793590   37.264674223 XXXX 1      hop     H   0.400
H107    46.857672676   66.704659797   78.469308108 XXXX 1      hop     H   0.400
H108    49.784745659   68.498226650   36.562207450 XXXX 1      hop     H   0.400
H109    50.255416972   68.318772129   45.770162659 XXXX 1      hop     H   0.400
H110    50.151471577   68.298555826   57.213428341 XXXX 1      hop     H   0.400
H111    50.393393904   68.293986553   49.730026739 XXXX 1      hop     H   0.400
H112    46.798157298   66.539414997   85.337536799 XXXX 1      hop     H   0.400
H113    46.882511775   66.754978146   71.578164271 XXXX 1      hop     H   0.400
H114    46.911761647   66.807908993   64.700970125 XXXX 1      hop     H   0.400
H115    58.056003453   68.046786944   34.400389994 XXXX 1      hop     H   0.400
H116    58.230795902   68.059030901   40.690874481 XXXX 1      hop     H   0.400
H117    58.229235553   68.069247451   47.565544492 XXXX 1      hop     H   0.400
H118    58.241048112   67.957937615   54.444054418 XXXX 1      hop     H   0.400
H119    58.240996964   67.958855668   61.319026230 XXXX 1      hop     H   0.400
H120    58.242507289   67.873983560   68.196579193 XXXX 1      hop     H   0.400
H121    58.242669550   67.909194950   75.070533005 XXXX 1      hop     H   0.400
H122    58.234608003   68.030760199   81.941779294 XXXX 1      hop     H   0.400
H123    54.901106161   67.497522949   34.253666357 XXXX 1      hop     H   0.400
H124    54.633860297   67.509287427   40.879605491 XXXX 1      hop     H   0.400
H125    54.594094771   67.512660209   47.520458386 XXXX 1      hop     H   0.400
H126    58.084276972   65.982053663   55.635064086 XXXX 1      hop     H   0.400
H127    58.117016152   65.810493574   62.516103874 XXXX 1      hop     H   0.400
H128    54.496565909   67.465675529   68.148790964 XXXX 1      hop     H   0.400
H129    58.002777369   65.986748125   76.695365645 XXXX 1      hop     H   0.400
H130    54.603630097   67.384075027   82.433015357 XXXX 1      hop     H   0.400
H131    64.616538306   63.915171433   82.429289136 XXXX 1      hop     H   0.400
H132    64.685386398   64.078145050   75.327775684 XXXX 1      hop     H   0.400
H133    64.786587063   64.098293721   68.566477635 XXXX 1      hop     H   0.400
H134    64.778951879   64.173899537   61.308918404 XXXX 1      hop     H   0.400
H135    64.758836241   64.163245162   54.434506083 XXXX 1      hop     H   0.400
H136    64.768856886   64.168618735   47.559212876 XXXX 1      hop     H   0.400
H137    64.796878252   64.182955443   40.683397701 XXXX 1      hop     H   0.400
H138    64.898805968   64.189984919   34.077931834 XXXX 1      hop     H   0.400
H139    62.873618556   62.848419603   33.774684931 XXXX 1      hop     H   0.400
H140    62.808022496   62.603329203   48.199435138 XXXX 1      hop     H   0.400
H141    62.869013498   62.541460573   62.049657893 XXXX 1      hop     H   0.400
H142    62.857232491   62.741676375   75.507119129 XXXX 1      hop     H   0.400
H143    66.106582186   61.120914223   42.490926744 XXXX 1      hop     H   0.400
H144    66.121853776   61.065773738   56.226465500 XXXX 1      hop     H   0.400
H145    66.199841695   61.038587605   67.350342361 XXXX 1      hop     H   0.400
H146    66.276033144   61.057885601   80.658908346 XXXX 1      hop     H   0.400
H147    69.732427889   55.579264708   37.183909011 XXXX 1      hop     H   0.400
H148    69.847123754   55.514446946   44.063587990 XXXX 1      hop     H   0.400
H149    69.929424676   55.455773225   50.942674518 XXXX 1      hop     H   0.400
H150    69.990508020   55.404222236   57.821187275 XXXX 1      hop     H   0.400
H151    69.964289054   55.427277251   64.694623880 XXXX 1      hop     H   0.400
H152    69.968424855   55.423736884   71.569864716 XXXX 1      hop     H   0.400
H153    69.981361194   55.412432270   78.445631855 XXXX 1      hop     H   0.400
H154    69.969357971   55.422933229   85.319919345 XXXX 1      hop     H   0.400
H155    67.674343001   56.263427953   86.021026664 XXXX 1      hop     H   0.400
H156    67.891007145   56.306239545   78.663657860 XXXX 1      hop     H   0.400
H157    67.920356929   56.284849798   71.589587186 XXXX 1      hop     H   0.400
H158    67.857948243   52.694927945   63.820074996 XXXX 1      hop     H   0.400
H159    67.917287413   53.001276205   59.791645506 XXXX 1      hop     H   0.400
H160    67.978534644   52.986317662   50.368923380 XXXX 1      hop     H   0.400
H161    67.762431900   56.258065542   44.667396196 XXXX 1      hop     H   0.400
H162    68.141272018   53.008554751   36.388525116 XXXX 1      hop     H   0.400
H163    69.666519521   46.164720641   37.481752628 XXXX 1      hop     H   0.400
H164    69.812240548   46.119532755   44.070731615 XXXX 1      hop     H   0.400
H165    69.909181037   46.054548728   50.946951747 XXXX 1      hop     H   0.400
H166    69.986044550   45.991379564   57.823369702 XXXX 1      hop     H   0.400
H167    70.033950941   45.945613042   64.699500914 XXXX 1      hop     H   0.400
H168    70.075988816   45.900546802   71.575683379 XXXX 1      hop     H   0.400
H169    70.130764676   45.833338351   78.452552509 XXXX 1      hop     H   0.400
H170    70.127267572   45.837963667   85.327420235 XXXX 1      hop     H   0.400
H171    67.784249272   47.046600530   85.339899941 XXXX 1      hop     H   0.400
H172    67.862634039   46.952897293   78.462212274 XXXX 1      hop     H   0.400
H173    67.845990504   46.974615488   71.587785603 XXXX 1      hop     H   0.400
H174    67.890458808   46.913919970   64.711249890 XXXX 1      hop     H   0.400
H175    68.225166975   43.597135919   56.597918474 XXXX 1      hop     H   0.400
H176    68.237475352   43.618232633   49.722548605 XXXX 1      hop     H   0.400
H177    68.252355231   43.645261041   42.847103682 XXXX 1      hop     H   0.400
H178    68.285413175   43.712745034   38.442001078 XXXX 1      hop     H   0.400
H179    63.577282334   36.347298075   81.947459447 XXXX 1      hop     H   0.400
H180    63.620144191   36.340573447   75.072103171 XXXX 1      hop     H   0.400
H181    63.626335741   36.339743407   68.197049417 XXXX 1      hop     H   0.400
H182    63.673325652   36.334593595   61.321622845 XXXX 1      hop     H   0.400
H183    63.679744219   36.334046936   54.446562039 XXXX 1      hop     H   0.400
H184    63.692944055   36.333040501   47.571435084 XXXX 1      hop     H   0.400
H185    63.716238296   36.331649942   40.696204800 XXXX 1      hop     H   0.400
H186    63.764675487   36.330327976   33.820700545 XXXX 1      hop     H   0.400
H187    64.640338755   39.562149901   33.816743664 XXXX 1      hop     H   0.400
H188    64.657934991   39.610382007   40.690577439 XXXX 1      hop     H   0.400
H189    64.665097434   39.632265994   47.565045304 XXXX 1      hop     H   0.400
H190    64.629385883   39.738424702   75.418897899 XXXX 1      hop     H   0.400
H191    61.945834051   37.537732534   55.708550703 XXXX 1      hop     H   0.400
H192    61.918325454   37.537421144   62.583705294 XXXX 1      hop     H   0.400
H193    61.826774083   37.541297608   69.459017815 XXXX 1      hop     H   0.400
H194    61.912298621   37.538392063   83.227793588 XXXX 1      hop     H   0.400
H195    55.181644747   31.710197540   81.955086673 XXXX 1      hop     H   0.400
H196    55.308272827   31.665274116   75.079465252 XXXX 1      hop     H   0.400
H197    55.371468647   31.649071106   68.204021340 XXXX 1      hop     H   0.400
H198    55.398545185   31.643324382   61.328805416 XXXX 1      hop     H   0.400
H199    55.430655302   31.637416066   54.453529839 XXXX 1      hop     H   0.400
H200    55.460593791   31.632780466   47.578254110 XXXX 1      hop     H   0.400
H201    55.465596682   31.632087189   40.703206283 XXXX 1      hop     H   0.400
H202    55.504273961   31.627506604   33.827819769 XXXX 1      hop     H   0.400
H203    56.357291286   34.616886818   33.824057526 XXXX 1      hop     H   0.400
H204    56.290779402   34.532015811   40.701524323 XXXX 1      hop     H   0.400
H205    56.332314273   34.582993077   47.575045765 XXXX 1      hop     H   0.400
H206    56.381367607   34.652322008   54.448020349 XXXX 1      hop     H   0.400
H207    53.695232137   32.830624538   83.196858316 XXXX 1      hop     H   0.400
H208    53.356099963   32.906071039   73.848009284 XXXX 1      hop     H   0.400
H209    53.142324778   33.018740753   69.440017063 XXXX 1      hop     H   0.400
H210    53.001000161   33.132048327   60.090397367 XXXX 1      hop     H   0.400
H211    46.803311937   32.685034810   85.349167045 XXXX 1      hop     H   0.400
H212    46.895723108   32.754073037   78.469515068 XXXX 1      hop     H   0.400
H213    46.870274234   32.733538270   71.595812711 XXXX 1      hop     H   0.400
H214    46.886038362   32.746111860   64.720010488 XXXX 1      hop     H   0.400
H215    46.909653090   32.765851786   57.843798922 XXXX 1      hop     H   0.400
H216    46.896950871   32.755095485   50.969452119 XXXX 1      hop     H   0.400
H217    46.812241776   32.691071266   44.098724416 XXXX 1      hop     H   0.400
H218    46.838244500   32.709386303   37.222427514 XXXX 1      hop     H   0.400
H219    45.436344380   35.125744464   86.644799145 XXXX 1      hop     H   0.400
H220    45.461648116   35.094901641   77.298190992 XXXX 1      hop     H   0.400
H221    45.506703396   35.045087238   72.892705169 XXXX 1      hop     H   0.400
H222    45.585600787   34.970638512   63.544308193 XXXX 1      hop     H   0.400
H223    48.390533975   33.907302036   37.248044228 XXXX 1      hop     H   0.400
H224    48.444576846   33.913418421   44.120696038 XXXX 1      hop     H   0.400
H225    48.530159715   33.928681447   50.991916805 XXXX 1      hop     H   0.400
H226    48.498663936   33.922256847   57.868316396 XXXX 1      hop     H   0.400
H227    38.552653435   37.336440416   85.358650709 XXXX 1      hop     H   0.400
H228    38.566779370   37.344089389   78.483113468 XXXX 1      hop     H   0.400
H229    38.617636466   37.373894988   71.606155355 XXXX 1      hop     H   0.400
H230    38.599704221   37.362968958   64.731850178 XXXX 1      hop     H   0.400
H231    38.566317240   37.343834950   57.858131088 XXXX 1      hop     H   0.400
H232    38.528130200   37.323779399   50.984576868 XXXX 1      hop     H   0.400
H233    38.563170156   37.342109836   44.108251000 XXXX 1      hop     H   0.400
H234    38.575375576   37.348874782   37.232785157 XXXX 1      hop     H   0.400
H235    40.439218542   38.653336773   85.366663417 XXXX 1      hop     H   0.400
H236    40.236825357   38.615953918   37.248599596 XXXX 1      hop     H   0.400
H237    40.463652530   38.660550668   57.865797570 XXXX 1      hop     H   0.400
H238    40.387685909   38.640090606   64.743468784 XXXX 1      hop     H   0.400
H239    37.146779578   40.053880864   79.794876995 XXXX 1      hop     H   0.400
H240    37.102857402   40.162146899   70.446959791 XXXX 1      hop     H   0.400
H241    37.044670674   40.449636332   49.817575093 XXXX 1      hop     H   0.400
H242    37.043573175   40.468442044   42.942339876 XXXX 1      hop     H   0.400
H243    33.972961912   45.935186687   82.429694328 XXXX 1      hop     H   0.400
H244    33.806628531   45.843219474   75.075224685 XXXX 1      hop     H   0.400
H245    33.586471115   45.923822475   68.199131643 XXXX 1      hop     H   0.400
H246    33.505180223   45.968067642   61.323433570 XXXX 1      hop     H   0.400
H247    33.447008610   46.005459920   54.447817517 XXXX 1      hop     H   0.400
H248    33.384788755   46.051526822   47.572035125 XXXX 1      hop     H   0.400
H249    33.334761039   46.093810985   40.696299419 XXXX 1      hop     H   0.400
H250    33.278382603   46.148095788   33.820335457 XXXX 1      hop     H   0.400
H251    35.596806357   45.138197818   82.412452729 XXXX 1      hop     H   0.400
H252    35.768516464   44.922837751   75.415771703 XXXX 1      hop     H   0.400
H253    35.994960463   44.902835336   68.731313825 XXXX 1      hop     H   0.400
H254    36.089430488   44.718939663   61.326314890 XXXX 1      hop     H   0.400
H255    35.273239530   48.659929532   32.861611056 XXXX 1      hop     H   0.400
H256    35.199692660   48.636881586   41.946390738 XXXX 1      hop     H   0.400
H257    35.176116472   48.608059137   48.821712614 XXXX 1      hop     H   0.400
H258    35.069593208   48.445964067   55.697771773 XXXX 1      hop     H   0.400
H259    33.559721203   57.319183531   33.782599968 XXXX 1      hop     H   0.400
H260    33.436442059   57.243796765   40.659362135 XXXX 1      hop     H   0.400
H261    33.373416012   57.195919696   47.535460437 XXXX 1      hop     H   0.400
H262    33.356579952   57.181877008   54.410780327 XXXX 1      hop     H   0.400
H263    33.288164508   57.118513586   61.287213429 XXXX 1      hop     H   0.400
H264    33.269104740   57.098832040   68.162655582 XXXX 1      hop     H   0.400
H265    33.234307603   57.060228692   75.038519291 XXXX 1      hop     H   0.400
H266    33.231310067   57.056727806   81.913597403 XXXX 1      hop     H   0.400
H267    35.381309928   54.666265330   81.941735751 XXXX 1      hop     H   0.400
H268    35.483663384   54.516563955   75.067690883 XXXX 1      hop     H   0.400
H269    35.653214588   54.348324159   68.193334531 XXXX 1      hop     H   0.400
H270    35.857458757   54.218956628   61.318247213 XXXX 1      hop     H   0.400
H271    35.197919759   58.052079108   32.593387043 XXXX 1      hop     H   0.400
H272    35.222039310   58.079791057   41.938093300 XXXX 1      hop     H   0.400
H273    35.223065001   58.080929254   48.813043954 XXXX 1      hop     H   0.400
H274    35.159539786   58.003817823   53.220283700 XXXX 1      hop     H   0.400
H275    38.447313432   64.194586124   85.397656393 XXXX 1      hop     H   0.400
H276    38.459042211   64.270922546   78.521557810 XXXX 1      hop     H   0.400
H277    38.467416639   64.311056724   71.645912584 XXXX 1      hop     H   0.400
H278    38.476256952   64.347046091   64.770293224 XXXX 1      hop     H   0.400
H279    38.498997476   64.422417061   57.893866642 XXXX 1      hop     H   0.400
H280    38.523044268   64.486436709   51.017509971 XXXX 1      hop     H   0.400
H281    38.524051756   64.488878567   44.142455459 XXXX 1      hop     H   0.400
H282    38.530560520   64.504271853   37.267106986 XXXX 1      hop     H   0.400
H283    38.653771204   61.868566455   37.214772642 XXXX 1      hop     H   0.400
H284    38.604458318   61.589896694   44.094294066 XXXX 1      hop     H   0.400
H285    38.603217176   61.536241296   50.970312511 XXXX 1      hop     H   0.400
H286    41.900223512   63.787234811   86.944147226 XXXX 1      hop     H   0.400
H287    41.776262222   63.748750465   80.270260135 XXXX 1      hop     H   0.400
H288    41.795504056   63.789212857   73.306740494 XXXX 1      hop     H   0.400
H289    41.658527927   63.586281903   57.426266622 XXXX 1      hop     H   0.340
H290    38.603529563   61.511056649   64.720806582 XXXX 1      hop     H   0.400
H291    38.873380495   59.551469456   87.420125893 XXXX 1      hop     H   0.400
H292    37.072064470   49.874091107   86.855200571 XXXX 1      hop     H   0.400
H293    42.267977231   53.537789372   87.286121337 XXXX 1      hop     H   0.400
H294    42.486096301   44.061844029   86.828339287 XXXX 1      hop     H   0.400
H295    37.065074416   57.154565953   85.911328798 XXXX 1      hop     H   0.400
H296    37.193329981   47.786031777   86.091091573 XXXX 1      hop     H   0.400
H297    38.697530613   52.100623806   85.812869378 XXXX 1      hop     H   0.400
H298    38.740746665   42.705242590   85.900654913 XXXX 1      hop     H   0.400
H299    43.677655787   58.373218560   87.284632207 XXXX 1      hop     H   0.400
H300    43.591714190   48.960265481   87.381283528 XXXX 1      hop     H   0.400
H301    43.480421207   38.952540211   87.323552014 XXXX 1      hop     H   0.400
H302    44.797693433   59.374364870   86.471981963 XXXX 1      hop     H   0.400
H303    44.683461320   49.595748974   86.435136409 XXXX 1      hop     H   0.400
H304    44.722128968   40.537640396   86.470976929 XXXX 1      hop     H   0.400
H305    47.276159751   64.188151647   87.125464537 XXXX 1      hop     H   0.400
H306    47.322188278   54.768736154   87.030280407 XXXX 1      hop     H   0.400
H307    47.319794201   45.351904493   87.035853349 XXXX 1      hop     H   0.400
H308    48.995910505   58.231078395   87.555573500 XXXX 1      hop     H   0.400
H309    49.078768383   48.811900971   87.599717079 XXXX 1      hop     H   0.400
H310    49.222068279   39.390090700   87.656604944 XXXX 1      hop     H   0.400
H311    47.741241748   59.464496344   86.469182233 XXXX 1      hop     H   0.400
H312    47.746285759   47.517744744   86.463379457 XXXX 1      hop     H   0.400
H313    47.669227573   38.014980731   86.456974909 XXXX 1      hop     H   0.400
H314    45.668277078   61.942743236   86.343045216 XXXX 1      hop     H   0.400
H315    45.733043758   52.534279742   86.373982385 XXXX 1      hop     H   0.400
H316    48.434133577   44.503767873   86.463613228 XXXX 1      hop     H   0.400
H317    51.791721972   63.051188721   87.336855533 XXXX 1      hop     H   0.400
H318    51.482455346   53.634499372   87.580024391 XXXX 1      hop     H   0.400
H319    51.368962364   44.216262419   87.632359467 XXXX 1      hop     H   0.400
H320    51.310493839   34.798414132   87.653556399 XXXX 1      hop     H   0.400
H321    52.917536783   64.041465262   86.474334213 XXXX 1      hop     H   0.400
H322    52.839103426   54.622147835   86.470551225 XXXX 1      hop     H   0.400
H323    52.887288405   45.206595654   86.473534228 XXXX 1      hop     H   0.400
H324    50.752808298   36.914340978   86.470713830 XXXX 1      hop     H   0.400
H325    54.917320535   40.568685444   87.611518051 XXXX 1      hop     H   0.400
H326    55.004626692   49.989445406   87.567206459 XXXX 1      hop     H   0.400
H327    55.255110058   59.415840699   87.374112391 XXXX 1      hop     H   0.400
H328    57.640168026   44.043150438   87.708163562 XXXX 1      hop     H   0.400
H329    57.610873411   53.458527794   87.705925081 XXXX 1      hop     H   0.400
H330    57.707696738   62.880828276   87.710356789 XXXX 1      hop     H   0.400
H331    56.018401998   64.148573624   86.460516648 XXXX 1      hop     H   0.400
H332    55.792038700   54.727261144   86.470177548 XXXX 1      hop     H   0.400
H333    55.715544345   45.308028289   86.462973102 XXXX 1      hop     H   0.400
H334    56.811429347   58.640944156   86.410438413 XXXX 1      hop     H   0.400
H335    56.492816260   49.221364472   86.471151343 XXXX 1      hop     H   0.400
H336    56.502808015   39.804551923   86.470685710 XXXX 1      hop     H   0.400
H337    59.940996398   58.367332987   87.341584510 XXXX 1      hop     H   0.400
H338    59.565927852   48.949964155   87.613452835 XXXX 1      hop     H   0.400
H339    59.486969906   39.531464558   87.644921439 XXXX 1      hop     H   0.400
H340    60.981378490   59.349303304   86.468565351 XXXX 1      hop     H   0.400
H341    61.038140716   49.934845016   86.472462639 XXXX 1      hop     H   0.400
H342    61.133967061   40.521771324   86.472435467 XXXX 1      hop     H   0.400
H343    63.417422442   54.748545863   87.362619632 XXXX 1      hop     H   0.400
H344    63.576570495   45.318142535   87.150997682 XXXX 1      hop     H   0.400
H345    65.625702223   57.721575358   87.596277453 XXXX 1      hop     H   0.400
H346    65.548613402   48.817362989   87.660698640 XXXX 1      hop     H   0.400
H347    64.145436416   59.461038402   86.462428168 XXXX 1      hop     H   0.400
H348    64.698360848   53.951576683   86.466119382 XXXX 1      hop     H   0.400
H349    63.855534752   50.032811195   86.459560380 XXXX 1      hop     H   0.400
H350    64.449367396   44.524632124   86.460369746 XXXX 1      hop     H   0.400
H351    38.144923722   43.285627616   31.701903099 XXXX 1      hop     H   0.400
H352    37.971065611   52.676896520   31.590060370 XXXX 1      hop     H   0.400
H353    39.922916624   46.704499036   31.792286947 XXXX 1      hop     H   0.400
H354    39.878560514   56.124794166   31.838983134 XXXX 1      hop     H   0.400
H355    39.612730698   44.573857278   32.803196093 XXXX 1      hop     H   0.400
H356    39.471219087   53.974813125   32.749545953 XXXX 1      hop     H   0.400
H357    38.639573377   47.508428627   32.705364494 XXXX 1      hop     H   0.400
H358    38.569399283   56.921963580   32.713026742 XXXX 1      hop     H   0.400
H359    43.516679865   43.864661587   31.987578575 XXXX 1      hop     H   0.400
H360    43.788377880   52.561193110   31.539265835 XXXX 1      hop     H   0.400
H361    43.956531747   61.983578801   31.486420494 XXXX 1      hop     H   0.400
H362    42.340799419   42.164979249   32.699041794 XXXX 1      hop     H   0.400
H363    42.453760060   51.588036872   32.715910193 XXXX 1      hop     H   0.400
H364    42.289223426   60.996395731   32.695252949 XXXX 1      hop     H   0.400
H365    46.043211159   38.667836692   31.546097165 XXXX 1      hop     H   0.400
H366    46.097950524   48.086718659   31.571215090 XXXX 1      hop     H   0.400
H367    46.218564667   57.507793390   31.640280968 XXXX 1      hop     H   0.400
H368    48.370791482   42.134547456   31.570175882 XXXX 1      hop     H   0.400
H369    48.464638997   51.555213784   31.529481321 XXXX 1      hop     H   0.400
H370    48.579894221   60.976646821   31.492763150 XXXX 1      hop     H   0.400
H371    47.426085564   37.353105687   32.696601403 XXXX 1      hop     H   0.400
H372    47.774167730   46.777430569   32.741100343 XXXX 1      hop     H   0.400
H373    46.762094394   42.861131708   32.701575615 XXXX 1      hop     H   0.400
H374    47.759962457   58.726575112   32.797029740 XXXX 1      hop     H   0.400
H375    46.932638311   52.279705829   32.697671919 XXXX 1      hop     H   0.400
H376    47.022043727   61.698353202   32.706115482 XXXX 1      hop     H   0.400
H377    51.586855545   66.761329060   31.768010741 XXXX 1      hop     H   0.400
H378    51.640825898   57.342715999   31.719290201 XXXX 1      hop     H   0.400
H379    51.627143142   47.926118711   31.731043220 XXXX 1      hop     H   0.400
H380    51.707266840   38.506813918   31.667348164 XXXX 1      hop     H   0.400
H381    50.336540166   37.492268923   32.693854988 XXXX 1      hop     H   0.400
H382    50.320936888   46.909597039   32.694668917 XXXX 1      hop     H   0.400
H383    50.330490192   56.326395873   32.694144429 XXXX 1      hop     H   0.400
H384    53.092988009   64.613123998   32.782315450 XXXX 1      hop     H   0.400
H385    53.909244091   43.314629136   31.467525964 XXXX 1      hop     H   0.400
H386    53.873826236   52.732852716   31.463379182 XXXX 1      hop     H   0.400
H387    53.870384382   62.149973564   31.463037600 XXXX 1      hop     H   0.400
H388    56.244839413   37.330567560   31.774096015 XXXX 1      hop     H   0.400
H389    56.473547296   46.747497416   31.603651463 XXXX 1      hop     H   0.400
H390    56.488633270   56.164723951   31.595321499 XXXX 1      hop     H   0.400
H391    54.823865598   38.091604715   32.721602398 XXXX 1      hop     H   0.400
H392    54.734440793   47.509514440   32.742190010 XXXX 1      hop     H   0.400
H393    54.628357182   56.928982003   32.777010365 XXXX 1      hop     H   0.400
H394    55.851699230   44.563506182   32.773414239 XXXX 1      hop     H   0.400
H395    55.870364312   53.981506516   32.780763963 XXXX 1      hop     H   0.400
H396    55.854193376   63.397637344   32.774373918 XXXX 1      hop     H   0.400
H397    59.764070453   43.122671387   31.752290047 XXXX 1      hop     H   0.400
H398    59.817951141   52.537362478   31.706150567 XXXX 1      hop     H   0.400
H399    59.755954284   61.957063616   31.759775739 XXXX 1      hop     H   0.400
H400    58.361142209   42.115681214   32.711704625 XXXX 1      hop     H   0.400
H401    58.477375104   51.534862488   32.698503930 XXXX 1      hop     H   0.400
H402    58.511906564   60.952706834   32.696948538 XXXX 1      hop     H   0.400
H403    61.907135769   47.931793940   31.465136425 XXXX 1      hop     H   0.400
H404    61.902115174   57.348943545   31.465185279 XXXX 1      hop     H   0.400
H405    63.734747066   46.726204867   32.701001573 XXXX 1      hop     H   0.400
H406    64.077988024   58.667438689   32.806544093 XXXX 1      hop     H   0.400
H407    64.241143003   41.972904014   31.983754334 XXXX 1      hop     H   0.400
H408    62.853057340   42.722379442   32.767124519 XXXX 1      hop     H   0.400
H409    64.438390126   51.357508593   31.757725142 XXXX 1      hop     H   0.400
H410    62.819020929   52.139497934   32.778550413 XXXX 1      hop     H   0.400
end
end
