!BIOSYM archive 3
PBC=ON
Materials Studio Generated CAR File
!DATE Sat Jun 06 01:08:35 2009
PBC   19.5029   11.2600   21.4800   90.0000   90.0000   90.0000 (P1)
AL1      0.000000000    0.000000000    0.000000000 XXX  1      ac2     Al  1.200
CA1      0.087762907    9.137490273   18.795000076 XXX  1      ca+e    Ca  1.600
CA2      9.692936897   -3.468079805    2.684999943 XXX  1      ca+e    Ca  1.600
O1      -0.058509000    1.542619944   -1.116959095 XXX  1      oc8     O  -0.900
O2      -0.039005470   -1.497579575    1.224359989 XXX  1      oc5     O  -0.900
O3       0.039005771    1.621440053   17.291400909 XXX  1      oc7     O  -0.900
O4       0.039005954   -1.418759942    4.253039837 XXX  1      oc8     O  -0.900
O5       0.000000017    3.918479919    1.009559989 XXX  1      o*      O  -0.820
O6       0.097514354    7.409080029   20.577840805 XXX  1      o*      O  -0.820
O7       9.722191811   -1.728409767    4.274519920 XXX  1      o*      O  -0.820
O8       9.712440491    1.767820120   16.926240921 XXX  1      o*      O  -0.820
O9       2.564630270    3.079610109   13.274640083 XXX  1      o*      O  -0.820
O10      7.255075932    2.488460064    8.033519745 XXX  1      o*      O  -0.820
O11      2.525624514    3.113389969    2.706480026 XXX  1      o*      O  -0.820
O12      7.489110470    2.409639835   18.687599182 XXX  1      o*      O  -0.820
O13      3.250482082    5.630000114    9.021599770 XXX  1      oc11    O  -0.600
O14      3.250482082    5.630000114   17.484720230 XXX  1      oc11    O  -0.600
O15      3.250482082    5.630000114    1.503600001 XXX  1      oc11    O  -0.600
O16      1.901531935    6.131070137   11.126640320 XXX  1      oc11    O  -0.600
O17      1.901532054    5.883349895   15.530039787 XXX  1      oc11    O  -0.600
O18      1.872277498    5.506140232   -0.386639088 XXX  1      oc11    O  -0.600
O19      1.921034694    6.063509941    5.219639778 XXX  1      o*      O  -0.820
S1       3.250482082    5.630000114   10.546680450 XXX  1      s'      S   0.600
S2       3.250482082    5.630000114   16.110000610 XXX  1      s'      S   0.600
S3       3.250482082    5.630000114    0.193320006 XXX  1      s'      S   0.600
H1       0.797258186    6.738768451   20.724975502 XXX  1      h*      H   0.410
H2      -0.669144715    6.935052867   20.957405799 XXX  1      h*      H   0.410
H3      10.410723631   -1.120843106    4.579458873 XXX  1      h*      H   0.410
H4       8.936072228   -1.167890139    4.450928726 XXX  1      h*      H   0.410
H5       8.963362775    1.157211502   16.846597764 XXX  1      h*      H   0.410
H6      10.419419799    1.243175573   16.503008957 XXX  1      h*      H   0.410
H7       2.877714828    3.596041765   12.503672502 XXX  1      h*      H   0.410
H8       2.928821091    3.618674180   14.005012372 XXX  1      h*      H   0.410
H9       6.905230240    2.083603844    8.849423788 XXX  1      h*      H   0.410
H10      7.044642149    1.753827273    7.427403799 XXX  1      h*      H   0.410
H11      3.068298673    2.336318290    2.483517948 XXX  1      h*      H   0.410
H12      2.872375664    3.806215650    2.114301744 XXX  1      h*      H   0.410
H13      7.084391465    1.607860218   19.070165948 XXX  1      h*      H   0.410
H14      6.776419940    3.060723077   18.759908226 XXX  1      h*      H   0.410
H15      0.734003519    4.417984182    0.598862915 XXX  1      h*      H   0.410
H16     -0.734287000    4.531690470    0.819752845 XXX  1      h*      H   0.410
H17      2.721902529    6.534937313    5.514353342 XXX  1      h*      H   0.410
H18      1.771732947    6.534452358    4.377475844 XXX  1      h*      H   0.410
AL2      9.751445770   -5.630000114    0.000000000 XXX  1      ac2     Al  1.200
CA3      9.839208603    3.507490158   18.795000076 XXX  1      ca+e    Ca  1.600
CA4     19.444383621   -9.098079681    2.684999943 XXX  1      ca+e    Ca  1.600
O20      9.692936897   -4.087379932   -1.116959095 XXX  1      oc8     O  -0.900
O21      9.712440491   -7.127579689    1.224359989 XXX  1      oc5     O  -0.900
O22      9.790452003   -4.008559704   17.291400909 XXX  1      oc7     O  -0.900
O23      9.790452003   -7.048759937    4.253039837 XXX  1      oc8     O  -0.900
O24      9.751445770   -1.711520076    1.009559989 XXX  1      o*      O  -0.820
O25      9.848960876    1.779079795   20.577840805 XXX  1      o*      O  -0.820
O26     19.473638535   -7.358409882    4.274519920 XXX  1      o*      O  -0.820
O27     19.463886261   -3.862179995   16.926240921 XXX  1      o*      O  -0.820
O28     12.316076279   -2.550389767   13.274640083 XXX  1      o*      O  -0.820
O29     17.006521225   -3.141539812    8.033519745 XXX  1      o*      O  -0.820
O30     12.277070999   -2.516609907    2.706480026 XXX  1      o*      O  -0.820
O31     17.240556717   -3.220360041   18.687599182 XXX  1      o*      O  -0.820
O32     13.001928329    0.000000116    9.021599770 XXX  1      oc11    O  -0.600
O33     13.001928329    0.000000116   17.484720230 XXX  1      oc11    O  -0.600
O34     13.001928329    0.000000116    1.503600001 XXX  1      oc11    O  -0.600
O35     11.652977943    0.501070082   11.126640320 XXX  1      oc11    O  -0.600
O36     11.652977943    0.253349960   15.530039787 XXX  1      oc11    O  -0.600
O37     11.623723984   -0.123859815   -0.386639088 XXX  1      oc11    O  -0.600
O38     11.672480583    0.433509797    5.219639778 XXX  1      o*      O  -0.820
S4      13.001928329    0.000000116   10.546680450 XXX  1      s'      S   0.600
S5      13.001928329    0.000000116   16.110000610 XXX  1      s'      S   0.600
S6      13.001928329    0.000000116    0.193320006 XXX  1      s'      S   0.600
H19     10.548704675    1.108768194   20.724975303 XXX  1      h*      H   0.410
H20      9.082302179    1.305052547   20.957406509 XXX  1      h*      H   0.410
H21     20.162171987   -6.750844662    4.579458054 XXX  1      h*      H   0.410
H22     18.687520062   -6.797889019    4.450929727 XXX  1      h*      H   0.410
H23     18.714808285   -4.472788319   16.846598005 XXX  1      h*      H   0.410
H24     20.170865715   -4.386824729   16.503009578 XXX  1      h*      H   0.410
H25     12.629160778   -2.033958054   12.503672523 XXX  1      h*      H   0.410
H26     12.680267062   -2.011325695   14.005012383 XXX  1      h*      H   0.410
H27     16.656675971   -3.546396219    8.849423914 XXX  1      h*      H   0.410
H28     16.796087810   -3.876172897    7.427403966 XXX  1      h*      H   0.410
H29     12.819747139   -3.293680151    2.483517713 XXX  1      h*      H   0.410
H30     12.623821194   -1.823782998    2.114302513 XXX  1      h*      H   0.410
H31     16.835838021   -4.022139648   19.070166205 XXX  1      h*      H   0.410
H32     16.527866419   -2.569276716   18.759908824 XXX  1      h*      H   0.410
H33     10.485448201   -1.212014951    0.598862101 XXX  1      h*      H   0.410
H34      9.017158029   -1.098309933    0.819754035 XXX  1      h*      H   0.410
H35     12.473348210    0.904937681    5.514353004 XXX  1      h*      H   0.410
H36     11.523177682    0.904452665    4.377476276 XXX  1      h*      H   0.410
AL1      0.000000000   -0.000000000    5.369999886 XXX  2      ac2     Al  1.200
AL2      9.751445770   -5.630000114    5.369999886 XXX  2      ac2     Al  1.200
H1      -0.040497593   -2.335495772    0.777805389 XXX  3      hoc     H   0.350
H2       9.710947758   -7.965495868    0.777805196 XXX  3      hoc     H   0.350
H1       0.000956541    2.454342314   16.839241531 XXX  4      hoc     H   0.350
H2       0.059971961   -2.246808181    4.714760966 XXX  4      hoc     H   0.350
H3      -0.090882952    2.363531423   -0.643366495 XXX  4      hoc     H   0.350
H4       9.752400877   -3.175657520   16.839241446 XXX  4      hoc     H   0.350
H5       9.811416320   -7.876808138    4.714761233 XXX  4      hoc     H   0.350
H6       9.660560644   -3.266468594   -0.643366296 XXX  4      hoc     H   0.350
CA1      1.794266105    1.137259841   18.795000076 XXX  5      ca+e    Ca  1.600
CA2      7.908422947    4.498369217    2.684999943 XXX  5      ca+e    Ca  1.600
O1      -1.306693316   -0.821980000   -1.116959095 XXX  5      oc9     O  -0.900
O2       1.316444635    0.715010226    1.224359989 XXX  5      oc6     O  -0.900
O3      -1.423711300   -0.776940465   17.291400909 XXX  5      oc6     O  -0.900
O4       1.209179163    0.743160129    4.253039837 XXX  5      oc9     O  -0.900
O5       6.357943058    3.670760155    1.009559989 XXX  5      o*      O  -0.820
O6       3.286237478    2.009909868   20.577840805 XXX  5      o*      O  -0.820
O7       6.387197018    3.653869867    4.274519920 XXX  5      o*      O  -0.820
O8       3.364248514    1.897310376   16.926240921 XXX  5      o*      O  -0.820
O9       5.802110195    6.311229706   13.274640083 XXX  5      o*      O  -0.820
O10      3.968838453   -0.591150224    8.033519745 XXX  5      o*      O  -0.820
O11      5.792358875    6.260560036    2.706480026 XXX  5      o*      O  -0.820
O12      3.920081377   -0.349059939   18.687599182 XXX  5      o*      O  -0.820
O13      3.491017580    4.211239815   11.126640320 XXX  5      oc11    O  -0.600
O14      3.705549479    4.335099697   15.530039787 XXX  5      oc11    O  -0.600
O15      4.046849728    4.498369694   -0.386639088 XXX  5      oc11    O  -0.600
O16      3.539775133    4.261909962    5.219639778 XXX  5      o*      O  -0.820
H1       3.516876690    2.951063029   20.724976812 XXX  5      h*      H   0.410
H2       4.080085151    1.582977670   20.957408848 XXX  5      h*      H   0.410
H3       6.294820736    2.692808245    4.450922205 XXX  5      h*      H   0.410
H4       5.516763617    3.946379740    4.579453807 XXX  5      h*      H   0.410
H5       4.267589846    1.553895881   16.846590153 XXX  5      h*      H   0.410
H6       3.465114681    2.771894785   16.503014655 XXX  5      h*      H   0.410
H7       5.198325082    6.324147354   12.503671653 XXX  5      h*      H   0.410
H8       5.153178885    6.357100127   14.005018455 XXX  5      h*      H   0.410
H9       4.494370696   -0.691689240    8.849428711 XXX  5      h*      H   0.410
H10      4.710269292   -0.406077486    7.427407375 XXX  5      h*      H   0.410
H11      6.193986505    7.119068509    2.483529095 XXX  5      h*      H   0.410
H12      5.018982974    6.214452599    2.114296764 XXX  5      h*      H   0.410
H13      3.712569523   -1.291808841   18.759898450 XXX  5      h*      H   0.410
H14      4.816801734   -0.298673712   19.070167398 XXX  5      h*      H   0.410
H15      5.558354665    4.056669957    0.598867300 XXX  5      h*      H   0.410
H16      6.194027346    2.728241132    0.819759528 XXX  5      h*      H   0.410
H17      2.731073470    4.719773052    5.514346949 XXX  5      h*      H   0.410
H18      3.206577268    3.897148739    4.377472674 XXX  5      h*      H   0.410
H19      2.042846468    1.132679016    0.777808051 XXX  5      hoc     H   0.350
H20     -2.125997317   -1.226346934   16.839237570 XXX  5      hoc     H   0.350
H21      1.915806937    1.175341778    4.714761623 XXX  5      hoc     H   0.350
H22     -2.001434802   -1.260473466   -0.643364687 XXX  5      hoc     H   0.350
CA3      7.869417191    6.615249634   18.795000076 XXX  5      ca+e    Ca  1.600
CA4      1.901532412   -1.030289412    2.684999943 XXX  5      ca+e    Ca  1.600
O17      1.365202546   -0.720639706   -1.116959095 XXX  5      oc10    O  -0.900
O18     -1.277439117    0.782569230    1.224359989 XXX  5      oc7     O  -0.900
O19      1.384705424   -0.844500005   17.291400909 XXX  5      oc5     O  -0.900
O20     -1.248185277    0.675599873    4.253039837 XXX  5      oc10    O  -0.900
O21      3.393503189   -1.959239960    1.009559989 XXX  5      o*      O  -0.820
O22      6.367693901    7.471010208   20.577840805 XXX  5      o*      O  -0.820
O23      3.393503428   -1.925459862    4.274519920 XXX  5      o*      O  -0.820
O24      6.426202774   -3.665130377   16.926240921 XXX  5      o*      O  -0.820
O25      1.384705544    7.499159813   13.274640083 XXX  5      o*      O  -0.820
O26      8.278977394   -1.897309780    8.033519745 XXX  5      o*      O  -0.820
O27      1.433462620    7.516049862    2.706480026 XXX  5      o*      O  -0.820
O28      8.093699455   -2.060579777   18.687599182 XXX  5      o*      O  -0.820
O29      4.358896255    6.547689915   11.126640320 XXX  5      oc11    O  -0.600
O30      4.144364357    6.671549797   15.530039787 XXX  5      oc11    O  -0.600
O31      3.832318544    6.885489941   -0.386639088 XXX  5      oc11    O  -0.600
O32      4.290636063    6.564580441    5.219639778 XXX  5      o*      O  -0.820
H23      6.340507435    8.371965214   20.957416395 XXX  5      h*      H   0.410
H24      5.437313367    7.200173037   20.724975190 XXX  5      h*      H   0.410
H25      4.271995491   -1.524935084    4.450927052 XXX  5      h*      H   0.410
H26      3.575395835   -2.825535176    4.579445907 XXX  5      h*      H   0.410
H27      6.271941805   -2.711106469   16.846590406 XXX  5      h*      H   0.410
H28      5.618357640   -4.015071354   16.503012647 XXX  5      h*      H   0.410
H29      1.669434686    6.914222950   14.005014187 XXX  5      h*      H   0.410
H30      1.675410003    6.969802502   12.503675735 XXX  5      h*      H   0.410
H31      8.103278165   -1.391915402    8.849428346 XXX  5      h*      H   0.410
H32      7.747990560   -1.347743276    7.427405712 XXX  5      h*      H   0.410
H33      1.860088502    6.869345963    2.114295085 XXX  5      h*      H   0.410
H34      0.489161263    7.434626840    2.483517257 XXX  5      h*      H   0.410
H35      9.013901518   -1.768922999   18.759918907 XXX  5      h*      H   0.410
H36      7.601699512   -1.309194446   19.070169661 XXX  5      h*      H   0.410
H37      3.459077238   -2.844653520    0.598854674 XXX  5      h*      H   0.410
H38      4.291708403   -1.629943249    0.819761718 XXX  5      h*      H   0.410
H39      4.298468243    5.635292943    5.514352899 XXX  5      h*      H   0.410
H40      4.773133139    6.458404084    4.377474081 XXX  5      h*      H   0.410
H41     -2.002351615    1.202817932    0.777808263 XXX  5      hoc     H   0.350
H42      2.125044091   -1.227996318   16.839237979 XXX  5      hoc     H   0.350
H43     -1.975773548    1.071476253    4.714762898 XXX  5      hoc     H   0.350
H44      2.092320937   -1.103053988   -0.643364723 XXX  5      hoc     H   0.350
AL1      0.000000000   -0.000000000   10.739999771 XXX  5      ac2     Al  1.200
CA5      7.957180023   -4.492740154    8.055000305 XXX  5      ca+e    Ca  1.600
CA6      1.843023181   10.128369331   13.425000191 XXX  5      ca+e    Ca  1.600
O33      1.306693554   -0.821980417    9.623041153 XXX  5      oc10    O  -0.900
O34     -1.316444397    0.715010107   11.964360237 XXX  5      oc7     O  -0.900
O35      1.423711181   -0.776940048    6.551401138 XXX  5      oc7     O  -0.900
O36     -1.209179282    0.743160188   14.993040085 XXX  5      oc8     O  -0.900
O37      3.393503189   -1.959239960   11.749560356 XXX  5      o*      O  -0.820
O38      6.465208530   -3.620090008    9.837841034 XXX  5      o*      O  -0.820
O39      3.364248991    9.283869743   15.014519691 XXX  5      o*      O  -0.820
O40      6.387197495    7.527310371    6.186241150 XXX  5      o*      O  -0.820
O41      3.949335814    0.681229889    2.534640074 XXX  5      o*      O  -0.820
O42      5.782607555    5.038849831   18.773519516 XXX  5      o*      O  -0.820
O43      3.959087133    0.630559981   13.446479797 XXX  5      o*      O  -0.820
O44      5.831364632    5.280940056    7.947599411 XXX  5      o*      O  -0.820
O45      6.500964165    0.000000001   19.761600494 XXX  5      oc11    O  -0.600
O46      6.500964165    0.000000001    6.744720459 XXX  5      oc11    O  -0.600
O47      6.500964165    0.000000001   12.243599892 XXX  5      oc11    O  -0.600
O48      6.260428429   -1.418760061   21.866640091 XXX  5      oc11    O  -0.600
O49      6.045896530   -1.294899940    4.790040016 XXX  5      oc11    O  -0.600
O50      5.704596043   -1.131630182   10.353361130 XXX  5      oc11    O  -0.600
O51      6.211670876   -1.368090153   15.959639549 XXX  5      o*      O  -0.820
S1       6.500964165    0.000000001   21.286680222 XXX  5      s'      S   0.600
S2       6.500964165    0.000000001    5.370000839 XXX  5      s'      S   0.600
S3       6.500964165    0.000000001   10.933320045 XXX  5      s'      S   0.600
H45      6.234569218   -2.678936829    9.984976819 XXX  5      h*      H   0.410
H46      5.671360551   -4.047022113   10.217408538 XXX  5      h*      H   0.410
H47      4.234682486    9.576379055   15.319453814 XXX  5      h*      H   0.410
H48      3.456624629    8.322808025   15.190921759 XXX  5      h*      H   0.410
H49      6.286331096    8.401894838    5.763015069 XXX  5      h*      H   0.410
H50      5.483856119    7.183895880    6.106590634 XXX  5      h*      H   0.410
H51      4.553120973    0.694147593    1.763671710 XXX  5      h*      H   0.410
H52      4.598266915    0.727100407    3.265018609 XXX  5      h*      H   0.410
H53      5.041176550    5.223922599   18.167407315 XXX  5      h*      H   0.410
H54      5.257075335    4.938310681   19.589428505 XXX  5      h*      H   0.410
H55      4.732462628    0.584452500   12.854296022 XXX  5      h*      H   0.410
H56      3.557459039    1.489068193   13.223528673 XXX  5      h*      H   0.410
H57      6.038875694    4.338190956    8.019898290 XXX  5      h*      H   0.410
H58      4.934643965    5.331326680    8.330166906 XXX  5      h*      H   0.410
H59      4.193091270   -1.573330224   11.338867010 XXX  5      h*      H   0.410
H60      3.557418419   -2.901758995   11.559759584 XXX  5      h*      H   0.410
H61      7.020372342   -0.910227109   16.254347307 XXX  5      h*      H   0.410
H62      6.544869067   -1.732851024   15.117472461 XXX  5      h*      H   0.410
AL2      0.000000000    0.000000000   16.110000610 XXX  5      ac2     Al  1.200
H63     -2.042845763    1.132679719   11.517808293 XXX  5      hoc     H   0.350
H64      2.125998376   -1.226345212    6.099238387 XXX  5      hoc     H   0.350
H65     -1.915806695    1.175342353   15.454761933 XXX  5      hoc     H   0.350
H66      2.001435644   -1.260472845   10.096635617 XXX  5      hoc     H   0.350
CA7      1.882028937    0.985249996    8.055000305 XXX  5      ca+e    Ca  1.600
CA8      7.849913597    4.599710464   13.425000191 XXX  5      ca+e    Ca  1.600
O52     -1.365202546   -0.720639467    9.623041153 XXX  5      oc9     O  -0.900
O53      1.277439356    0.782569349   11.964360237 XXX  5      oc6     O  -0.900
O54     -1.384705544   -0.844499886    6.551401138 XXX  5      oc6     O  -0.900
O55      1.248185158    0.675599813   14.993040085 XXX  5      oc9     O  -0.900
O56      6.357943058    3.670760155   11.749560356 XXX  5      o*      O  -0.820
O57      3.383751869    1.841010094    9.837841034 XXX  5      o*      O  -0.820
O58      6.357942581    3.704540014   15.014519691 XXX  5      o*      O  -0.820
O59      3.325243235    1.964869499    6.186241150 XXX  5      o*      O  -0.820
O60      8.366740227    1.869159937    2.534640074 XXX  5      o*      O  -0.820
O61      1.472468138    3.732690096   18.773519516 XXX  5      o*      O  -0.820
O62      8.317983627    1.886049867   13.446479797 XXX  5      o*      O  -0.820
O63      1.657745957    3.569420099    7.947599411 XXX  5      o*      O  -0.820
O64      5.392549515    0.917689979   21.866640091 XXX  5      oc11    O  -0.600
O65      5.607081413    1.041549921    4.790040016 XXX  5      oc11    O  -0.600
O66      5.919127464    1.255490184   10.353361130 XXX  5      oc11    O  -0.600
O67      5.460809708    0.934580207   15.959639549 XXX  5      o*      O  -0.820
H67      4.314132384    1.570172799    9.984975288 XXX  5      h*      H   0.410
H68      3.410938460    2.741965055   10.217416698 XXX  5      h*      H   0.410
H69      6.176050005    2.804464179   15.319444086 XXX  5      h*      H   0.410
H70      5.479450271    4.105064364   15.190926687 XXX  5      h*      H   0.410
H71      3.479504426    2.918893309    6.106590062 XXX  5      h*      H   0.410
H72      4.133088009    1.614928031    5.763012607 XXX  5      h*      H   0.410
H73      8.076035534    1.339802639    1.763675763 XXX  5      h*      H   0.410
H74      8.082010601    1.284223261    3.265014186 XXX  5      h*      H   0.410
H75      2.003454777    4.282256709   18.167405460 XXX  5      h*      H   0.410
H76      1.648167158    4.238084496   19.589428114 XXX  5      h*      H   0.410
H77      7.891358682    1.239345729   12.854294469 XXX  5      h*      H   0.410
H78      9.262285373    1.804626984   13.223518151 XXX  5      h*      H   0.410
H79      0.737544308    3.861077719    8.019919757 XXX  5      h*      H   0.410
H80      2.149746840    4.320805235    8.330169110 XXX  5      h*      H   0.410
H81      5.459737768    4.000056572   11.559761889 XXX  5      h*      H   0.410
H82      6.292369212    2.785346517   11.338855125 XXX  5      h*      H   0.410
H83      4.978312500    0.828403852   15.117473898 XXX  5      h*      H   0.410
H84      5.452977217    0.005292742   16.254352789 XXX  5      h*      H   0.410
H85      2.002351892    1.202818176   11.517808712 XXX  5      hoc     H   0.350
H86     -2.125043954   -1.227996769    6.099238210 XXX  5      hoc     H   0.350
H87      1.975773993    1.071475770   15.454762654 XXX  5      hoc     H   0.350
H88     -2.092320535   -1.103054293   10.096635722 XXX  5      hoc     H   0.350
CA9      9.663682938    3.507490158    8.055000305 XXX  5      ca+e    Ca  1.600
CA10     0.058509402    2.161920071   13.425000191 XXX  5      ca+e    Ca  1.600
O68      0.058508981    1.542619944    9.623041153 XXX  5      oc8     O  -0.900
O69      0.039005194   -1.497579575   11.964360237 XXX  5      oc5     O  -0.900
O70     -0.039005745    1.621440053    6.551401138 XXX  5      oc5     O  -0.900
O71     -0.039006010   -1.418760300   14.993040085 XXX  5      oc10    O  -0.900
O72      0.000000017    3.918479919   11.749560356 XXX  5      o*      O  -0.820
O73      9.653931618    1.779080033    9.837841034 XXX  5      o*      O  -0.820
O74      0.029254457    3.901590109   15.014519691 XXX  5      o*      O  -0.820
O75      0.039005373    7.397819996    6.186241150 XXX  5      o*      O  -0.820
O76      7.186815739   -2.550389767    2.534640074 XXX  5      o*      O  -0.820
O77      2.496370077    8.118459702   18.773519516 XXX  5      o*      O  -0.820
O78      7.225821495   -2.516609907   13.446479797 XXX  5      o*      O  -0.820
O79      2.262335539    8.039640427    7.947599411 XXX  5      o*      O  -0.820
O80      7.849914074    0.501069903   21.866640091 XXX  5      oc11    O  -0.600
O81      7.849913597    0.253349930    4.790040016 XXX  5      oc11    O  -0.600
O82      7.879168510   -0.123859756   10.353361130 XXX  5      oc11    O  -0.600
O83      7.830411434    0.433509618   15.959639549 XXX  5      o*      O  -0.820
H89      8.954187686    1.108768542    9.984975490 XXX  5      h*      H   0.410
H90     10.420590158    1.305052687   10.217406900 XXX  5      h*      H   0.410
H91     -0.659278144    4.509155442   15.319459467 XXX  5      h*      H   0.410
H92      0.815373476    4.462110601   15.190928454 XXX  5      h*      H   0.410
H93     -0.667973335    6.873174920    5.763009027 XXX  5      h*      H   0.410
H94      0.788084006    6.787212448    6.106598190 XXX  5      h*      H   0.410
H95      6.822624777   -2.011325810    3.265012382 XXX  5      h*      H   0.410
H96      6.873731097   -2.033958112    1.763672525 XXX  5      h*      H   0.410
H97      2.706804459    7.383826933   18.167403725 XXX  5      h*      H   0.410
H98      2.846215533    7.713603710   19.589423770 XXX  5      h*      H   0.410
H99      6.683144905   -3.293679888   13.223517712 XXX  5      h*      H   0.410
H100     6.879070983   -1.823782747   12.854302734 XXX  5      h*      H   0.410
H101     2.667056757    7.237862260    8.330166678 XXX  5      h*      H   0.410
H102     2.975023086    8.690726783    8.019909791 XXX  5      h*      H   0.410
H103    -0.734002911    4.417984650   11.338863028 XXX  5      h*      H   0.410
H104     0.734287552    4.531690271   11.559754176 XXX  5      h*      H   0.410
H105     7.029543226    0.904936884   16.254352240 XXX  5      h*      H   0.410
H106     7.979714218    0.904452334   15.117475942 XXX  5      h*      H   0.410
H107     0.040498896   -2.335495920   11.517805886 XXX  5      hoc     H   0.350
H108    -0.000953404    2.454342449    6.099242294 XXX  5      hoc     H   0.350
H109    -0.059970954   -2.246808605   15.454761168 XXX  5      hoc     H   0.350
H110     0.090886831    2.363531169   10.096633928 XXX  5      hoc     H   0.350
CA11    11.545712471   -4.492740154   18.795000076 XXX  5      ca+e    Ca  1.600
CA12    17.659868240   -1.131630659    2.684999943 XXX  5      ca+e    Ca  1.600
O84      8.444752693   -6.451980114   -1.116959095 XXX  5      oc9     O  -0.900
O85     11.067891121   -4.914989948    1.224359989 XXX  5      oc6     O  -0.900
O86      8.327734947   -6.406940460   17.291400909 XXX  5      oc6     O  -0.900
O87     10.960625648   -4.886839867    4.253039837 XXX  5      oc9     O  -0.900
O88     16.109388351   -1.959239721    1.009559989 XXX  5      o*      O  -0.820
O89     13.037683487   -3.620090008   20.577840805 XXX  5      o*      O  -0.820
O90     16.138643265   -1.976130247    4.274519920 XXX  5      o*      O  -0.820
O91     13.115695000   -3.732689619   16.926240921 XXX  5      o*      O  -0.820
O92     15.553556442    0.681229591   13.274640083 XXX  5      o*      O  -0.820
O93     13.720284462   -6.221150398    8.033519745 XXX  5      o*      O  -0.820
O94     15.543805122    0.630560160    2.706480026 XXX  5      o*      O  -0.820
O95     13.671527863   -5.979060173   18.687599182 XXX  5      o*      O  -0.820
O96     13.242464066   -1.418760061   11.126640320 XXX  5      oc11    O  -0.600
O97     13.456995964   -1.294900060   15.530039787 XXX  5      oc11    O  -0.600
O98     13.798295975   -1.131630182   -0.386639088 XXX  5      oc11    O  -0.600
O99     13.291221619   -1.368090153    5.219639778 XXX  5      o*      O  -0.820
H111    13.268322581   -2.678936816   20.724976815 XXX  5      h*      H   0.410
H112    13.831531369   -4.047022103   20.957408560 XXX  5      h*      H   0.410
H113    16.046267917   -2.937192082    4.450921751 XXX  5      h*      H   0.410
H114    15.268210062   -1.683621331    4.579455339 XXX  5      h*      H   0.410
H115    14.019036345   -4.076104101   16.846590311 XXX  5      h*      H   0.410
H116    13.216561203   -2.858105240   16.503014623 XXX  5      h*      H   0.410
H117    14.949771453    0.694147300   12.503671551 XXX  5      h*      H   0.410
H118    14.904624987    0.727100159   14.005018329 XXX  5      h*      H   0.410
H119    14.245816650   -6.321689259    8.849428791 XXX  5      h*      H   0.410
H120    14.461715419   -6.036077759    7.427407473 XXX  5      h*      H   0.410
H121    15.945429973    1.489070006    2.483529315 XXX  5      h*      H   0.410
H122    14.770428573    0.584451362    2.114297617 XXX  5      h*      H   0.410
H123    13.464015955   -6.921809087   18.759898211 XXX  5      h*      H   0.410
H124    14.568248261   -5.928674075   19.070167315 XXX  5      h*      H   0.410
H125    15.309800408   -1.573330235    0.598866078 XXX  5      h*      H   0.410
H126    15.945473253   -2.901758822    0.819759268 XXX  5      h*      H   0.410
H127    12.482520027   -0.910227043    5.514347186 XXX  5      h*      H   0.410
H128    12.958023478   -1.732851400    4.377472804 XXX  5      h*      H   0.410
H129    11.794293288   -4.497322232    0.777807481 XXX  5      hoc     H   0.350
H130     7.625447204   -6.856344082   16.839237356 XXX  5      hoc     H   0.350
H131    11.667253224   -4.454658323    4.714762106 XXX  5      hoc     H   0.350
H132     7.750010074   -6.890471630   -0.643364442 XXX  5      hoc     H   0.350
CA13    17.620862961    0.985249817   18.795000076 XXX  5      ca+e    Ca  1.600
CA14    11.652978897   -6.660289288    2.684999943 XXX  5      ca+e    Ca  1.600
O100    11.116648674   -6.350639820   -1.116959095 XXX  5      oc10    O  -0.900
O101     8.474006653   -4.847430706    1.224359989 XXX  5      oc7     O  -0.900
O102    11.136151314   -6.474500179   17.291400909 XXX  5      oc5     O  -0.900
O103     8.503260612   -4.954400063    4.253039837 XXX  5      oc10    O  -0.900
O104    13.144948959   -7.589240074    1.009559989 XXX  5      o*      O  -0.820
O105    16.119140625    1.841010094   20.577840805 XXX  5      o*      O  -0.820
O106    13.144949913   -7.555459976    4.274519920 XXX  5      o*      O  -0.820
O107    16.177648544   -9.295130730   16.926240921 XXX  5      o*      O  -0.820
O108    11.136151314    1.869159937   13.274640083 XXX  5      o*      O  -0.820
O109    18.030424118   -7.527309895    8.033519745 XXX  5      o*      O  -0.820
O110    11.184908867    1.886049986    2.706480026 XXX  5      o*      O  -0.820
O111    17.845146179   -7.690579891   18.687599182 XXX  5      o*      O  -0.820
O112    14.110342979    0.917689979   11.126640320 XXX  5      oc11    O  -0.600
O113    13.895810127    1.041550040   15.530039787 XXX  5      oc11    O  -0.600
O114    13.583765030    1.255489945   -0.386639088 XXX  5      oc11    O  -0.600
O115    14.042081833    0.934580326    5.219639778 XXX  5      o*      O  -0.820
H133    16.091954349    2.741964997   20.957416697 XXX  5      h*      H   0.410
H134    15.188760050    1.570173075   20.724975335 XXX  5      h*      H   0.410
H135    14.023442193   -7.154935607    4.450927045 XXX  5      h*      H   0.410
H136    13.326842055   -8.455535573    4.579445222 XXX  5      h*      H   0.410
H137    16.023387584   -8.341106866   16.846589794 XXX  5      h*      H   0.410
H138    15.369803773   -9.645071882   16.503012098 XXX  5      h*      H   0.410
H139    11.420880627    1.284223245   14.005014298 XXX  5      h*      H   0.410
H140    11.426856009    1.339802567   12.503675841 XXX  5      h*      H   0.410
H141    17.854726045   -7.021915290    8.849428436 XXX  5      h*      H   0.410
H142    17.499438016   -6.977742515    7.427405886 XXX  5      h*      H   0.410
H143    11.611533646    1.239345767    2.114294682 XXX  5      h*      H   0.410
H144    10.240607093    1.804627118    2.483518463 XXX  5      h*      H   0.410
H145    18.765348006   -7.398922580   18.759919156 XXX  5      h*      H   0.410
H146    17.353145808   -6.939194698   19.070169435 XXX  5      h*      H   0.410
H147    13.210522751   -8.474653669    0.598854667 XXX  5      h*      H   0.410
H148    14.043154102   -7.259943461    0.819761222 XXX  5      h*      H   0.410
H149    14.049914013    0.005292893    5.514353078 XXX  5      h*      H   0.410
H150    14.524578673    0.828403716    4.377474002 XXX  5      h*      H   0.410
H151     7.749094436   -4.427181144    0.777808622 XXX  5      hoc     H   0.350
H152    11.876489365   -6.857997671   16.839237968 XXX  5      hoc     H   0.350
H153     7.775671859   -4.558524031    4.714762504 XXX  5      hoc     H   0.350
H154    11.843766614   -6.733055185   -0.643364905 XXX  5      hoc     H   0.350
AL3      9.751445770   -5.630000114   10.739999771 XXX  5      ac2     Al  1.200
CA15    17.708625793  -10.122739792    8.055000305 XXX  5      ca+e    Ca  1.600
CA16    11.594469070    4.498369694   13.425000191 XXX  5      ca+e    Ca  1.600
O116    11.058139801   -6.451980591    9.623041153 XXX  5      oc10    O  -0.900
O117     8.435001373   -4.914989948   11.964360237 XXX  5      oc7     O  -0.900
O118    11.175157547   -6.406939983    6.551401138 XXX  5      oc7     O  -0.900
O119     8.542266846   -4.886839867   14.993040085 XXX  5      oc8     O  -0.900
O120    13.144948959   -7.589240074   11.749560356 XXX  5      o*      O  -0.820
O121    16.216653824   -9.250089645    9.837841034 XXX  5      o*      O  -0.820
O122    13.115695000    3.653869867   15.014519691 XXX  5      o*      O  -0.820
O123    16.138643265    1.897310376    6.186241150 XXX  5      o*      O  -0.820
O124    13.700781822   -4.948770046    2.534640074 XXX  5      o*      O  -0.820
O125    15.534053802   -0.591149986   18.773519516 XXX  5      o*      O  -0.820
O126    13.710533142   -4.999440193   13.446479797 XXX  5      o*      O  -0.820
O127    15.582810402   -0.349059999    7.947599411 XXX  5      o*      O  -0.820
O128    16.252410889   -5.630000114   19.761600494 XXX  5      oc11    O  -0.600
O129    16.252410889   -5.630000114    6.744720459 XXX  5      oc11    O  -0.600
O130    16.252410889   -5.630000114   12.243599892 XXX  5      oc11    O  -0.600
O131    16.011875153   -7.048759937   21.866640091 XXX  5      oc11    O  -0.600
O132    15.797342300   -6.924900055    4.790040016 XXX  5      oc11    O  -0.600
O133    15.456042290   -6.761630058   10.353361130 XXX  5      oc11    O  -0.600
O134    15.963116646   -6.998090267   15.959639549 XXX  5      o*      O  -0.820
S4      16.252410889   -5.630000114   21.286680222 XXX  5      s'      S   0.600
S5      16.252410889   -5.630000114    5.370000839 XXX  5      s'      S   0.600
S6      16.252410889   -5.630000114   10.933320045 XXX  5      s'      S   0.600
H155    15.986014902   -8.308936388    9.984977027 XXX  5      h*      H   0.410
H156    15.422806389   -9.677021588   10.217409881 XXX  5      h*      H   0.410
H157    13.986128248    3.946379400   15.319454317 XXX  5      h*      H   0.410
H158    13.208070770    2.692808185   15.190921886 XXX  5      h*      H   0.410
H159    16.037777608    2.771894914    5.763014994 XXX  5      h*      H   0.410
H160    15.235301811    1.553896331    6.106589748 XXX  5      h*      H   0.410
H161    14.304566838   -4.935852427    1.763671557 XXX  5      h*      H   0.410
H162    14.349713201   -4.902899786    3.265018389 XXX  5      h*      H   0.410
H163    14.792622956   -0.406077469   18.167407017 XXX  5      h*      H   0.410
H164    15.008521217   -0.691689314   19.589428271 XXX  5      h*      H   0.410
H165    14.483908744   -5.045547553   12.854296162 XXX  5      h*      H   0.410
H166    13.308905183   -4.140931871   13.223528845 XXX  5      h*      H   0.410
H167    15.790318492   -1.291809770    8.019897941 XXX  5      h*      H   0.410
H168    14.686089735   -0.298671285    8.330166752 XXX  5      h*      H   0.410
H169    13.944537242   -7.203330264   11.338867477 XXX  5      h*      H   0.410
H170    13.308864434   -8.531759101   11.559759810 XXX  5      h*      H   0.410
H171    16.771818224   -6.540227088   16.254346877 XXX  5      h*      H   0.410
H172    16.296314700   -7.362851119   15.117472396 XXX  5      h*      H   0.410
AL4      9.751445770   -5.630000114   16.110000610 XXX  5      ac2     Al  1.200
H173     7.708598989   -4.497322116   11.517808191 XXX  5      hoc     H   0.350
H174    11.877445415   -6.856343642    6.099237838 XXX  5      hoc     H   0.350
H175     7.835639063   -4.454658089   15.454761824 XXX  5      hoc     H   0.350
H176    11.752882057   -6.890472221   10.096636211 XXX  5      hoc     H   0.350
CA17    11.633475304   -4.644750118    8.055000305 XXX  5      ca+e    Ca  1.600
CA18    17.601360321   -1.030289412   13.425000191 XXX  5      ca+e    Ca  1.600
O135     8.386243820   -6.350639343    9.623041153 XXX  5      oc9     O  -0.900
O136    11.028885841   -4.847430706   11.964360237 XXX  5      oc6     O  -0.900
O137     8.366740227   -6.474499702    6.551401138 XXX  5      oc6     O  -0.900
O138    10.999630928   -4.954400063   14.993040085 XXX  5      oc9     O  -0.900
O139    16.109388351   -1.959239841   11.749560356 XXX  5      o*      O  -0.820
O140    13.135197639   -3.788990021    9.837841034 XXX  5      o*      O  -0.820
O141    16.109388351   -1.925459981   15.014519691 XXX  5      o*      O  -0.820
O142    13.076689720   -3.665130615    6.186241150 XXX  5      o*      O  -0.820
O143    18.118186951   -3.760839939    2.534640074 XXX  5      o*      O  -0.820
O144    11.223914146   -1.897310019   18.773519516 XXX  5      o*      O  -0.820
O145    18.069429398   -3.743950129   13.446479797 XXX  5      o*      O  -0.820
O146    11.409192085   -2.060580015    7.947599411 XXX  5      o*      O  -0.820
O147    15.143995285   -4.712309837   21.866640091 XXX  5      oc11    O  -0.600
O148    15.358528137   -4.588449955    4.790040016 XXX  5      oc11    O  -0.600
O149    15.670573235   -4.374509811   10.353361130 XXX  5      oc11    O  -0.600
O150    15.212255478   -4.695419788   15.959639549 XXX  5      o*      O  -0.820
H177    14.065578135   -4.059827261    9.984975606 XXX  5      h*      H   0.410
H178    13.162384125   -2.888035014   10.217416618 XXX  5      h*      H   0.410
H179    15.927495806   -2.825535610   15.319444721 XXX  5      h*      H   0.410
H180    15.230896161   -1.524935479   15.190926954 XXX  5      h*      H   0.410
H181    13.230950462   -2.711106715    6.106590261 XXX  5      h*      H   0.410
H182    13.884534714   -4.015071664    5.763012660 XXX  5      h*      H   0.410
H183    17.827483026   -4.290197664    1.763675781 XXX  5      h*      H   0.410
H184    17.833458540   -4.345777083    3.265014250 XXX  5      h*      H   0.410
H185    11.754900585   -1.347743327   18.167405346 XXX  5      h*      H   0.410
H186    11.399613337   -1.391915615   19.589428104 XXX  5      h*      H   0.410
H187    17.642803662   -4.390654318   12.854295032 XXX  5      h*      H   0.410
H188    19.013730862   -3.825373727   13.223517468 XXX  5      h*      H   0.410
H189    10.488989835   -1.768923726    8.019919053 XXX  5      h*      H   0.410
H190    11.901191611   -1.309194317    8.330169663 XXX  5      h*      H   0.410
H191    15.211183088   -1.629943373   11.559761792 XXX  5      h*      H   0.410
H192    16.043814493   -2.844653427   11.338855020 XXX  5      h*      H   0.410
H193    14.729758149   -4.801596280   15.117473992 XXX  5      h*      H   0.410
H194    15.204423157   -5.624707214   16.254352922 XXX  5      h*      H   0.410
H195    11.753797897   -4.427181095   11.517808656 XXX  5      hoc     H   0.350
H196     7.626401520   -6.857996618    6.099238760 XXX  5      hoc     H   0.350
H197    11.727219564   -4.558523874   15.454762781 XXX  5      hoc     H   0.350
H198     7.659125608   -6.733054273   10.096635290 XXX  5      hoc     H   0.350
CA19    19.415128708   -2.122509956    8.055000305 XXX  5      ca+e    Ca  1.600
CA20     9.809955597   -3.468079805   13.425000191 XXX  5      ca+e    Ca  1.600
O151     9.809954643   -4.087379932    9.623041153 XXX  5      oc8     O  -0.900
O152     9.790451050   -7.127579689   11.964360237 XXX  5      oc5     O  -0.900
O153     9.712440491   -4.008559704    6.551401138 XXX  5      oc5     O  -0.900
O154     9.712440491   -7.048760414   14.993040085 XXX  5      oc10    O  -0.900
O155     9.751445770   -1.711520076   11.749560356 XXX  5      o*      O  -0.820
O156    19.405378342   -3.850919962    9.837841034 XXX  5      o*      O  -0.820
O157     9.780700684   -1.728409886   15.014519691 XXX  5      o*      O  -0.820
O158     9.790451050    1.767820001    6.186241150 XXX  5      o*      O  -0.820
O159    16.938261032   -8.180389404    2.534640074 XXX  5      o*      O  -0.820
O160    12.247816086    2.488459587   18.773519516 XXX  5      o*      O  -0.820
O161    16.977268219   -8.146610260   13.446479797 XXX  5      o*      O  -0.820
O162    12.013781548    2.409640074    7.947599411 XXX  5      o*      O  -0.820
O163    17.601360321   -5.128930092   21.866640091 XXX  5      oc11    O  -0.600
O164    17.601360321   -5.376649857    4.790040016 XXX  5      oc11    O  -0.600
O165    17.630615234   -5.753859520   10.353361130 XXX  5      oc11    O  -0.600
O166    17.581857681   -5.196490288   15.959639549 XXX  5      o*      O  -0.820
H199    18.705635018   -4.521231921    9.984976288 XXX  5      h*      H   0.410
H200    20.172037974   -4.324946693   10.217405472 XXX  5      h*      H   0.410
H201     9.092168357   -1.120843621   15.319458315 XXX  5      h*      H   0.410
H202    10.566819834   -1.167889693   15.190928642 XXX  5      h*      H   0.410
H203     9.083471388    1.243175729    5.763009407 XXX  5      h*      H   0.410
H204    10.539528442    1.157211012    6.106597911 XXX  5      h*      H   0.410
H205    16.574070855   -7.641324813    3.265012316 XXX  5      h*      H   0.410
H206    16.625177236   -7.663957278    1.763672462 XXX  5      h*      H   0.410
H207    12.458249566    1.753826732   18.167403553 XXX  5      h*      H   0.410
H208    12.597661442    2.083603193   19.589423595 XXX  5      h*      H   0.410
H209    16.434591498   -8.923680037   13.223517580 XXX  5      h*      H   0.410
H210    16.630518181   -7.453782984   12.854302629 XXX  5      h*      H   0.410
H211    12.418500704    1.607860616    8.330166303 XXX  5      h*      H   0.410
H212    12.726471477    3.060723896    8.019909245 XXX  5      h*      H   0.410
H213     9.017443005   -1.212015257   11.338862655 XXX  5      h*      H   0.410
H214    10.485733144   -1.098309592   11.559754196 XXX  5      h*      H   0.410
H215    16.780989376   -4.725063031   16.254351981 XXX  5      h*      H   0.410
H216    17.731160567   -4.725547891   15.117475810 XXX  5      h*      H   0.410
H217     9.791943839   -7.965495962   11.517805621 XXX  5      hoc     H   0.350
H218     9.750491246   -3.175657354    6.099241947 XXX  5      hoc     H   0.350
H219     9.691475934   -7.876808648   15.454761420 XXX  5      hoc     H   0.350
H220     9.842330371   -3.266468694   10.096634160 XXX  5      hoc     H   0.350
end
end
