!BIOSYM archive 3
PBC=ON
Materials Studio Generated CAR File
!DATE Tue Apr 15 10:10:13 2014
PBC    9.4170    9.4170    6.8750   90.0000   90.0000  120.0000 (P1)
O1       0.812216177    2.801366486    0.483312486 XXXX 1      oap1    O  -0.800
O2       1.876337369    7.458077827    0.483312486 XXXX 1      oap1    O  -0.800
O3      -2.688553546    6.051278142    0.483312486 XXXX 1      oap1    O  -0.800
O4       3.896283823    5.353994741    3.920812486 XXXX 1      oap1    O  -0.800
O5       2.832162631    0.697283401    3.920812486 XXXX 1      oap1    O  -0.800
O6       7.397053546    2.104083086    3.920812486 XXXX 1      oap1    O  -0.800
O7       3.896283823    5.353994741    6.391687514 XXXX 1      oap1    O  -0.800
O8       2.832162631    0.697283401    6.391687514 XXXX 1      oap1    O  -0.800
O9       7.397053546    2.104083086    6.391687514 XXXX 1      oap1    O  -0.800
O10      0.812216177    2.801366486    2.954187514 XXXX 1      oap1    O  -0.800
O11      1.876337369    7.458077827    2.954187514 XXXX 1      oap1    O  -0.800
O12     -2.688553546    6.051278142    2.954187514 XXXX 1      oap1    O  -0.800
Ca1      4.708500000    2.718453742    0.009900000 XXXX 1      ca+h    Ca  1.500
Ca2     -0.000000000    5.436907485    3.447400000 XXXX 1      ca+h    Ca  1.500
Ca3      0.000000000    5.436907485    6.865100000 XXXX 1      ca+h    Ca  1.500
Ca4      4.708500000    2.718453742    3.427600000 XXXX 1      ca+h    Ca  1.500
Ca5     -1.101412320    2.014863545    1.718750000 XXXX 1      ca+h    Ca  1.500
P1       1.594015673    3.251216341    1.718750000 XXXX 1      pap     P   1.000
O13      1.613602691    4.788012813    1.718750000 XXXX 1      oap1    O  -0.800
O14      3.018619440    2.682298384    1.718750000 XXXX 1      oap1    O  -0.800
Ca6      3.514283145    6.194078406    1.718750000 XXXX 1      ca+h    Ca  1.500
P2       1.095856219    7.910211124    1.718750000 XXXX 1      pap     P   1.000
O15     -0.244842075    7.158775743    1.718750000 XXXX 1      oap1    O  -0.800
O16      0.876251738    9.428413155    1.718750000 XXXX 1      oap1    O  -0.800
Ca7     -2.412870825    8.101780504    1.718750000 XXXX 1      ca+h    Ca  1.500
P3      -2.689871892    5.149294990    1.718750000 XXXX 1      pap     P   1.000
O17     -1.368760616    4.363933899    1.718750000 XXXX 1      oap1    O  -0.800
O18     -3.894871179    4.200010915    1.718750000 XXXX 1      oap1    O  -0.800
Ca8      5.809912320    6.140497683    5.156250000 XXXX 1      ca+h    Ca  1.500
P4       3.114484327    4.904144887    5.156250000 XXXX 1      pap     P   1.000
O19      3.094897309    3.367348414    5.156250000 XXXX 1      oap1    O  -0.800
O20      1.689880560    5.473062843    5.156250000 XXXX 1      oap1    O  -0.800
Ca9      1.194216855    1.961282822    5.156250000 XXXX 1      ca+h    Ca  1.500
P5       3.612643781    0.245150104    5.156250000 XXXX 1      pap     P   1.000
O21      4.953342075    0.996585485    5.156250000 XXXX 1      oap1    O  -0.800
O22      3.832248262   -1.273051928    5.156250000 XXXX 1      oap1    O  -0.800
Ca10     7.121370825    0.053580723    5.156250000 XXXX 1      ca+h    Ca  1.500
P6       7.398371892    3.006066237    5.156250000 XXXX 1      pap     P   1.000
O23      6.077260616    3.791427328    5.156250000 XXXX 1      oap1    O  -0.800
O24      8.603371179    3.955350312    5.156250000 XXXX 1      oap1    O  -0.800
O25     -0.000000000    0.000000000    5.514437519 XXXX 1      oap2    O  -1.100
O26      0.000000000    0.000000000    2.076937519 XXXX 1      oap2    O  -1.100
H1      -0.000117823    0.000199318    6.624437493 XXXX 1      hop     H   0.200
H2       0.004191421   -0.007016886    3.186907421 XXXX 1      hop     H   0.200
end
end
