!BIOSYM archive 3
PBC=ON
Materials Studio Generated CAR File
!DATE Mon Apr 21 04:36:33 2014
PBC    6.9910    6.9960    6.2380   90.0000   90.0000   90.0000 (P1)
Ca1      5.243250000    0.000000000    2.158350000 XXXX 1      ca+g    Ca  1.500
Ca2      5.243250000    3.498000000    5.277350000 XXXX 1      ca+g    Ca  1.500
Ca3      1.747750000    0.000000000    4.079650000 XXXX 1      ca+g    Ca  1.500
Ca4      1.747750000    3.498000000    0.960650000 XXXX 1      ca+g    Ca  1.500
S1       1.747750000    0.000000000    0.966890000 XXXX 1      s'      S   0.500
S2       1.747750000    3.498000000    4.085890000 XXXX 1      s'      S   0.500
S3       5.243250000    0.000000000    5.271110000 XXXX 1      s'      S   0.500
S4       5.243250000    3.498000000    2.152110000 XXXX 1      s'      S   0.500
O1       1.747750000    1.196320000    0.093570000 XXXX 1      oc11    O  -0.500
O2       1.747750000    4.694320000    3.212570000 XXXX 1      oc11    O  -0.500
O3       5.243250000   -1.196320000    6.144430000 XXXX 1      oc11    O  -0.500
O4       5.243250000    2.301680000    3.025430000 XXXX 1      oc11    O  -0.500
O5       1.747750000   -1.196320000    0.093570000 XXXX 1      oc11    O  -0.500
O6       1.747750000    2.301680000    3.212570000 XXXX 1      oc11    O  -0.500
O7       5.243250000    1.196320000    6.144430000 XXXX 1      oc11    O  -0.500
O8       5.243250000    4.694320000    3.025430000 XXXX 1      oc11    O  -0.500
O9       0.559280000    0.000000000    1.858920000 XXXX 1      oc11    O  -0.500
O10      0.559280000    3.498000000    4.977920000 XXXX 1      oc11    O  -0.500
O11      4.054780000    0.000000000    4.379080000 XXXX 1      oc11    O  -0.500
O12      4.054780000    3.498000000    1.260080000 XXXX 1      oc11    O  -0.500
O13      2.936220000    0.000000000    1.858920000 XXXX 1      oc11    O  -0.500
O14      2.936220000    3.498000000    4.977920000 XXXX 1      oc11    O  -0.500
O15      6.431720000    0.000000000    4.379080000 XXXX 1      oc11    O  -0.500
O16      6.431720000    3.498000000    1.260080000 XXXX 1      oc11    O  -0.500
end
end
