!BIOSYM archive 3
PBC=ON
Materials Studio Generated CAR File
!DATE Thu May 31 03:39:02 2012
PBC    4.9130    8.5096    5.4052   90.0000   90.0000   90.0000 (P1)
O1       1.374657400    1.138579880    1.157253320 XXXX 1      oc23    O  -0.550
O2       3.239632200    0.621198290    2.958986653 XXXX 1      oc23    O  -0.550
O3       2.755210400    2.495004639    4.760719987 XXXX 1      oc23    O  -0.550
O4       0.298710400    1.759778170    4.247946680 XXXX 1      oc23    O  -0.550
O5       3.831157400    3.116202929    2.446213347 XXXX 1      oc23    O  -0.550
O6       0.783132200    3.633584519    0.644480013 XXXX 1      oc23    O  -0.550
Si1      2.309601300    0.000000000    1.801733333 XXXX 1      sc4     Si  1.100
Si2      3.758199350    2.000173398    3.603466667 XXXX 1      sc4     Si  1.100
Si3      1.301699350    2.254609410   -0.000000000 XXXX 1      sc4     Si  1.100
O1       3.831157400    5.393362689    1.157253320 XXXX 2      oc23    O  -0.550
O2       0.783132200    4.875981099    2.958986653 XXXX 2      oc23    O  -0.550
O3       0.298710400    6.749787448    4.760719987 XXXX 2      oc23    O  -0.550
O4       2.755210400    6.014560979    4.247946680 XXXX 2      oc23    O  -0.550
O5       1.374657400    7.370985738    2.446213347 XXXX 2      oc23    O  -0.550
O6       3.239632200    7.888367328    0.644480013 XXXX 2      oc23    O  -0.550
Si1      4.766101300    4.254782809    1.801733333 XXXX 2      sc4     Si  1.100
Si2      1.301699350    6.254956207    3.603466667 XXXX 2      sc4     Si  1.100
Si3      3.758199350    6.509392219   -0.000000000 XXXX 2      sc4     Si  1.100
end
end
