!BIOSYM archive 3
PBC=ON
Materials Studio Generated CAR File
!DATE Wed Aug 28 21:37:39 2013
PBC   33.3675   34.8420   66.8584   90.0000   90.0000   90.0000 (P1)
O1       3.554940201   -0.060798788   10.881271733 XXXX 1      oc23    O  -0.550
O2       9.249171130    0.020862309    3.682400294 XXXX 1      oc23    O  -0.550
O3       6.560751243   -0.173931550    7.181327412 XXXX 1      oc23    O  -0.550
O4       1.851989626    5.004217247    6.396082585 XXXX 1      oc23    O  -0.550
O5       7.443855401    3.766664115   11.347140501 XXXX 1      oc23    O  -0.550
O6       5.017070777    4.186370911    2.778501467 XXXX 1      oc23    O  -0.550
O7       4.948666990    2.992230835   11.699952801 XXXX 1      oc23    O  -0.550
O8       2.499492797    3.773562802    2.860830796 XXXX 1      oc23    O  -0.550
O9       8.126421020    2.826888183    8.000075729 XXXX 1      oc23    O  -0.550
O10      2.953771081    1.261583539    8.562020081 XXXX 1      oc23    O  -0.550
O11     10.067441998    2.191857972    2.048695207 XXXX 1      oc23    O  -0.550
O12      6.104216848    0.517131936    4.613049160 XXXX 1      oc23    O  -0.550
O13      2.627243609    2.408784375   10.918712473 XXXX 1      oc23    O  -0.550
O14      5.965274732    2.385847764    6.599298301 XXXX 1      oc23    O  -0.550
O15      2.424222229    2.374628668    6.198040986 XXXX 1      oc23    O  -0.550
O16      6.830327021    1.326142273   10.821165900 XXXX 1      oc23    O  -0.550
O17      4.326196704    1.661813582    2.884578831 XXXX 1      oc23    O  -0.550
O18      7.165971169    1.203090717    2.393958536 XXXX 1      oc23    O  -0.550
O19      1.189931743    0.439584102   10.274063448 XXXX 1      oc23    O  -0.550
O20      4.148914876    0.517922851    6.338202913 XXXX 1      oc23    O  -0.550
O21      0.540336604    3.460012722    4.562564286 XXXX 1      oc23    O  -0.550
O22      5.946021592    3.229389926    9.227997206 XXXX 1      oc23    O  -0.550
O23      3.793550952    3.009470675    0.746340320 XXXX 1      oc24    O  -0.675
Si1      8.787130581    1.374011636    2.870030582 XXXX 1      sc4     Si  1.100
Si2      2.637323887    0.975569021   10.113670310 XXXX 1      sc4     Si  1.100
Si3      5.724661699    0.848907887    6.207053722 XXXX 1      sc4     Si  1.100
Si4      1.210289321    3.483642446    6.075964308 XXXX 1      sc4     Si  1.100
Si5      6.273890798    2.836612542   10.812541210 XXXX 1      sc4     Si  1.100
Si6      3.896222762    3.193175127    2.327160275 XXXX 1      sc4     Si  1.100
Si7      3.514031630    3.506011067   11.732111329 XXXX 1      sc4     Si  1.100
Si8      0.808484506    3.648340787    3.017807731 XXXX 1      sc4     Si  1.100
Si9      6.616708757    3.272653198    7.725755384 XXXX 1      sc4     Si  1.100
Si10     2.760776777    1.009891905    6.953407243 XXXX 1      sc4     Si  1.100
Si11     8.068628785    0.395056028   11.302746808 XXXX 1      sc4     Si  1.100
Si12     5.687390500    0.654500021    3.100143785 XXXX 1      sc4     Si  1.100
H1       4.461802014    3.532978899    0.287885590 XXXX 1      hoy     H   0.400
O1       2.515732568   -0.486533596   23.190304806 XXXX 2      oc23    O  -0.550
O2       8.695870838    0.002441027   15.280487452 XXXX 2      oc23    O  -0.550
O3       6.057802869   -0.102364839   18.990928450 XXXX 2      oc23    O  -0.550
O4       1.531334630    3.772656822   19.004099111 XXXX 2      oc23    O  -0.550
O5       6.780209291    4.237135645   23.642267669 XXXX 2      oc23    O  -0.550
O6       4.698277228    4.198112568   15.165958499 XXXX 2      oc23    O  -0.550
O7       4.045642430    3.703913706   23.682381395 XXXX 2      oc23    O  -0.550
O8       2.311827141    3.512213006   15.730043332 XXXX 2      oc23    O  -0.550
O9       7.510223592    2.980252170   19.884891498 XXXX 2      oc23    O  -0.550
O10      2.351704738    0.963144375   20.834213163 XXXX 2      oc23    O  -0.550
O11      8.536874570    0.785815984   12.798770426 XXXX 2      oc23    O  -0.550
O12      5.420450456    1.121522143   16.738468584 XXXX 2      oc23    O  -0.550
O13      2.132216608    2.014181142   23.231755523 XXXX 2      oc23    O  -0.550
O15      5.061082215    2.323818505   19.151321588 XXXX 2      oc23    O  -0.550
O16      1.259850046    1.328041197   18.505869571 XXXX 2      oc23    O  -0.550
O17      6.017895439    1.838110675   23.064007937 XXXX 2      oc23    O  -0.550
O18      4.003666339    1.642019866   14.738132216 XXXX 2      oc23    O  -0.550
O19      6.424845616    0.870269546   14.253207833 XXXX 2      oc23    O  -0.550
O20      0.265286961    0.723570808   22.482942715 XXXX 2      oc23    O  -0.550
O21      3.649870630    0.288775388   18.511486529 XXXX 2      oc23    O  -0.550
O22      0.063562751    3.157099730   16.993198319 XXXX 2      oc23    O  -0.550
O23      5.429693177    3.597506223   21.383254353 XXXX 2      oc23    O  -0.550
O24      3.064477878    3.676771687   13.250265043 XXXX 2      oc23    O  -0.550
Si1      8.021880678    1.029128146   14.282425378 XXXX 2      sc4     Si  1.100
Si2      1.781774486    0.744326187   22.363398550 XXXX 2      sc4     Si  1.100
Si3      5.049570705    0.938587708   18.332172273 XXXX 2      sc4     Si  1.100
Si4      0.459457115    2.683715564   18.489957182 XXXX 2      sc4     Si  1.100
Si5      5.526192069    3.369810340   22.969270840 XXXX 2      sc4     Si  1.100
Si6      3.549234167    3.243389524   14.731914509 XXXX 2      sc4     Si  1.100
Si7      2.456488715    3.591478470   23.338396028 XXXX 2      sc4     Si  1.100
Si8      0.696686697    3.582628681   15.590977300 XXXX 2      sc4     Si  1.100
Si9      6.002979999    3.411728659   19.906486599 XXXX 2      sc4     Si  1.100
Si10     2.225148484    0.382547727   19.300215802 XXXX 2      sc4     Si  1.100
Si11     7.233273129    0.843639769   23.467165633 XXXX 2      sc4     Si  1.100
Si12     5.117006416    0.628518318   15.201594002 XXXX 2      sc4     Si  1.100
O1       7.735454301    1.297941114   25.003035977 XXXX 3      oc24    O  -0.675
O3       8.143872254    5.963974581   24.907226896 XXXX 3      oc24    O  -0.675
O4       2.438046532    8.474933253   24.301623599 XXXX 3      oc24    O  -0.675
O5      10.145255072    9.412880091   24.102118980 XXXX 3      oc23    O  -0.550
O6       2.047426496   11.793772742   24.258566897 XXXX 3      oc23    O  -0.550
O8       3.112670641   17.845131561   25.004239469 XXXX 3      oc24    O  -0.675
O9       7.983775153   21.240624228   25.228415663 XXXX 3      oc24    O  -0.675
O10      1.454025483   21.815726846   24.023226526 XXXX 3      oc23    O  -0.550
O11      8.221418325   26.094149741   24.857618737 XXXX 3      oc24    O  -0.675
O12      2.938925997   29.095160535   24.636519018 XXXX 3      oc24    O  -0.675
O13      9.641071618   31.669948485   23.832078602 XXXX 3      oc23    O  -0.550
O14      1.494673762   31.877294863   23.947008054 XXXX 3      oc23    O  -0.550
O15     16.373132149    0.016174214   24.718017709 XXXX 3      oc24    O  -0.675
O16     11.423864026    2.705620551   25.233831375 XXXX 3      oc24    O  -0.675
O17     18.108575816    4.421345526   24.028239745 XXXX 3      oc23    O  -0.550
O19     16.609107165   11.313650057   24.527136784 XXXX 3      oc24    O  -0.675
O20     11.129629393   13.182958375   24.764619131 XXXX 3      oc24    O  -0.675
O21     16.706973895   15.796038388   24.707654531 XXXX 3      oc24    O  -0.675
O22      9.996903172   16.383823689   23.904953598 XXXX 3      oc23    O  -0.550
O24     11.691637899   23.095298761   25.299017177 XXXX 3      oc24    O  -0.675
O26     12.844285516   28.203414524   24.548867377 XXXX 3      oc24    O  -0.675
O27     16.042326395   29.647406497   24.834953645 XXXX 3      oc24    O  -0.675
O29     26.489390666    1.939528648   24.092558794 XXXX 3      oc23    O  -0.550
O31     23.407802394    6.720046319   24.844246831 XXXX 3      oc24    O  -0.675
O33     22.653663246    9.089860054   23.521787012 XXXX 3      oc23    O  -0.550
O34     19.540575442   13.280655730   24.960581022 XXXX 3      oc24    O  -0.675
O35     24.619176016   15.914571726   24.945270378 XXXX 3      oc24    O  -0.675
O36     18.221457428   19.307799702   23.861295151 XXXX 3      oc23    O  -0.550
O37     26.665671105   19.540021332   23.936108885 XXXX 3      oc23    O  -0.550
O38     20.211429173   23.484796446   24.360861682 XXXX 3      oc24    O  -0.675
O39     25.249888626   24.683744965   25.181280241 XXXX 3      oc24    O  -0.675
O40     18.430872241   26.624583650   23.933100156 XXXX 3      oc23    O  -0.550
O42     20.027740239   32.685767551   24.935375446 XXXX 3      oc24    O  -0.675
O44     28.416430967    8.175640547   25.444703409 XXXX 3      oc24    O  -0.675
O45     28.369048414   13.657158182   25.432467248 XXXX 3      oc24    O  -0.675
O47     27.860226943   22.361281536   24.792030443 XXXX 3      oc24    O  -0.675
O48     26.566936239   29.311773349   23.919997242 XXXX 3      oc23    O  -0.550
O49     28.137577166   33.057428072   24.665667821 XXXX 3      oc24    O  -0.675
O50     33.237066716    0.514881133   25.141499268 XXXX 3      oc24    O  -0.675
O51      1.174616045    4.480437229   24.027705746 XXXX 3      oc23    O  -0.550
O53     33.070462071   15.250796248   24.834686645 XXXX 3      oc24    O  -0.675
O55     33.027351585   25.473753313   24.764684885 XXXX 3      oc24    O  -0.675
H1      32.947536726   26.264667122   25.263649670 XXXX 3      hoy     H   0.400
H2      27.239492433   32.921438654   24.798850893 XXXX 3      hoy     H   0.400
H5      15.208672704   29.954922595   25.254356484 XXXX 3      hoy     H   0.400
H7      13.000879244   27.353305175   24.967066725 XXXX 3      hoy     H   0.400
H8       8.755565416   25.461662503   25.320947024 XXXX 3      hoy     H   0.400
H10     24.420606446   24.509499827   25.645678519 XXXX 3      hoy     H   0.400
H12     24.467352564   16.865270298   25.046626679 XXXX 3      hoy     H   0.400
H13     29.115045178    8.074668165   26.068624086 XXXX 3      hoy     H   0.400
H16     32.936192280   15.840531612   25.501933016 XXXX 3      hoy     H   0.400
H21     20.213264889   12.896488011   25.454530595 XXXX 3      hoy     H   0.400
H24      7.215088006    1.986607160   25.314796066 XXXX 3      hoy     H   0.400
H26     19.738411123   24.265328606   24.284107218 XXXX 3      hoy     H   0.400
H30     12.037359094   22.502741101   25.929961542 XXXX 3      hoy     H   0.400
H35     10.892319853    3.410265333   25.509622211 XXXX 3      hoy     H   0.400
H36      3.006224973    8.628133696   25.082797177 XXXX 3      hoy     H   0.400
H37     23.847419563    6.323997023   25.576882243 XXXX 3      hoy     H   0.400
H39     28.135075183   12.869101974   25.856817553 XXXX 3      hoy     H   0.400
H40      3.882375338   17.760988083   25.624083418 XXXX 3      hoy     H   0.400
H41     11.706319649   12.703427563   25.298281931 XXXX 3      hoy     H   0.400
H42     17.191903215   15.097387093   25.211032783 XXXX 3      hoy     H   0.400
H44      3.449231902   28.957395499   25.431198003 XXXX 3      hoy     H   0.400
H45     16.014498294    0.729079309   25.132540828 XXXX 3      hoy     H   0.400
H46     32.530409563    0.719783474   25.720894745 XXXX 3      hoy     H   0.400
H47      7.898454140    6.832690527   25.041212959 XXXX 3      hoy     H   0.400
H48      8.860005321   21.118154420   25.506278736 XXXX 3      hoy     H   0.400
H50     17.423640970   11.751335495   24.321548955 XXXX 3      hoy     H   0.400
H53     20.603629979   32.199757294   25.490366347 XXXX 3      hoy     H   0.400
H55     27.528288534   23.168815536   25.092225856 XXXX 3      hoy     H   0.400
O1       3.484167684    4.912094914   11.016392545 XXXX 4      oc23    O  -0.550
O2       9.279401771    4.963695798    3.698673581 XXXX 4      oc23    O  -0.550
O3       6.446934867    4.764329833    7.068938442 XXXX 4      oc23    O  -0.550
O4       1.433284304   10.030384651    7.199780284 XXXX 4      oc23    O  -0.550
O5       7.864820066    8.766003088   10.862885610 XXXX 4      oc23    O  -0.550
O6       4.429068395    8.927112814    3.943408757 XXXX 4      oc23    O  -0.550
O7       5.323550809    8.394483266   11.459195722 XXXX 4      oc23    O  -0.550
O8       2.236613504    8.366260820    2.709697469 XXXX 4      oc23    O  -0.550
O9       8.357624766    8.008607944    7.615038151 XXXX 4      oc23    O  -0.550
O10      2.051774264    5.657922588    8.963638543 XXXX 4      oc23    O  -0.550
O11      8.074000690    5.017247784    1.348540616 XXXX 4      oc24    O  -0.675
O12      4.858841711    5.506812909    5.046505352 XXXX 4      oc23    O  -0.550
O13      2.982233628    7.508032955   10.569912143 XXXX 4      oc23    O  -0.550
O14      6.001211407    7.291768515    6.725687823 XXXX 4      oc23    O  -0.550
O15      2.306448275    7.580574179    7.245912963 XXXX 4      oc23    O  -0.550
O16      7.054590150    6.381103358   11.513417597 XXXX 4      oc23    O  -0.550
O17      4.211178561    6.690500467    2.761358936 XXXX 4      oc23    O  -0.550
O18      6.803199495    6.035122308    3.481350215 XXXX 4      oc23    O  -0.550
O19      1.072554939    5.971953435   11.396816406 XXXX 4      oc23    O  -0.550
O20      4.129761925    5.778441295    7.517892576 XXXX 4      oc23    O  -0.550
O21      1.590028067    8.837429618    5.040568593 XXXX 4      oc23    O  -0.550
O22      6.402689241    7.386399556    9.257013506 XXXX 4      oc23    O  -0.550
O23      4.309278981    8.831193153    1.243011323 XXXX 4      oc24    O  -0.675
Si1      8.257721944    5.799973506    2.751323530 XXXX 4      sc4     Si  1.100
Si2      2.412546887    6.012649331   10.510876303 XXXX 4      sc4     Si  1.100
Si3      5.332359959    5.809276286    6.543946659 XXXX 4      sc4     Si  1.100
Si4      1.290831730    8.556568024    6.555693652 XXXX 4      sc4     Si  1.100
Si5      6.656182119    7.698165713   10.728566794 XXXX 4      sc4     Si  1.100
Si6      3.791815922    8.239227365    2.689853807 XXXX 4      sc4     Si  1.100
Si7      3.716338761    8.596497081   11.477046848 XXXX 4      sc4     Si  1.100
Si8      0.963663410    8.588970957    3.571194641 XXXX 4      sc4     Si  1.100
Si9      6.764025954    8.074040988    7.896913195 XXXX 4      sc4     Si  1.100
Si10     2.568263031    6.004112870    7.494960484 XXXX 4      sc4     Si  1.100
Si11     8.073066424    5.237170930   11.554937057 XXXX 4      sc4     Si  1.100
Si12     5.268428119    5.636076788    3.458324224 XXXX 4      sc4     Si  1.100
H1       8.943457802    4.750846046    1.118320439 XXXX 4      hoy     H   0.400
H2       5.058646362    8.396155565    0.956148652 XXXX 4      hoy     H   0.400
O1       2.375525787    4.249434908   21.921264865 XXXX 5      oc23    O  -0.550
O2       8.494030591    5.006447152   15.583222351 XXXX 5      oc23    O  -0.550
O3       6.032243558    4.690813058   18.965320383 XXXX 5      oc23    O  -0.550
O4       1.756151532    8.745690445   18.854202651 XXXX 5      oc23    O  -0.550
O5       7.478624617    8.942304204   23.448645015 XXXX 5      oc23    O  -0.550
O6       4.724203981    9.107455276   15.074697380 XXXX 5      oc23    O  -0.550
O7       4.945530561    8.241004020   23.342741748 XXXX 5      oc23    O  -0.550
O8       2.215024699    8.447512431   15.434261387 XXXX 5      oc23    O  -0.550
O9       7.738189975    7.587089447   19.442088322 XXXX 5      oc23    O  -0.550
O10      2.267758772    6.019652115   20.113146413 XXXX 5      oc23    O  -0.550
O11      8.622495901    5.233373082   13.043672975 XXXX 5      oc23    O  -0.550
O12      5.438935897    6.153027431   16.778116057 XXXX 5      oc23    O  -0.550
O13      3.018203865    6.684646642   22.505673561 XXXX 5      oc23    O  -0.550
O15      5.188479508    7.150658363   19.110938869 XXXX 5      oc23    O  -0.550
O16      1.142960387    6.321175246   18.008644270 XXXX 5      oc23    O  -0.550
O17      6.917783570    6.636878391   22.623009997 XXXX 5      oc23    O  -0.550
O18      3.938733110    6.657679070   14.592848476 XXXX 5      oc23    O  -0.550
O19      6.475263663    6.045470209   14.315185652 XXXX 5      oc23    O  -0.550
O20      0.464912708    5.804816476   22.003566548 XXXX 5      oc23    O  -0.550
O21      3.523741483    5.150797546   18.113746537 XXXX 5      oc23    O  -0.550
O22      0.007817071    8.350581914   16.872853154 XXXX 5      oc23    O  -0.550
O23      6.119098975    8.666389935   21.113012728 XXXX 5      oc23    O  -0.550
O24      3.169275280    8.466536454   12.978819927 XXXX 5      oc23    O  -0.550
Si1      8.082776526    5.900144265   14.402302297 XXXX 5      sc4     Si  1.100
Si2      2.015223529    5.753041145   21.589445921 XXXX 5      sc4     Si  1.100
Si3      5.044865565    5.738442666   18.266717479 XXXX 5      sc4     Si  1.100
Si4      0.598502807    7.782169530   18.258293039 XXXX 5      sc4     Si  1.100
Si5      6.359411691    8.136477808   22.606964108 XXXX 5      sc4     Si  1.100
Si6      3.484234311    8.168254084   14.520641975 XXXX 5      sc4     Si  1.100
Si7      3.379126647    8.186859643   23.024294710 XXXX 5      sc4     Si  1.100
Si8      0.591282134    8.665100796   15.409257057 XXXX 5      sc4     Si  1.100
Si9      6.272589587    8.242641534   19.591984782 XXXX 5      sc4     Si  1.100
Si10     2.111745542    5.301140388   18.756321332 XXXX 5      sc4     Si  1.100
Si11     7.748334145    5.463086004   23.407527051 XXXX 5      sc4     Si  1.100
Si12     5.152175392    5.760950429   15.210018442 XXXX 5      sc4     Si  1.100
O1       3.316038828   10.103796550   11.065933953 XXXX 6      oc23    O  -0.550
O2       8.174437024    9.709036393    2.608413647 XXXX 6      oc23    O  -0.550
O3       6.198680641    9.536150485    8.005758440 XXXX 6      oc23    O  -0.550
O4       1.503703053   14.835304985    6.530133406 XXXX 6      oc23    O  -0.550
O5       7.372249056   13.877812342   11.728902351 XXXX 6      oc23    O  -0.550
O6       5.206364314   13.758896883    3.618456838 XXXX 6      oc23    O  -0.550
O7       4.935086571   12.712730342   11.686380645 XXXX 6      oc23    O  -0.550
O8       3.060673938   12.683951848    2.488596754 XXXX 6      oc23    O  -0.550
O9       8.188951710   12.936835014    7.913427330 XXXX 6      oc23    O  -0.550
O10      1.735063298   11.271770417    9.411924182 XXXX 6      oc23    O  -0.550
O11      5.862703359   11.548590146    2.231940735 XXXX 6      oc23    O  -0.550
O12      4.770384766   10.125468423    6.045135797 XXXX 6      oc23    O  -0.550
O13      2.378802431   12.571237549   11.456120243 XXXX 6      oc23    O  -0.550
O14      5.688591273   12.151321780    7.273324773 XXXX 6      oc23    O  -0.550
O15      2.354384227   12.421521885    7.142817179 XXXX 6      oc23    O  -0.550
O16      6.913579124   11.254349641   10.816351934 XXXX 6      oc23    O  -0.550
O17      4.342079227   11.499497970    4.026466856 XXXX 6      oc23    O  -0.550
O18      6.537193717   10.525349832    4.233908491 XXXX 6      oc23    O  -0.550
O19      0.805371322   10.461206447   11.661175070 XXXX 6      oc23    O  -0.550
O20      3.781839064   10.546360262    8.169561802 XXXX 6      oc23    O  -0.550
O21      1.543633976   12.685972521    4.767953360 XXXX 6      oc23    O  -0.550
O22      6.065577315   13.432844797    9.464007070 XXXX 6      oc23    O  -0.550
Si1      7.248488887   10.990177289    2.943160374 XXXX 6      sc4     Si  1.100
Si2      2.078998746   11.093239915   10.965780148 XXXX 6      sc4     Si  1.100
Si3      5.122211755   10.597961146    7.394940179 XXXX 6      sc4     Si  1.100
Si4      1.285699854   13.222503753    6.297900892 XXXX 6      sc4     Si  1.100
Si5      6.341593512   12.810079842   10.947528522 XXXX 6      sc4     Si  1.100
Si6      4.650061344   12.448349277    2.889265773 XXXX 6      sc4     Si  1.100
Si7      3.516534110   13.461137333   11.900594161 XXXX 6      sc4     Si  1.100
Si8      1.654894545   13.147663054    3.139797485 XXXX 6      sc4     Si  1.100
Si9      6.593584802   13.265742623    7.975806147 XXXX 6      sc4     Si  1.100
Si10     2.364424479   11.091288813    7.983628344 XXXX 6      sc4     Si  1.100
Si11     8.217814514   10.348387273   11.134464226 XXXX 6      sc4     Si  1.100
Si12     5.005825774   10.252118718    4.579372320 XXXX 6      sc4     Si  1.100
O1       3.144816802    9.326192600   21.882954383 XXXX 7      oc23    O  -0.550
O2       8.740583349    9.997737181   15.250534661 XXXX 7      oc23    O  -0.550
O3       6.183798514    9.590190505   18.697017495 XXXX 7      oc23    O  -0.550
O4       1.909722071   13.513887696   18.941519545 XXXX 7      oc23    O  -0.550
O5       7.741159837   14.207383472   23.694416310 XXXX 7      oc23    O  -0.550
O6       4.819000908   14.046204174   15.503259905 XXXX 7      oc23    O  -0.550
O7       5.204963163   12.653813085   24.040810652 XXXX 7      oc23    O  -0.550
O8       2.273294509   13.445945943   15.813349253 XXXX 7      oc23    O  -0.550
O9       7.950974907   12.426120837   19.380445248 XXXX 7      oc23    O  -0.550
O10      2.558703337   10.866661840   20.069689212 XXXX 7      oc23    O  -0.550
O11      8.658398765   10.573362101   12.647135479 XXXX 7      oc23    O  -0.550
O12      5.782320681   11.056272815   16.687187692 XXXX 7      oc23    O  -0.550
O13      3.293459075   11.957740069   22.191574236 XXXX 7      oc23    O  -0.550
O15      5.463827946   11.962234145   19.179601645 XXXX 7      oc23    O  -0.550
O16      1.322167182   11.205291732   18.068816852 XXXX 7      oc23    O  -0.550
O17      7.886441935   11.553502687   23.886767726 XXXX 7      oc23    O  -0.550
O18      4.152084867   11.662244172   14.741675940 XXXX 7      oc23    O  -0.550
O19      6.549673304   10.739245225   14.102576127 XXXX 7      oc23    O  -0.550
O20      1.020665137   10.856488905   22.195919956 XXXX 7      oc23    O  -0.550
O21      3.765055340   10.262292692   18.006705532 XXXX 7      oc23    O  -0.550
O22      0.204928835   13.285288948   17.208081327 XXXX 7      oc23    O  -0.550
O23      6.488176821   12.625452017   21.688062485 XXXX 7      oc23    O  -0.550
O24      3.317523760   13.801927040   13.428710553 XXXX 7      oc23    O  -0.550
Si1      8.104665400   10.945928083   14.097762161 XXXX 7      sc4     Si  1.100
Si2      2.500753982   10.761056240   21.573065286 XXXX 7      sc4     Si  1.100
Si3      5.314208149   10.719105990   18.173317373 XXXX 7      sc4     Si  1.100
Si4      0.724818845   12.590609427   18.448305218 XXXX 7      sc4     Si  1.100
Si5      6.863327644   12.814121188   23.345549231 XXXX 7      sc4     Si  1.100
Si6      3.602588763   13.232433710   14.882612964 XXXX 7      sc4     Si  1.100
Si7      3.385199625   12.761544234   23.613718619 XXXX 7      sc4     Si  1.100
Si8      0.684304005   13.619877494   15.798238859 XXXX 7      sc4     Si  1.100
Si9      6.478366779   12.947112825   20.033116221 XXXX 7      sc4     Si  1.100
Si10     2.351467815   10.213235821   18.716072113 XXXX 7      sc4     Si  1.100
Si11     8.627267171   10.097594351   23.449113261 XXXX 7      sc4     Si  1.100
Si12     5.360922445   10.636530454   15.143828403 XXXX 7      sc4     Si  1.100
O1       3.487070671   14.788268786   11.032505184 XXXX 8      oc23    O  -0.550
O2       9.158710907   14.665137535    3.436528376 XXXX 8      oc23    O  -0.550
O3       6.437625023   14.709247600    7.298797846 XXXX 8      oc23    O  -0.550
O4       1.599007263   19.991607463    7.103303703 XXXX 8      oc23    O  -0.550
O5       7.740325511   18.781405062   11.326748892 XXXX 8      oc23    O  -0.550
O6       4.514389408   18.599322288    1.935009096 XXXX 8      oc23    O  -0.550
O7       5.318278844   18.120383348   11.700888296 XXXX 8      oc23    O  -0.550
O8       2.447646253   18.314662846    3.509644718 XXXX 8      oc23    O  -0.550
O9       8.060353644   17.732312387    7.947123597 XXXX 8      oc23    O  -0.550
O10      2.165143644   15.543504115    8.922253579 XXXX 8      oc23    O  -0.550
O11      8.906186604   15.476433558    0.906700207 XXXX 8      oc24    O  -0.675
O12      5.802875031   15.821159735    5.053666027 XXXX 8      oc23    O  -0.550
O13      3.088749403   17.341351636   10.623130777 XXXX 8      oc23    O  -0.550
O14      5.617852567   17.154074923    7.157726824 XXXX 8      oc23    O  -0.550
O15      2.218675248   17.366298536    6.930006905 XXXX 8      oc23    O  -0.550
O16      7.000234661   16.329121186   10.860478627 XXXX 8      oc23    O  -0.550
O17      4.132765100   16.263235411    3.142558641 XXXX 8      oc23    O  -0.550
O18      6.711472371   15.750221239    2.610753631 XXXX 8      oc23    O  -0.550
O19      1.250263502   15.971433005   11.333033349 XXXX 8      oc23    O  -0.550
O20      3.870196318   15.284418750    6.813807211 XXXX 8      oc23    O  -0.550
O21      0.544053780   18.694509896    5.312220932 XXXX 8      oc23    O  -0.550
O22      6.133814038   18.420790747    9.338981439 XXXX 8      oc23    O  -0.550
Si1      8.395095845   15.749838080    2.476622362 XXXX 8      sc4     Si  1.100
Si2      2.550988805   15.905825514   10.469758338 XXXX 8      sc4     Si  1.100
Si3      5.404634063   15.691199107    6.549910318 XXXX 8      sc4     Si  1.100
Si4      1.113496823   18.505735849    6.801504798 XXXX 8      sc4     Si  1.100
Si5      6.572229440   17.911959140   10.809799481 XXXX 8      sc4     Si  1.100
Si6      3.327377059   17.523018023    2.428317073 XXXX 8      sc4     Si  1.100
Si7      3.757280646   18.363476738   11.681833679 XXXX 8      sc4     Si  1.100
Si8      0.895690460   18.526119102    3.805988061 XXXX 8      sc4     Si  1.100
Si9      6.579002993   18.233235750    7.863417177 XXXX 8      sc4     Si  1.100
Si10     2.498421549   15.801055804    7.351615979 XXXX 8      sc4     Si  1.100
Si11     8.079973728   15.345391985   11.555805802 XXXX 8      sc4     Si  1.100
Si12     5.428425280   15.360061073    3.550923082 XXXX 8      sc4     Si  1.100
H2       9.063980607   16.256266893    0.462412747 XXXX 8      hoy     H   0.400
O1       2.902945815   14.357482296   23.421767702 XXXX 9      oc23    O  -0.550
O2       8.804081618   15.010246871   15.233418780 XXXX 9      oc23    O  -0.550
O3       6.156804242   14.517268097   19.584698079 XXXX 9      oc23    O  -0.550
O4       2.094040977   18.433263678   18.919390445 XXXX 9      oc23    O  -0.550
O5       7.622204749   19.255048302   23.559161002 XXXX 9      oc23    O  -0.550
O6       4.926678176   19.006241786   15.176121427 XXXX 9      oc23    O  -0.550
O7       5.331792637   17.800255178   23.544786850 XXXX 9      oc23    O  -0.550
O8       2.427438958   18.416086920   15.742144997 XXXX 9      oc23    O  -0.550
O9       7.959850683   17.639423736   19.661851049 XXXX 9      oc23    O  -0.550
O10      2.568229718   14.993348397   20.974081191 XXXX 9      oc23    O  -0.550
O11      8.465568045   15.945615949   12.990051850 XXXX 9      oc23    O  -0.550
O12      5.846186391   15.759140859   17.139952550 XXXX 9      oc23    O  -0.550
O13      3.054113939   16.977810149   22.506743553 XXXX 9      oc23    O  -0.550
O15      5.467765388   17.152786302   19.312115225 XXXX 9      oc23    O  -0.550
O16      1.278986340   15.998993488   18.901136826 XXXX 9      oc23    O  -0.550
O17      7.523670758   16.756563079   22.638320641 XXXX 9      oc23    O  -0.550
O18      4.111509926   16.488384686   15.240104733 XXXX 9      oc23    O  -0.550
O19      6.455943897   15.696948576   14.569046642 XXXX 9      oc23    O  -0.550
O20      0.623318223   15.856385484   22.514699748 XXXX 9      oc23    O  -0.550
O21      3.793050505   15.347064803   18.583225780 XXXX 9      oc23    O  -0.550
O22      0.321757787   17.911680856   17.200326379 XXXX 9      oc23    O  -0.550
O23      6.279529707   18.663011904   21.321009533 XXXX 9      oc23    O  -0.550
O24      3.248663032   18.092544581   13.278144601 XXXX 9      oc23    O  -0.550
Si1      7.960717825   16.053799828   14.425769385 XXXX 9      sc4     Si  1.100
Si2      2.288299697   15.545280771   22.430859828 XXXX 9      sc4     Si  1.100
Si3      5.371032805   15.635765590   18.676225387 XXXX 9      sc4     Si  1.100
Si4      0.852993408   17.506119549   18.701964961 XXXX 9      sc4     Si  1.100
Si5      6.704264749   18.142751969   22.794302305 XXXX 9      sc4     Si  1.100
Si6      3.708597380   18.026065896   14.824780615 XXXX 9      sc4     Si  1.100
Si7      3.749606140   18.078293957   23.490231225 XXXX 9      sc4     Si  1.100
Si8      0.800162689   18.432846252   15.730578328 XXXX 9      sc4     Si  1.100
Si9      6.471559912   18.281422465   19.813219993 XXXX 9      sc4     Si  1.100
Si10     2.352502270   14.984603224   19.361055884 XXXX 9      sc4     Si  1.100
Si11     8.562200688   15.614198593   23.168173713 XXXX 9      sc4     Si  1.100
Si12     5.329457220   15.523957791   15.621531837 XXXX 9      sc4     Si  1.100
O1       3.587206439   19.929589626   11.175915941 XXXX 10     oc23    O  -0.550
O2       8.796774554   19.712731756    3.702972476 XXXX 10     oc23    O  -0.550
O3       6.461416239   19.607440783    6.962232682 XXXX 10     oc23    O  -0.550
O4       1.490853166   24.799803861    6.924658442 XXXX 10     oc23    O  -0.550
O5       7.840227837   23.728934438   10.604544405 XXXX 10     oc23    O  -0.550
O6       4.887404695   23.610508053    3.426071798 XXXX 10     oc23    O  -0.550
O7       5.275568616   23.111360307   11.283157195 XXXX 10     oc23    O  -0.550
O8       2.624457219   23.047460940    2.191123643 XXXX 10     oc23    O  -0.550
O9       8.299898661   22.776354336    7.208739720 XXXX 10     oc23    O  -0.550
O10      3.234068295   21.127979501    8.844831616 XXXX 10     oc23    O  -0.550
O11     10.180524485   19.303095875    1.682999795 XXXX 10     oc23    O  -0.550
O12      5.692195084   19.753566793    4.268748474 XXXX 10     oc23    O  -0.550
O13      2.763633275   22.421384614   10.980155296 XXXX 10     oc23    O  -0.550
O14      6.037281833   22.019029801    6.150952887 XXXX 10     oc23    O  -0.550
O15      2.640800660   22.424275443    6.515257633 XXXX 10     oc23    O  -0.550
O16      7.127131259   21.280832089   10.980757042 XXXX 10     oc23    O  -0.550
O17      4.629040109   21.256617242    2.177183615 XXXX 10     oc23    O  -0.550
O18      7.139276717   19.884260512    1.878821336 XXXX 10     oc23    O  -0.550
O19      1.208897866   20.446051195   10.322268861 XXXX 10     oc23    O  -0.550
O20      4.059423227   20.241913388    6.363187815 XXXX 10     oc23    O  -0.550
O21      1.476742094   23.861717362    4.431816093 XXXX 10     oc23    O  -0.550
O22      6.416336784   22.271564074    8.766072662 XXXX 10     oc23    O  -0.550
O23      4.939791214   23.622422339    0.862052155 XXXX 10     oc24    O  -0.675
Si1      8.798442211   20.280447392    2.242036166 XXXX 10     sc4     Si  1.100
Si2      2.722551176   20.984152447   10.302879497 XXXX 10     sc4     Si  1.100
Si3      5.583016725   20.405704192    5.867540104 XXXX 10     sc4     Si  1.100
Si4      1.434942639   23.445496123    6.022016407 XXXX 10     sc4     Si  1.100
Si5      6.630656121   22.628832752   10.403233552 XXXX 10     sc4     Si  1.100
Si6      4.271640838   22.860462510    2.237984594 XXXX 10     sc4     Si  1.100
Si7      3.797321578   23.521903726   11.510609118 XXXX 10     sc4     Si  1.100
Si8      1.186001014   23.488594813    2.811315539 XXXX 10     sc4     Si  1.100
Si9      6.763592383   22.918196022    7.383306760 XXXX 10     sc4     Si  1.100
Si10     2.919085647   20.918230329    7.206131989 XXXX 10     sc4     Si  1.100
Si11     8.291790584   20.264734739   11.360579158 XXXX 10     sc4     Si  1.100
Si12     5.489688072   19.904085120    2.567429432 XXXX 10     sc4     Si  1.100
H2       5.665000434   23.069341525    0.577191919 XXXX 10     hoy     H   0.400
O1       3.392940757   19.582179256   23.016003770 XXXX 11     oc23    O  -0.550
O2       8.909122158   19.964815375   15.326753132 XXXX 11     oc23    O  -0.550
O3       6.303654555   19.583016184   18.893581131 XXXX 11     oc23    O  -0.550
O4       1.924353726   23.532914628   19.300415056 XXXX 11     oc23    O  -0.550
O5       6.864295224   24.238150244   23.646412143 XXXX 11     oc23    O  -0.550
O6       4.922507044   24.081501366   15.302484049 XXXX 11     oc23    O  -0.550
O7       4.318622139   22.899835519   23.828400381 XXXX 11     oc23    O  -0.550
O8       2.456915823   23.357554278   15.583021105 XXXX 11     oc23    O  -0.550
O9       7.759912282   22.587231396   19.836552585 XXXX 11     oc23    O  -0.550
O10      3.189245651   20.063695436   20.457131780 XXXX 11     oc23    O  -0.550
O11      8.819797574   20.618414802   12.844234110 XXXX 11     oc23    O  -0.550
O12      5.852025678   20.895026857   16.661246871 XXXX 11     oc23    O  -0.550
O13      2.909232347   22.069444864   22.124513458 XXXX 11     oc23    O  -0.550
O15      5.360855819   22.125575129   18.973077324 XXXX 11     oc23    O  -0.550
O16      1.356892766   20.915061216   18.796235805 XXXX 11     oc23    O  -0.550
O17      6.590014305   21.653537213   23.044754066 XXXX 11     oc23    O  -0.550
O18      4.246948669   21.588067826   14.663384236 XXXX 11     oc23    O  -0.550
O19      6.671998512   20.707959894   14.239234181 XXXX 11     oc23    O  -0.550
O20      1.129463127   20.363475659   22.083128494 XXXX 11     oc23    O  -0.550
O21      3.850242354   20.137247515   18.019007447 XXXX 11     oc23    O  -0.550
O22      0.412632530   22.718064256   17.139952550 XXXX 11     oc23    O  -0.550
O23      5.601201848   23.317624701   21.438814215 XXXX 11     oc23    O  -0.550
O24      3.536120881   23.692560249   13.128516137 XXXX 11     oc23    O  -0.550
Si1      8.238969499   20.901088876   14.287038098 XXXX 11     sc4     Si  1.100
Si2      2.670531103   20.512810240   21.847586877 XXXX 11     sc4     Si  1.100
Si3      5.330324860   20.710989865   18.143564832 XXXX 11     sc4     Si  1.100
Si4      0.811304085   22.465598516   18.687056810 XXXX 11     sc4     Si  1.100
Si5      5.868575960   23.115123369   23.015669024 XXXX 11     sc4     Si  1.100
Si6      3.790247707   23.181184629   14.643594372 XXXX 11     sc4     Si  1.100
Si7      2.692009775   22.853320584   23.477327565 XXXX 11     sc4     Si  1.100
Si8      0.846319919   23.296475129   15.667397017 XXXX 11     sc4     Si  1.100
Si9      6.224106699   23.116413028   19.877738296 XXXX 11     sc4     Si  1.100
Si10     2.623336249   19.916942248   18.970869595 XXXX 11     sc4     Si  1.100
Si11     7.852707423   20.868058246   23.657243566 XXXX 11     sc4     Si  1.100
Si12     5.440737802   20.530718013   15.182539384 XXXX 11     sc4     Si  1.100
O1       3.497314533   24.913738247   10.787535884 XXXX 12     oc23    O  -0.550
O2       8.482551897   24.608799390    2.250600831 XXXX 12     oc23    O  -0.550
O3       6.405625790   24.448630430    7.441473855 XXXX 12     oc23    O  -0.550
O4       1.612320927   29.780571542    6.855927919 XXXX 12     oc23    O  -0.550
O5       7.616365462   28.729215216   11.298133092 XXXX 12     oc23    O  -0.550
O6       5.254713948   28.634862458    3.415481471 XXXX 12     oc23    O  -0.550
O7       5.072160154   27.955270491   11.779981997 XXXX 12     oc23    O  -0.550
O8       2.958899849   27.804648327    2.131960529 XXXX 12     oc23    O  -0.550
O9       8.211708223   27.768272061    7.883207040 XXXX 12     oc23    O  -0.550
O10      2.102649748   26.440513431    8.900791978 XXXX 12     oc23    O  -0.550
O12      4.936688098   24.982551194    5.565553900 XXXX 12     oc23    O  -0.550
O13      2.498481711   27.333513795   11.197177292 XXXX 12     oc23    O  -0.550
O14      6.001645475   27.054708698    6.894438153 XXXX 12     oc23    O  -0.550
O15      2.222245497   27.296826017    6.392719185 XXXX 12     oc23    O  -0.550
O16      6.928227561   26.252541008   10.799971299 XXXX 12     oc23    O  -0.550
O17      4.297500467   26.178920396    3.512512973 XXXX 12     oc23    O  -0.550
O18      6.720247709   25.480128920    3.815475270 XXXX 12     oc23    O  -0.550
O19      0.939995814   25.230416944   10.727296552 XXXX 12     oc23    O  -0.550
O20      3.912706417   25.642353859    7.662106325 XXXX 12     oc23    O  -0.550
O21      1.587065041   28.778656285    4.348744295 XXXX 12     oc23    O  -0.550
O22      6.116796872   28.177770877    9.294387496 XXXX 12     oc23    O  -0.550
O23      5.911686445   26.549673380    1.780251970 XXXX 12     oc23    O  -0.550
Si1      7.448793736   26.018680826    2.550942196 XXXX 12     sc4     Si  1.100
Si2      2.291940053   25.952447197   10.357436118 XXXX 12     sc4     Si  1.100
Si3      5.349210558   25.533368356    6.923320952 XXXX 12     sc4     Si  1.100
Si4      1.299507252   28.449434048    5.931336112 XXXX 12     sc4     Si  1.100
Si5      6.392078683   27.796702700   10.774230728 XXXX 12     sc4     Si  1.100
Si6      4.612356077   27.397066347    2.585567982 XXXX 12     sc4     Si  1.100
Si7      3.541960168   28.448389445   11.916106051 XXXX 12     sc4     Si  1.100
Si8      1.311736492   28.289543371    2.803599943 XXXX 12     sc4     Si  1.100
Si9      6.674233988   28.177980628    7.805918577 XXXX 12     sc4     Si  1.100
Si10     2.373900642   26.038993469    7.411387564 XXXX 12     sc4     Si  1.100
Si11     8.191420877   25.240730060   11.083116584 XXXX 12     sc4     Si  1.100
Si12     5.232157316   25.030596690    4.097203115 XXXX 12     sc4     Si  1.100
O1       2.039024565   24.349366171   23.108804122 XXXX 13     oc23    O  -0.550
O2       8.496032377   24.844298124   15.394815159 XXXX 13     oc23    O  -0.550
O3       6.203685603   24.566919750   19.151321588 XXXX 13     oc23    O  -0.550
O4       1.923235988   28.648903332   19.007040093 XXXX 13     oc23    O  -0.550
O5       7.806260131   29.385881995   23.427450414 XXXX 13     oc23    O  -0.550
O6       4.725939259   29.100873660   15.362455385 XXXX 13     oc23    O  -0.550
O7       5.280506950   28.272750811   23.512561572 XXXX 13     oc23    O  -0.550
O8       2.254441876   28.303654854   15.895718682 XXXX 13     oc23    O  -0.550
O9       7.941631750   27.818305002   19.433396881 XXXX 13     oc23    O  -0.550
O10      2.697178320   25.600158553   20.910967626 XXXX 13     oc23    O  -0.550
O11      8.496900513   25.170417703   12.692465663 XXXX 13     oc23    O  -0.550
O12      5.728799518   25.926244905   16.899997467 XXXX 13     oc23    O  -0.550
O13      2.919155754   26.865168332   23.246866913 XXXX 13     oc23    O  -0.550
O15      5.474405687   27.177282343   19.309375488 XXXX 13     oc23    O  -0.550
O16      1.272346165   26.080804577   18.718345596 XXXX 13     oc23    O  -0.550
O17      7.332941764   26.804996721   22.627355717 XXXX 13     oc23    O  -0.550
O18      4.042172370   26.556537022   15.064267453 XXXX 13     oc23    O  -0.550
O19      6.494316425   25.943737328   14.344135202 XXXX 13     oc23    O  -0.550
O20      0.485653948   26.233065293   22.450715445 XXXX 13     oc23    O  -0.550
O21      3.795786677   25.256930748   18.494571894 XXXX 13     oc23    O  -0.550
O22      0.052940206   27.961471651   17.340327907 XXXX 13     oc23    O  -0.550
O23      6.427047779   28.802312487   21.286311518 XXXX 13     oc23    O  -0.550
O24      3.151767363   28.489467462   13.425701824 XXXX 13     oc23    O  -0.550
Si1      8.107434885   25.834681216   14.178794599 XXXX 13     sc4     Si  1.100
Si2      2.049919032   25.773219947   22.421098396 XXXX 13     sc4     Si  1.100
Si3      5.289149036   25.765344930   18.468362081 XXXX 13     sc4     Si  1.100
Si4      0.701251375   27.619078698   18.749369376 XXXX 13     sc4     Si  1.100
Si5      6.728890292   28.294282503   22.786346110 XXXX 13     sc4     Si  1.100
Si6      3.550935884   28.117354210   14.934629102 XXXX 13     sc4     Si  1.100
Si7      3.595314764   28.343131700   23.321814147 XXXX 13     sc4     Si  1.100
Si8      0.644493283   28.398668016   15.864963895 XXXX 13     sc4     Si  1.100
Si9      6.485908031   28.418772984   19.716207420 XXXX 13     sc4     Si  1.100
Si10     2.401565656   25.133729926   19.403243840 XXXX 13     sc4     Si  1.100
Si11     7.913302954   25.482951217   23.441023566 XXXX 13     sc4     Si  1.100
Si12     5.337398730   25.622284195   15.403506600 XXXX 13     sc4     Si  1.100
O1       3.433148753   29.899035309   11.337780566 XXXX 14     oc23    O  -0.550
O2       9.325048051   29.568837002    3.349271506 XXXX 14     oc23    O  -0.550
O3       6.569459955   29.679390447    7.122893317 XXXX 14     oc23    O  -0.550
O4       1.662836055   34.791339882    6.613819901 XXXX 14     oc23    O  -0.550
O5       7.641591143   33.704477445   11.241303985 XXXX 14     oc23    O  -0.550
O6       5.226684973   33.971403561    2.624285688 XXXX 14     oc23    O  -0.550
O7       5.199056752   32.906353178   11.636102994 XXXX 14     oc23    O  -0.550
O8       2.813454167   33.077323289    3.562182153 XXXX 14     oc23    O  -0.550
O9       8.178074148   32.757855524    7.677282970 XXXX 14     oc23    O  -0.550
O10      3.158290569   30.616432344    8.874048165 XXXX 14     oc23    O  -0.550
O11      9.126378043   30.146483633    0.866966246 XXXX 14     oc24    O  -0.675
O12      6.100680161   30.704303579    4.775194234 XXXX 14     oc23    O  -0.550
O13      2.700601890   32.360657269   10.780716431 XXXX 14     oc23    O  -0.550
O14      5.766471471   32.223762390    6.876988024 XXXX 14     oc23    O  -0.550
O15      2.415359878   32.260765833    7.032233446 XXXX 14     oc23    O  -0.550
O16      6.937436968   31.222403700   10.861414123 XXXX 14     oc23    O  -0.550
O17      4.549959138   31.306023839    2.771996087 XXXX 14     oc23    O  -0.550
O18      7.102239210   30.414173991    2.381569697 XXXX 14     oc23    O  -0.550
O19      1.043648628   30.295049819   10.366327808 XXXX 14     oc23    O  -0.550
O20      4.133332422   30.299473286    6.475817882 XXXX 14     oc23    O  -0.550
O21      0.766041034   32.856633825    5.204933352 XXXX 14     oc23    O  -0.550
O22      6.186101115   33.201500182    9.238427134 XXXX 14     oc23    O  -0.550
O23      3.532650572   32.898617303    0.984650379 XXXX 14     oc24    O  -0.675
Si1      8.689430916   30.606711100    2.373613502 XXXX 14     sc4     Si  1.100
Si2      2.553851766   30.808446113   10.350683415 XXXX 14     sc4     Si  1.100
Si3      5.625326695   30.734719587    6.314702450 XXXX 14     sc4     Si  1.100
Si4      1.242896026   33.262402807    6.673919257 XXXX 14     sc4     Si  1.100
Si5      6.487442932   32.718031861   10.778844444 XXXX 14     sc4     Si  1.100
Si6      4.035765762   32.816216213    2.539623100 XXXX 14     sc4     Si  1.100
Si7      3.636089833   33.374385052   11.603074724 XXXX 14     sc4     Si  1.100
Si8      1.202794931   33.154810800    3.707498770 XXXX 14     sc4     Si  1.100
Si9      6.691084587   33.218502494    7.731772841 XXXX 14     sc4     Si  1.100
Si10     2.809022992   30.780329062    7.302608570 XXXX 14     sc4     Si  1.100
Si11     8.141603465   30.203623196   11.281018208 XXXX 14     sc4     Si  1.100
Si12     5.765937463   30.238186464    3.313101257 XXXX 14     sc4     Si  1.100
H1       4.233067932   33.319579751    0.552845438 XXXX 14     hoy     H   0.400
H2       8.365766157   30.005443571    0.365549646 XXXX 14     hoy     H   0.400
O1       3.309992700   29.335464856   21.996748091 XXXX 15     oc23    O  -0.550
O2       8.593098591   29.884122203   15.205872972 XXXX 15     oc23    O  -0.550
O3       6.284768857   29.779840528   18.771030230 XXXX 15     oc23    O  -0.550
O4       1.582847419   33.738170557   19.352764944 XXXX 15     oc23    O  -0.550
O5       6.568325809   34.196028457   23.654970083 XXXX 15     oc23    O  -0.550
O6       4.559902434   33.947082800   15.247525932 XXXX 15     oc23    O  -0.550
O7       4.471678682   32.520338195   23.690405336 XXXX 15     oc23    O  -0.550
O8       2.183435668   32.885656337   15.517500557 XXXX 15     oc23    O  -0.550
O9       7.628211101   32.706638838   19.552271555 XXXX 15     oc23    O  -0.550
O10      2.664528233   30.878409576   19.948274056 XXXX 15     oc23    O  -0.550
O11      8.622729591   30.650019541   12.730441399 XXXX 15     oc23    O  -0.550
O12      5.706509889   31.100596374   16.621132148 XXXX 15     oc23    O  -0.550
O13      2.930186955   32.039135603   22.053778445 XXXX 15     oc23    O  -0.550
O15      5.159349700   32.246550513   18.942924283 XXXX 15     oc23    O  -0.550
O16      1.272563075   31.141780304   18.150249789 XXXX 15     oc23    O  -0.550
O17      7.113116771   31.679983317   22.614988049 XXXX 15     oc23    O  -0.550
O18      4.111576802   31.444243681   14.564367172 XXXX 15     oc23    O  -0.550
O19      6.431085161   30.567547842   14.146969820 XXXX 15     oc23    O  -0.550
O20      0.986096361   30.432814855   21.962115830 XXXX 15     oc23    O  -0.550
O21      3.733422803   30.227908653   17.816091608 XXXX 15     oc23    O  -0.550
O22      0.278367027   33.323654325   17.049226427 XXXX 15     oc23    O  -0.550
O23      5.637439337   33.448040969   21.326558745 XXXX 15     oc23    O  -0.550
O24      3.114118779   33.463581252   13.102440820 XXXX 15     oc23    O  -0.550
Si1      7.967157748   30.883599362   14.139748871 XXXX 15     sc4     Si  1.100
Si2      2.479682529   30.583401714   21.497649806 XXXX 15     sc4     Si  1.100
Si3      5.236762019   30.798307443   18.112943545 XXXX 15     sc4     Si  1.100
Si4      0.665598236   32.648174312   18.441953014 XXXX 15     sc4     Si  1.100
Si5      5.895102850   32.965932916   22.904284292 XXXX 15     sc4     Si  1.100
Si6      3.482198963   32.900708585   14.565837663 XXXX 15     sc4     Si  1.100
Si7      2.839841092   32.750713598   23.358052392 XXXX 15     sc4     Si  1.100
Si8      0.654203199   33.350205510   15.588971813 XXXX 15     sc4     Si  1.100
Si9      6.073986207   33.314423193   19.738605513 XXXX 15     sc4     Si  1.100
Si10     2.380070328   30.156865282   18.649884066 XXXX 15     sc4     Si  1.100
Si11     8.430465696   30.843113217   23.021285981 XXXX 15     sc4     Si  1.100
Si12     5.254980953   30.527481200   15.164822754 XXXX 15     sc4     Si  1.100
O1      11.680460517   -0.056547691   11.279613470 XXXX 16     oc23    O  -0.550
O2      17.649573248   -0.501340788    2.494961660 XXXX 16     oc23    O  -0.550
O3      14.908965728   -0.356643578    6.618085919 XXXX 16     oc23    O  -0.550
O4      10.496881186    3.934602438    7.970056187 XXXX 16     oc23    O  -0.550
O5      16.020204327    3.907425893   11.245582955 XXXX 16     oc23    O  -0.550
O6      12.063652790    4.406432939    2.446609546 XXXX 16     oc23    O  -0.550
O7      13.477199792    3.135780125   11.811338529 XXXX 16     oc23    O  -0.550
O8      11.044842388    2.975151424    4.089661368 XXXX 16     oc23    O  -0.550
O9      16.434961766    2.805613748    7.957152527 XXXX 16     oc23    O  -0.550
O10     11.623402170    0.571711943    8.765871415 XXXX 16     oc23    O  -0.550
O11     18.446321690    2.083987162    1.825702330 XXXX 16     oc23    O  -0.550
O12     14.239647395    1.402418393    4.599570653 XXXX 16     oc23    O  -0.550
O13     11.238140490    2.381241544   10.662176504 XXXX 16     oc23    O  -0.550
O14      8.671745991    2.416000025    4.036121189 XXXX 16     oc23    O  -0.550
O15     14.005240593    2.125748688    7.101097468 XXXX 16     oc23    O  -0.550
O16     10.105714587    1.368311490    6.980618804 XXXX 16     oc23    O  -0.550
O17     15.193958138    1.426403630   10.958091950 XXXX 16     oc23    O  -0.550
O18     12.850991945    1.815989446    2.470317481 XXXX 16     oc23    O  -0.550
O19     15.609583713    1.287829962    2.257219785 XXXX 16     oc23    O  -0.550
O20      9.342700160    0.626190871   10.301207760 XXXX 16     oc23    O  -0.550
O21     12.406336999    0.395303387    6.218700591 XXXX 16     oc23    O  -0.550
O22      9.375033024    3.625728149    6.052015524 XXXX 16     oc23    O  -0.550
O23     14.412690967    3.405760094    9.303814182 XXXX 16     oc23    O  -0.550
Si1     17.287235145    1.068628550    2.526505491 XXXX 16     sc4     Si  1.100
Si2     10.976405785    0.885652256   10.250261614 XXXX 16     sc4     Si  1.100
Si3     13.939940419    0.853228296    6.111954482 XXXX 16     sc4     Si  1.100
Si4      9.534362426    2.848695823    7.329084885 XXXX 16     sc4     Si  1.100
Si5     14.738925331    3.004836678   10.863152610 XXXX 16     sc4     Si  1.100
Si6     11.562305447    2.822745596    2.621377582 XXXX 16     sc4     Si  1.100
Si7     11.890241280    3.412669425   11.770488561 XXXX 16     sc4     Si  1.100
Si8      9.642306698    3.600885866    4.523198258 XXXX 16     sc4     Si  1.100
Si9     14.982674794    3.223417986    7.792012173 XXXX 16     sc4     Si  1.100
Si10    11.188088890    0.252157830    7.254805151 XXXX 16     sc4     Si  1.100
Si11    16.342067182    0.451576720   11.362250895 XXXX 16     sc4     Si  1.100
Si12    14.180920396    0.998763343    3.078408210 XXXX 16     sc4     Si  1.100
O1      10.537523499   -0.559387889   23.286781386 XXXX 17     oc23    O  -0.550
O2      16.977450625    0.041095791   15.397288892 XXXX 17     oc23    O  -0.550
O3      13.772702323   -0.290686156   19.491497227 XXXX 17     oc23    O  -0.550
O4      10.063203742    3.552002403   19.265113303 XXXX 17     oc23    O  -0.550
O5      15.781926213    4.249678666   22.587174245 XXXX 17     oc23    O  -0.550
O6      13.106453792    3.932442364   15.134869963 XXXX 17     oc23    O  -0.550
O7      13.562887750    2.884081482   23.577815120 XXXX 17     oc23    O  -0.550
O8      10.571958586    3.416087488   15.856939954 XXXX 17     oc23    O  -0.550
O9      16.192647264    2.566423341   19.407388314 XXXX 17     oc23    O  -0.550
O10     10.734224537    0.325511385   20.926011270 XXXX 17     oc23    O  -0.550
O11     16.844682422    0.725710050   12.870576427 XXXX 17     oc23    O  -0.550
O12     13.791855025    0.312607984   16.946397643 XXXX 17     oc23    O  -0.550
O13     11.088420255    2.101125890   22.703976681 XXXX 17     oc23    O  -0.550
O14      8.363496870    2.518693250   14.709449666 XXXX 17     oc23    O  -0.550
O15     13.757419938    2.206951495   18.741345435 XXXX 17     oc23    O  -0.550
O16      9.146398882    1.134434565   18.942655291 XXXX 17     oc23    O  -0.550
O17     15.871919054    1.826978542   22.999756634 XXXX 17     oc23    O  -0.550
O18     12.172196704    1.339856059   15.089740028 XXXX 17     oc23    O  -0.550
O19     14.684068650    0.798181443   14.460067897 XXXX 17     oc23    O  -0.550
O20      8.624397249    0.991558011   22.512159265 XXXX 17     oc23    O  -0.550
O21     11.630408917    0.679067071   18.499318114 XXXX 17     oc23    O  -0.550
O22      8.390224138    3.024818599   17.308236129 XXXX 17     oc23    O  -0.550
O23     14.332475353    2.708641436   21.149651472 XXXX 17     oc23    O  -0.550
O24     11.413253469    3.134393378   13.255680755 XXXX 17     oc23    O  -0.550
Si1     16.280103317    1.046179845   14.356972113 XXXX 17     sc4     Si  1.100
Si2     10.228206361    0.752876406   22.380715677 XXXX 17     sc4     Si  1.100
Si3     13.215565525    0.758147964   18.398228813 XXXX 17     sc4     Si  1.100
Si4      8.775252127    2.701742749   18.856007888 XXXX 17     sc4     Si  1.100
Si5     14.831386345    2.951002514   22.625149981 XXXX 17     sc4     Si  1.100
Si6     11.839890356    2.954242755   14.873653528 XXXX 17     sc4     Si  1.100
Si7     11.917202238    3.044462530   23.691140582 XXXX 17     sc4     Si  1.100
Si8      8.987936622    3.506847216   15.928679205 XXXX 17     sc4     Si  1.100
Si9     14.700519489    3.027167138   19.674019464 XXXX 17     sc4     Si  1.100
Si10    10.349497860    0.175948264   19.361858876 XXXX 17     sc4     Si  1.100
Si11    16.147367929    0.249196603   23.154467060 XXXX 17     sc4     Si  1.100
Si12    13.400021164    0.316075467   15.395350155 XXXX 17     sc4     Si  1.100
O1      11.682829247    4.982858963   11.344868015 XXXX 18     oc23    O  -0.550
O2      16.662227573    4.177172488    3.562275802 XXXX 18     oc23    O  -0.550
O3      14.816404277    4.562629606    6.932881636 XXXX 18     oc23    O  -0.550
O4      10.717573818    8.798789700    6.899452368 XXXX 18     oc23    O  -0.550
O5      15.923738749    8.832969808   10.897317622 XXXX 18     oc23    O  -0.550
O6      13.144559317    9.536220055    2.264473860 XXXX 18     oc23    O  -0.550
O7      13.438193315    8.168741600   11.687584136 XXXX 18     oc23    O  -0.550
O8      10.750007120    8.852341686    3.175653661 XXXX 18     oc23    O  -0.550
O9      16.261951010    8.089929126    7.805250082 XXXX 18     oc23    O  -0.550
O10     11.306711341    6.006552007    8.968920755 XXXX 18     oc23    O  -0.550
O11     17.068444856    5.218808869    1.249342854 XXXX 18     oc24    O  -0.675
O12     13.614607007    5.001673754    4.614827498 XXXX 18     oc23    O  -0.550
O13     11.049580842    7.515906934   10.913630511 XXXX 18     oc23    O  -0.550
O14      8.942389785    7.198879864    2.525448949 XXXX 18     oc23    O  -0.550
O15     14.148687969    7.046411473    6.475884632 XXXX 18     oc23    O  -0.550
O16     10.117993796    6.317063810    6.644160240 XXXX 18     oc23    O  -0.550
O17     15.189653255    6.321802423   10.956955208 XXXX 18     oc23    O  -0.550
O18     12.704776078    7.001534571    3.327616131 XXXX 18     oc23    O  -0.550
O19     14.654138326    5.328108479    2.331967516 XXXX 18     oc23    O  -0.550
O20      9.272561094    5.524756505   10.574792859 XXXX 18     oc23    O  -0.550
O21     12.292653877    5.141564338    6.664084102 XXXX 18     oc23    O  -0.550
O22      8.951665819    8.211318507    4.913269977 XXXX 18     oc23    O  -0.550
O23     14.062131876    7.984567024    9.157394696 XXXX 18     oc23    O  -0.550
O24     11.613525502    7.756735114    0.991978053 XXXX 18     oc24    O  -0.675
Si1     16.239228307    5.424516176    2.646355759 XXXX 18     sc4     Si  1.100
Si2     10.799324831    5.995297607   10.471563575 XXXX 18     sc4     Si  1.100
Si3     13.726354971    5.481308403    6.163468501 XXXX 18     sc4     Si  1.100
Si4      9.515042659    7.843770460    6.465842252 XXXX 18     sc4     Si  1.100
Si5     14.639724078    7.838753044   10.656827542 XXXX 18     sc4     Si  1.100
Si6     12.099789346    8.292639689    2.492521302 XXXX 18     sc4     Si  1.100
Si7     11.864815719    8.493086082   11.827719164 XXXX 18     sc4     Si  1.100
Si8      9.202622903    8.536777682    3.304342817 XXXX 18     sc4     Si  1.100
Si9     14.672757021    8.165780161    7.621590106 XXXX 18     sc4     Si  1.100
Si10    11.078710651    5.384482762    7.583012625 XXXX 18     sc4     Si  1.100
Si11    16.472367212    5.460089780   11.344266269 XXXX 18     sc4     Si  1.100
Si12    13.201885165    5.391346404    3.116156299 XXXX 18     sc4     Si  1.100
H1      12.185443492    8.061846341    0.326345885 XXXX 18     hoy     H   0.400
H2      16.760496052    5.769695602    0.536312685 XXXX 18     hoy     H   0.400
O1      11.585730217    4.540783805   23.376505264 XXXX 19     oc23    O  -0.550
O2      17.120463436    5.168706357   15.369809834 XXXX 19     oc23    O  -0.550
O3      14.449828912    4.616390823   19.296671082 XXXX 19     oc23    O  -0.550
O4      10.052993939    8.585277986   18.958501926 XXXX 19     oc23    O  -0.550
O5      15.439943077    9.191075415   23.580156349 XXXX 19     oc23    O  -0.550
O6      13.178861150    8.864502066   15.067008185 XXXX 19     oc23    O  -0.550
O7      13.009488016    8.090695445   23.919261996 XXXX 19     oc23    O  -0.550
O8      10.707463458    8.344693823   15.720816896 XXXX 19     oc23    O  -0.550
O9      16.063314813    7.536603256   19.675691202 XXXX 19     oc23    O  -0.550
O10     11.045443023    5.489740507   20.815828037 XXXX 19     oc23    O  -0.550
O11     16.963468954    5.757605831   12.841292132 XXXX 19     oc23    O  -0.550
O12     14.098769623    5.643045306   16.928413017 XXXX 19     oc23    O  -0.550
O13     10.665554243    7.079545940   22.802591253 XXXX 19     oc23    O  -0.550
O14      8.629569274    7.349292795   14.608225869 XXXX 19     oc23    O  -0.550
O15     13.665158805    7.096200397   19.119763809 XXXX 19     oc23    O  -0.550
O16      9.653618328    6.012753687   18.489156183 XXXX 19     oc23    O  -0.550
O17     15.609150142    6.498520964   23.854341202 XXXX 19     oc23    O  -0.550
O18     12.301696219    6.375737568   15.131259488 XXXX 19     oc23    O  -0.550
O19     14.786107009    5.714192514   14.453983689 XXXX 19     oc23    O  -0.550
O20      9.087171686    5.055051812   22.606697108 XXXX 19     oc23    O  -0.550
O21     12.046334810    5.066862780   18.497512877 XXXX 19     oc23    O  -0.550
O22      8.509980238    7.936415095   17.017736395 XXXX 19     oc23    O  -0.550
O23     14.316592333    7.676215037   21.641596555 XXXX 19     oc23    O  -0.550
O24     11.391998544    8.208217927   13.340925412 XXXX 19     oc23    O  -0.550
Si1     16.351009087    6.160483464   14.351356151 XXXX 19     sc4     Si  1.100
Si2     10.641396579    5.499217214   22.397496812 XXXX 19     sc4     Si  1.100
Si3     13.567358703    5.660814456   18.406986007 XXXX 19     sc4     Si  1.100
Si4      8.961909432    7.534861386   18.454723175 XXXX 19     sc4     Si  1.100
Si5     14.598848075    7.804643026   23.246597921 XXXX 19     sc4     Si  1.100
Si6     11.886737906    7.940840119   14.803720510 XXXX 19     sc4     Si  1.100
Si7     11.369841671    8.389849009   23.388404687 XXXX 19     sc4     Si  1.100
Si8      9.110428397    8.462912534   15.635103993 XXXX 19     sc4     Si  1.100
Si9     14.595378512    7.956658686   20.082056880 XXXX 19     sc4     Si  1.100
Si10    10.708631912    5.070521486   19.285839658 XXXX 19     sc4     Si  1.100
Si11    16.798501139    5.334972122   23.324822876 XXXX 19     sc4     Si  1.100
Si12    13.561386162    5.427582490   15.420689230 XXXX 19     sc4     Si  1.100
O1      11.694140877   10.019478625   11.343664523 XXXX 20     oc23    O  -0.550
O2      17.180459326    9.366610212    3.926908072 XXXX 20     oc23    O  -0.550
O3      14.469783124    9.649944690    7.236084781 XXXX 20     oc23    O  -0.550
O4      10.676164800   13.669805559    7.437261635 XXXX 20     oc23    O  -0.550
O5      16.205426671   13.699525857   10.681966367 XXXX 20     oc23    O  -0.550
O6      12.590525137   14.626811205    3.204168838 XXXX 20     oc23    O  -0.550
O7      13.744406840   13.469916773   11.333301346 XXXX 20     oc23    O  -0.550
O8      10.954216096   12.606916029    3.535599238 XXXX 20     oc23    O  -0.550
O9      16.680012936   13.186860578    7.332227114 XXXX 20     oc23    O  -0.550
O10     11.659105154   10.499497472    8.642517522 XXXX 20     oc23    O  -0.550
O11     18.535146076    9.255463856    1.885065942 XXXX 20     oc23    O  -0.550
O12     14.378823699   10.186581837    4.526721559 XXXX 20     oc23    O  -0.550
O13     11.486261462   12.546081937   10.453912699 XXXX 20     oc23    O  -0.550
O14      8.261492818   12.301908640    3.061767051 XXXX 20     oc23    O  -0.550
O15     14.528409686   12.185049158    6.290626643 XXXX 20     oc23    O  -0.550
O16      9.961166377   11.266683430    6.891429424 XXXX 20     oc23    O  -0.550
O17     15.298898241   11.368596577   10.578803834 XXXX 20     oc23    O  -0.550
O18     13.620746612   12.062927205    2.803432819 XXXX 20     oc23    O  -0.550
O19     15.717160047   10.352011193    2.164326779 XXXX 20     oc23    O  -0.550
O20      9.504932300   10.774749258   10.213623866 XXXX 20     oc23    O  -0.550
O21     12.379342230   10.652732181    6.115798581 XXXX 20     oc23    O  -0.550
O22      9.011360397   13.157001138    5.437265990 XXXX 20     oc23    O  -0.550
O23     14.530411471   13.322396228    8.849712332 XXXX 20     oc23    O  -0.550
O24     11.869387109   13.231563554    1.110270595 XXXX 20     oc24    O  -0.675
Si1     17.320667848   10.264870971    2.584899486 XXXX 20     sc4     Si  1.100
Si2     11.108441094   10.941398702   10.130317945 XXXX 20     sc4     Si  1.100
Si3     13.945045817   10.619458572    6.054763729 XXXX 20     sc4     Si  1.100
Si4      9.416609106   12.784958496    6.956549472 XXXX 20     sc4     Si  1.100
Si5     14.901191282   12.896488011   10.378764219 XXXX 20     sc4     Si  1.100
Si6     12.326254638   13.101532317    2.698953219 XXXX 20     sc4     Si  1.100
Si7     12.180105398   13.437583930   11.642052706 XXXX 20     sc4     Si  1.100
Si8      9.378236080   13.120869928    3.918203182 XXXX 20     sc4     Si  1.100
Si9     15.118480978   13.363300837    7.286094933 XXXX 20     sc4     Si  1.100
Si10    11.211413222   10.321802860    7.111326648 XXXX 20     sc4     Si  1.100
Si11    16.453481017   10.398769107   11.118351587 XXXX 20     sc4     Si  1.100
Si12    14.268410259   10.526883508    2.934161087 XXXX 20     sc4     Si  1.100
H1      10.959121615   13.604860550    1.002655367 XXXX 20     hoy     H   0.400
O1      11.524000043    9.502354574   22.215108074 XXXX 21     oc23    O  -0.550
O2      17.145256540   10.182888346   15.230544548 XXXX 21     oc23    O  -0.550
O3      14.362673178    9.480786539   19.503263149 XXXX 21     oc23    O  -0.550
O4      10.236281124   13.384345532   18.653693794 XXXX 21     oc23    O  -0.550
O5      15.379514611   13.910842972   23.325024122 XXXX 21     oc23    O  -0.550
O6      13.181630635   14.023591536   15.105050671 XXXX 21     oc23    O  -0.550
O7      13.219669533   12.533085666   23.357115900 XXXX 21     oc23    O  -0.550
O8      10.633254195   13.245151696   15.579545127 XXXX 21     oc23    O  -0.550
O9      16.001785514   12.598449140   19.463950422 XXXX 21     oc23    O  -0.550
O10     10.812704873   10.800671190   20.065943245 XXXX 21     oc23    O  -0.550
O11     16.775110180   10.613709103   12.685979960 XXXX 21     oc23    O  -0.550
O12     14.274449426   10.427583945   16.839557885 XXXX 21     oc23    O  -0.550
O13     10.813372135   12.086202325   22.357247593 XXXX 21     oc23    O  -0.550
O14      8.439207721   12.500159912   14.402502547 XXXX 21     oc23    O  -0.550
O15     13.607066252   11.955892804   18.888633666 XXXX 21     oc23    O  -0.550
O16      9.651749796   11.033380855   17.904344994 XXXX 21     oc23    O  -0.550
O17     15.244876880   11.325949580   22.411603964 XXXX 21     oc23    O  -0.550
O18     12.377440881   11.440998140   15.156531813 XXXX 21     oc23    O  -0.550
O19     14.771258195   10.809904398   14.333772024 XXXX 21     oc23    O  -0.550
O20      9.203657109   10.352568799   21.973614753 XXXX 21     oc23    O  -0.550
O21     12.165690155    9.942199827   18.121702731 XXXX 21     oc23    O  -0.550
O22      8.467436577   13.048259653   16.864428714 XXXX 21     oc23    O  -0.550
O23     14.148053524   13.367203040   21.028236316 XXXX 21     oc23    O  -0.550
O24     11.837320752   12.868997099   13.108926523 XXXX 21     oc23    O  -0.550
Si1     16.358083455   11.077631099   14.154457769 XXXX 21     sc4     Si  1.100
Si2     10.643498802   10.683184532   21.605826556 XXXX 21     sc4     Si  1.100
Si3     13.653046660   10.457721669   18.360452331 XXXX 21     sc4     Si  1.100
Si4      8.994977179   12.461415119   18.205741905 XXXX 21     sc4     Si  1.100
Si5     14.526674407   12.774296487   22.493973392 XXXX 21     sc4     Si  1.100
Si6     12.009130238   12.954081343   14.722486826 XXXX 21     sc4     Si  1.100
Si7     11.691037264   13.036273719   23.219453609 XXXX 21     sc4     Si  1.100
Si8      9.017366748   13.438141536   15.464080678 XXXX 21     sc4     Si  1.100
Si9     14.520968374   13.110835096   19.479462312 XXXX 21     sc4     Si  1.100
Si10    10.661416424   10.051359776   18.680505353 XXXX 21     sc4     Si  1.100
Si11    16.263653472   10.443994384   23.204945957 XXXX 21     sc4     Si  1.100
Si12    13.652746342   10.398664232   15.345741000 XXXX 21     sc4     Si  1.100
O1      11.647159079   14.924814772   11.585090098 XXXX 22     oc23    O  -0.550
O2      16.989630391   14.299400929    2.694567399 XXXX 22     oc23    O  -0.550
O3      14.831053211   14.828302200    6.433209003 XXXX 22     oc23    O  -0.550
O4      10.525510797   18.604094648    7.260621860 XXXX 22     oc23    O  -0.550
O5      16.104790457   18.671131977   11.118551837 XXXX 22     oc23    O  -0.550
O6      12.840081070   19.912759684    2.315286257 XXXX 22     oc23    O  -0.550
O7      13.587546606   17.888197023   11.636369994 XXXX 22     oc23    O  -0.550
O8      10.919647756   18.546500278    3.836796397 XXXX 22     oc23    O  -0.550
O9      16.479240706   17.543156220    7.802375351 XXXX 22     oc23    O  -0.550
O10     11.587631565   15.515909366    9.073821776 XXXX 22     oc23    O  -0.550
O11     17.164307811   16.406819486    1.158154588 XXXX 22     oc24    O  -0.675
O12     13.775004426   16.415598926    4.474344772 XXXX 22     oc23    O  -0.550
O13     11.193561233   17.460894272   10.910221282 XXXX 22     oc23    O  -0.550
O14      8.926506766   17.233515612    2.916423535 XXXX 22     oc23    O  -0.550
O15     13.959393439   17.133692708    6.992385723 XXXX 22     oc23    O  -0.550
O16      9.815550151   16.059095528    7.239962255 XXXX 22     oc23    O  -0.550
O17     15.370805402   16.136027510   10.568575152 XXXX 22     oc23    O  -0.550
O18     12.213873223   17.157490130    2.296746461 XXXX 22     oc23    O  -0.550
O19     14.708227308   15.879868278    2.193002355 XXXX 22     oc23    O  -0.550
O20      9.409101167   15.472704762   10.538220865 XXXX 22     oc23    O  -0.550
O21     12.240467237   15.355635530    6.452277070 XXXX 22     oc23    O  -0.550
O22      8.890269773   17.818825432    5.542006613 XXXX 22     oc23    O  -0.550
O23     14.491304557   18.225711703    9.235351655 XXXX 22     oc23    O  -0.550
Si1     16.359585043   15.813773791    2.501039142 XXXX 22     sc4     Si  1.100
Si2     10.987650788   15.888543881   10.517227510 XXXX 22     sc4     Si  1.100
Si3     13.725954216   15.929378918    6.041612496 XXXX 22     sc4     Si  1.100
Si4      9.367492269   17.564305791    7.066063711 XXXX 22     sc4     Si  1.100
Si5     14.867857028   17.748654294   10.659167775 XXXX 22     sc4     Si  1.100
Si6     11.656535550   18.732593247    2.431880723 XXXX 22     sc4     Si  1.100
Si7     12.113370262   18.508487537   11.731041338 XXXX 22     sc4     Si  1.100
Si8      9.364455283   18.314035669    4.109057208 XXXX 22     sc4     Si  1.100
Si9     14.954045183   18.129616557    7.701553050 XXXX 22     sc4     Si  1.100
Si10    11.101134030   15.145677645    7.547644620 XXXX 22     sc4     Si  1.100
Si11    16.604268274   15.207835662   11.013183566 XXXX 22     sc4     Si  1.100
Si12    13.313098126   16.034218199    2.991706262 XXXX 22     sc4     Si  1.100
H1      17.481667890   15.680363690    0.759511416 XXXX 22     hoy     H   0.400
O1      11.730478306   14.341733300   22.502999579 XXXX 23     oc23    O  -0.550
O2      17.217129890   15.060593401   15.168031732 XXXX 23     oc23    O  -0.550
O3      14.446025221   14.482355936   18.638249651 XXXX 23     oc23    O  -0.550
O4      10.357438375   18.515143505   19.369613824 XXXX 23     oc23    O  -0.550
O5      15.460363677   18.835271675   23.356715400 XXXX 23     oc23    O  -0.550
O6      13.143325230   18.964465983   15.333238836 XXXX 23     oc23    O  -0.550
O7      12.942185061   17.449465944   23.622143059 XXXX 23     oc23    O  -0.550
O8      10.683839803   18.036588763   15.652219874 XXXX 23     oc23    O  -0.550
O9      15.947996849   17.487339543   19.489223743 XXXX 23     oc23    O  -0.550
O10     11.320491144   15.147211321   20.065142246 XXXX 23     oc23    O  -0.550
O11     17.035010164   15.512843052   12.574460732 XXXX 23     oc23    O  -0.550
O12     14.098402679   15.937532219   16.515629381 XXXX 23     oc23    O  -0.550
O13     11.165199124   16.797606829   21.911571179 XXXX 23     oc23    O  -0.550
O14      8.246777755   17.458107280   14.974743825 XXXX 23     oc23    O  -0.550
O15     13.493883328   17.002860886   18.846714702 XXXX 23     oc23    O  -0.550
O16      9.683782343   16.040838863   18.306898952 XXXX 23     oc23    O  -0.550
O17     15.196226431   16.415320642   22.501662587 XXXX 23     oc23    O  -0.550
O18     12.545846437   16.575349422   14.560756698 XXXX 23     oc23    O  -0.550
O19     14.921778945   15.682837093   14.149443553 XXXX 23     oc23    O  -0.550
O20      9.331854917   15.112961642   21.904148984 XXXX 23     oc23    O  -0.550
O21     12.051607272   15.121393227   17.843369420 XXXX 23     oc23    O  -0.550
O22      8.725567471   18.415947778   17.333909950 XXXX 23     oc23    O  -0.550
O23     14.075378664   18.255257554   21.163758624 XXXX 23     oc23    O  -0.550
O24     11.629475148   18.639563376   13.240905107 XXXX 23     oc23    O  -0.550
Si1     16.516011706   15.971190026   14.094686683 XXXX 23     sc4     Si  1.100
Si2     10.917946288   15.283513290   21.546189965 XXXX 23     sc4     Si  1.100
Si3     13.512269325   15.644824352   17.959637857 XXXX 23     sc4     Si  1.100
Si4      9.225413226   17.575453758   18.672881912 XXXX 23     sc4     Si  1.100
Si5     14.437916647   17.745692856   22.736937205 XXXX 23     sc4     Si  1.100
Si6     11.986206661   18.035089353   14.711990149 XXXX 23     sc4     Si  1.100
Si7     11.225895092   17.520997350   23.311785715 XXXX 23     sc4     Si  1.100
Si8      9.141059793   18.449466443   15.819098714 XXXX 23     sc4     Si  1.100
Si9     14.487934437   17.977565592   19.620199085 XXXX 23     sc4     Si  1.100
Si10    10.727050726   14.881889491   18.690800784 XXXX 23     sc4     Si  1.100
Si11    16.165652495   15.274732812   23.162692247 XXXX 23     sc4     Si  1.100
Si12    13.665259242   15.594059358   15.042471106 XXXX 23     sc4     Si  1.100
O1      12.005292736   19.890112779   10.871577051 XXXX 24     oc23    O  -0.550
O2      17.401918663   19.513505451    3.685763196 XXXX 24     oc23    O  -0.550
O3      14.926217082   19.591238018    6.841486519 XXXX 24     oc23    O  -0.550
O4      10.714504016   23.489849167    6.756776857 XXXX 24     oc23    O  -0.550
O5      16.083301841   23.609218394   10.663914991 XXXX 24     oc23    O  -0.550
O6      13.576434856   24.746182305    2.163310586 XXXX 24     oc23    O  -0.550
O7      13.570028744   23.288114154   11.479453831 XXXX 24     oc23    O  -0.550
O8      11.201135798   23.588766609    2.905880033 XXXX 24     oc23    O  -0.550
O9      16.593090892   22.635453416    7.410317572 XXXX 24     oc23    O  -0.550
O10     11.504646466   20.710643049    8.370003411 XXXX 24     oc23    O  -0.550
O12     14.489669715   20.259613486    4.304791949 XXXX 24     oc23    O  -0.550
O13     11.331636704   22.430094483   10.463941131 XXXX 24     oc23    O  -0.550
O14      9.138590626   21.916627581    2.221737956 XXXX 24     oc23    O  -0.550
O15     14.094832679   22.082964474    6.370615988 XXXX 24     oc23    O  -0.550
O16     10.052794059   21.114148379    6.183713161 XXXX 24     oc23    O  -0.550
O17     15.197761829   21.208291385   10.753772369 XXXX 24     oc23    O  -0.550
O18     13.788484905   22.202227788    2.753315817 XXXX 24     oc23    O  -0.550
O19     15.755799580   20.176479306    1.966840350 XXXX 24     oc23    O  -0.550
O20      9.472933564   20.493924321   10.261961783 XXXX 24     oc23    O  -0.550
O21     12.498130750   19.980004688    6.055311676 XXXX 24     oc23    O  -0.550
O22      9.140359715   23.175434122    4.648798237 XXXX 24     oc23    O  -0.550
O23     14.388333423   22.872171198    8.896312758 XXXX 24     oc23    O  -0.550
O24     12.421018749   23.046275118    0.559469062 XXXX 24     oc24    O  -0.675
Si1     17.482702096   20.181079296    2.263558041 XXXX 24     sc4     Si  1.100
Si2     11.098664863   20.890497476    9.957489393 XXXX 24     sc4     Si  1.100
Si3     14.024360479   20.516886891    5.879754845 XXXX 24     sc4     Si  1.100
Si4      9.499794085   22.611552157    6.182449893 XXXX 24     sc4     Si  1.100
Si5     14.758712479   22.727785500   10.427837382 XXXX 24     sc4     Si  1.100
Si6     12.688125359   23.365080402    2.155849039 XXXX 24     sc4     Si  1.100
Si7     11.939058793   23.354767286   11.592310051 XXXX 24     sc4     Si  1.100
Si8      9.493287536   23.347554750    2.938419883 XXXX 24     sc4     Si  1.100
Si9     15.032525519   23.020805917    7.393469189 XXXX 24     sc4     Si  1.100
Si10    11.141241340   20.100592965    6.923655200 XXXX 24     sc4     Si  1.100
Si11    16.469130346   20.252679234   11.168562488 XXXX 24     sc4     Si  1.100
Si12    14.274249546   20.635244744    2.775198590 XXXX 24     sc4     Si  1.100
H1      12.710781435   23.775902104    0.040060348 XXXX 24     hoy     H   0.400
O1      10.733790966   19.059375308   23.241985201 XXXX 25     oc23    O  -0.550
O2      17.024164921   20.068573710   15.216302900 XXXX 25     oc23    O  -0.550
O3      14.582798985   19.328739522   18.794364814 XXXX 25     oc23    O  -0.550
O4      10.076917912   23.539707661   19.488221498 XXXX 25     oc23    O  -0.550
O5      16.500462815   24.360725966   23.763348079 XXXX 25     oc23    O  -0.550
O6      13.132179670   23.822902998   14.830263077 XXXX 25     oc23    O  -0.550
O7      14.160399360   22.838442782   24.142368199 XXXX 25     oc23    O  -0.550
O8      10.698621990   23.449537469   15.627950790 XXXX 25     oc23    O  -0.550
O9      16.285909787   22.731930683   19.580017613 XXXX 25     oc23    O  -0.550
O10     11.219354732   20.457689274   20.991665318 XXXX 25     oc23    O  -0.550
O11     16.862566233   20.659042165   12.631423339 XXXX 25     oc23    O  -0.550
O12     14.022458136   20.978960584   16.882815832 XXXX 25     oc23    O  -0.550
O13     11.951137128   21.457689772   23.401443839 XXXX 25     oc23    O  -0.550
O14      8.612085223   22.404974175   14.716469369 XXXX 25     oc23    O  -0.550
O15     13.931631964   21.887326785   19.469834380 XXXX 25     oc23    O  -0.550
O16      9.786020582   21.051918714   18.792491831 XXXX 25     oc23    O  -0.550
O17     16.420847835   21.466434946   23.835286584 XXXX 25     oc23    O  -0.550
O18     12.247140850   21.432708606   15.064802448 XXXX 25     oc23    O  -0.550
O19     14.681332976   20.930181997   14.278614654 XXXX 25     oc23    O  -0.550
O20      9.324147098   21.233307855   22.908562265 XXXX 25     oc23    O  -0.550
O21     12.204462941   20.144042625   18.555613222 XXXX 25     oc23    O  -0.550
O22      8.629970029   23.147840411   17.404712709 XXXX 25     oc23    O  -0.550
O23     15.011304404   22.730815471   21.826593522 XXXX 25     oc23    O  -0.550
O24     11.442550342   22.829035127   13.084189194 XXXX 25     oc23    O  -0.550
Si1     16.272962322   21.033558211   14.133197414 XXXX 25     sc4     Si  1.100
Si2     10.801427054   20.558243191   22.599141414 XXXX 25     sc4     Si  1.100
Si3     13.766062521   20.636987133   18.397627068 XXXX 25     sc4     Si  1.100
Si4      9.059342590   22.537617957   18.864900574 XXXX 25     sc4     Si  1.100
Si5     15.612353198   22.894294763   23.397899119 XXXX 25     sc4     Si  1.100
Si6     11.878629332   22.940182521   14.644596618 XXXX 25     sc4     Si  1.100
Si7     12.495895274   22.941958138   23.844914516 XXXX 25     sc4     Si  1.100
Si8      9.116934945   23.430059677   15.841897307 XXXX 25     sc4     Si  1.100
Si9     14.893517274   22.992061689   20.149516165 XXXX 25     sc4     Si  1.100
Si10    10.910571602   20.065298683   19.488956744 XXXX 25     sc4     Si  1.100
Si11    16.771406927   19.977356838   23.282634920 XXXX 25     sc4     Si  1.100
Si12    13.533791752   20.572005781   15.403172850 XXXX 25     sc4     Si  1.100
O1      11.545454848   24.859836330   11.349079239 XXXX 26     oc23    O  -0.550
O2      17.875103777   24.520161836    2.566232665 XXXX 26     oc23    O  -0.550
O3      14.850306351   24.601308571    6.945183551 XXXX 26     oc23    O  -0.550
O4      10.642564039   28.477551099    7.312035754 XXXX 26     oc23    O  -0.550
O5      15.950065262   28.842626262   11.056640767 XXXX 26     oc23    O  -0.550
O6      12.588055970   29.522079088    2.780674327 XXXX 26     oc23    O  -0.550
O7      13.572964299   28.016904130   11.570179954 XXXX 26     oc23    O  -0.550
O8      10.961023957   27.513577973    3.393224351 XXXX 26     oc23    O  -0.550
O9      16.433493989   27.893599470    7.960361505 XXXX 26     oc23    O  -0.550
O10     11.548124890   25.204667382    8.666787602 XXXX 26     oc23    O  -0.550
O11     18.833317654   27.023455762    1.992754770 XXXX 26     oc23    O  -0.550
O12     14.621237643   25.397169186    4.437659203 XXXX 26     oc23    O  -0.550
O13     11.362901551   27.322399056   10.387321163 XXXX 26     oc23    O  -0.550
O14      8.328594898   27.322156076    2.760155444 XXXX 26     oc23    O  -0.550
O15     14.311721619   27.147840329    6.520586172 XXXX 26     oc23    O  -0.550
O16      9.939110937   25.957985876    6.811934726 XXXX 26     oc23    O  -0.550
O17     15.306406180   26.168328996   10.529864171 XXXX 26     oc23    O  -0.550
O18     13.595788433   27.296198840    2.908861863 XXXX 26     oc23    O  -0.550
O19     16.003720672   26.252156810    2.178012759 XXXX 26     oc23    O  -0.550
O20      9.398990807   25.675417716   10.157797003 XXXX 26     oc23    O  -0.550
O21     12.482047850   25.321980633    6.045496944 XXXX 26     oc23    O  -0.550
O22      8.977792452   27.826911034    5.269317656 XXXX 26     oc23    O  -0.550
O23     14.213420325   28.108540504    9.030095583 XXXX 26     oc23    O  -0.550
O24     12.029917781   27.890079387    0.888922556 XXXX 26     oc24    O  -0.675
Si1     17.573929023   26.051119583    2.642190364 XXXX 26     sc4     Si  1.100
Si2     10.957420147   25.789387407   10.106717357 XXXX 26     sc4     Si  1.100
Si3     14.055258382   25.617825423    5.969880218 XXXX 26     sc4     Si  1.100
Si4      9.419544660   27.513891562    6.808592247 XXXX 26     sc4     Si  1.100
Si5     14.789243438   27.786912924   10.570714139 XXXX 26     sc4     Si  1.100
Si6     12.220646279   28.025964968    2.473800932 XXXX 26     sc4     Si  1.100
Si7     12.008896547   28.213727640   11.610562673 XXXX 26     sc4     Si  1.100
Si8      9.472165864   28.001295314    3.703387173 XXXX 26     sc4     Si  1.100
Si9     14.908365093   28.150175089    7.552859583 XXXX 26     sc4     Si  1.100
Si10    11.186354606   24.995615997    7.077228884 XXXX 26     sc4     Si  1.100
Si11    16.496691940   25.209616266   10.968388377 XXXX 26     sc4     Si  1.100
Si12    14.483630548   25.925200302    2.878501598 XXXX 26     sc4     Si  1.100
H2      12.047636517   28.711166224    0.511657984 XXXX 26     hoy     H   0.400
O1      11.987440747   24.153867623   22.787950101 XXXX 27     oc23    O  -0.550
O2      17.119329787   25.069236609   15.112739866 XXXX 27     oc23    O  -0.550
O3      14.463443640   24.523681919   19.629426518 XXXX 27     oc23    O  -0.550
O4      10.279926613   28.489257711   18.522584952 XXXX 27     oc23    O  -0.550
O5      15.426295534   29.393165140   22.291326545 XXXX 27     oc23    O  -0.550
O6      13.144025308   28.728691876   14.819498403 XXXX 27     oc23    O  -0.550
O7      13.493149439   27.742767555   22.142298831 XXXX 27     oc23    O  -0.550
O8      10.718441954   28.253551303   15.475446101 XXXX 27     oc23    O  -0.550
O9      15.975858761   27.848897533   17.790619033 XXXX 27     oc23    O  -0.550
O10     10.974303562   25.603992224   20.835884900 XXXX 27     oc23    O  -0.550
O11     16.799736220   25.312608282   12.560955325 XXXX 27     oc23    O  -0.550
O12     14.099970893   25.153415392   16.855603774 XXXX 27     oc23    O  -0.550
O13     11.198833695   26.778480841   23.122576528 XXXX 27     oc23    O  -0.550
O14      8.661935949   27.241287625   14.367000544 XXXX 27     oc23    O  -0.550
O15     13.700996037   26.895829396   18.685652072 XXXX 27     oc23    O  -0.550
O16      9.634198124   25.958648357   18.521781960 XXXX 27     oc23    O  -0.550
O17     15.905653068   26.870499336   22.899938571 XXXX 27     oc23    O  -0.550
O18     12.361590678   26.287488473   15.160677283 XXXX 27     oc23    O  -0.550
O19     14.821443049   25.766250391   14.284096120 XXXX 27     oc23    O  -0.550
O20      9.354612424   24.884503908   22.833947785 XXXX 27     oc23    O  -0.550
O21     11.998852814   25.089061217   18.482937479 XXXX 27     oc23    O  -0.550
O22      8.551590130   27.783777039   16.900868205 XXXX 27     oc23    O  -0.550
O23     15.384486756   27.661656124   20.355841233 XXXX 27     oc23    O  -0.550
O24     11.586964303   27.638660326   13.037254022 XXXX 27     oc23    O  -0.550
Si1     16.372531514   25.927640477   14.037522829 XXXX 27     sc4     Si  1.100
Si2     10.882409373   25.318531159   22.434938548 XXXX 27     sc4     Si  1.100
Si3     13.600092322   25.325604553   18.440349023 XXXX 27     sc4     Si  1.100
Si4      9.051368264   27.503019801   18.348084663 XXXX 27     sc4     Si  1.100
Si5     15.071031798   27.917500729   21.936039517 XXXX 27     sc4     Si  1.100
Si6     11.938224467   27.696462371   14.608292619 XXXX 27     sc4     Si  1.100
Si7     12.222181677   28.068262034   23.103121411 XXXX 27     sc4     Si  1.100
Si8      9.102620140   28.319228365   15.509611112 XXXX 27     sc4     Si  1.100
Si9     14.787775661   27.999797981   18.910563512 XXXX 27     sc4     Si  1.100
Si10    10.658814003   25.039935813   19.366338096 XXXX 27     sc4     Si  1.100
Si11    17.130807487   25.801964175   23.183552102 XXXX 27     sc4     Si  1.100
Si12    13.639966935   25.308218043   15.307899761 XXXX 27     sc4     Si  1.100
O1      11.542051912   29.784126930   11.369538594 XXXX 28     oc23    O  -0.550
O2      16.819923128   29.292958039    3.800806472 XXXX 28     oc23    O  -0.550
O3      14.834790275   29.648172816    6.857331660 XXXX 28     oc23    O  -0.550
O4      10.650872493   33.500339639    7.232206808 XXXX 28     oc23    O  -0.550
O5      15.734911599   33.838097297   11.292718377 XXXX 28     oc23    O  -0.550
O6      13.704265720   34.264180999    2.998251492 XXXX 28     oc23    O  -0.550
O7      13.452407683   32.808690089   11.379901772 XXXX 28     oc23    O  -0.550
O8      11.335573648   33.228954751    3.644625306 XXXX 28     oc23    O  -0.550
O9      16.474435625   32.342888639    7.246982456 XXXX 28     oc23    O  -0.550
O10     11.469878245   30.497900044    8.708574062 XXXX 28     oc23    O  -0.550
O11     17.362610874   29.780467705    1.264105177 XXXX 28     oc24    O  -0.675
O12     14.143649198   30.800257507    4.563740878 XXXX 28     oc23    O  -0.550
O13     11.084683191   32.354699088   10.540159602 XXXX 28     oc23    O  -0.550
O14      9.075259421   32.158050024    2.664494558 XXXX 28     oc23    O  -0.550
O15     13.945979586   32.105055644    6.865622103 XXXX 28     oc23    O  -0.550
O16      9.931536371   30.960322630    6.846367235 XXXX 28     oc23    O  -0.550
O17     15.362363694   31.307384107   10.421152425 XXXX 28     oc23    O  -0.550
O18     13.134783085   31.927919676    2.342156845 XXXX 28     oc23    O  -0.550
O19     15.015841984   30.215157438    2.240204278 XXXX 28     oc23    O  -0.550
O20      9.354945558   30.489154871   10.235152216 XXXX 28     oc23    O  -0.550
O21     12.341069641   30.133940093    6.248198088 XXXX 28     oc23    O  -0.550
O22      9.221342034   32.737229293    5.202425746 XXXX 28     oc23    O  -0.550
O23     14.650201382   33.372781805    8.999675542 XXXX 28     oc23    O  -0.550
O24     11.911229698   33.918755998    1.132581265 XXXX 28     oc24    O  -0.675
Si1     16.511073372   30.237281003    2.595991433 XXXX 28     sc4     Si  1.100
Si2     10.898826402   30.749877749   10.202324196 XXXX 28     sc4     Si  1.100
Si3     13.802499393   30.696951902    6.132018319 XXXX 28     sc4     Si  1.100
Si4      9.491586068   32.466820475    6.738992481 XXXX 28     sc4     Si  1.100
Si5     14.789043558   32.832277759   10.515757019 XXXX 28     sc4     Si  1.100
Si6     12.517317263   33.364036632    2.563297660 XXXX 28     sc4     Si  1.100
Si7     11.881265563   33.235540110   11.563695247 XXXX 28     sc4     Si  1.100
Si8      9.677976866   33.253134294    3.717741648 XXXX 28     sc4     Si  1.100
Si9     15.004130594   33.103349058    7.450232045 XXXX 28     sc4     Si  1.100
Si10    11.111644150   30.010843108    7.273458273 XXXX 28     sc4     Si  1.100
Si11    16.490919280   30.297419386   10.972199102 XXXX 28     sc4     Si  1.100
Si12    13.729358146   30.605282300    3.033338799 XXXX 28     sc4     Si  1.100
H1      11.870020560   33.164183150    0.577538247 XXXX 28     hoy     H   0.400
H2      16.914519181   29.039308554    0.843091124 XXXX 28     hoy     H   0.400
O1      11.523433218   29.481767390   22.681445089 XXXX 29     oc23    O  -0.550
O2      17.168046864   29.932936095   14.857674389 XXXX 29     oc23    O  -0.550
O3      14.202943021   29.497934850   18.907222030 XXXX 29     oc23    O  -0.550
O4      10.052059176   33.511487606   18.920793190 XXXX 29     oc23    O  -0.550
O5      14.825747932   34.186064235   22.705847672 XXXX 29     oc23    O  -0.550
O6      12.947524151   33.687859331   14.939710068 XXXX 29     oc23    O  -0.550
O7      12.560328306   32.563542798   23.565044959 XXXX 29     oc23    O  -0.550
O8      10.592612876   33.005339153   15.630491273 XXXX 29     oc23    O  -0.550
O9      15.916864261   33.135229171   19.441887075 XXXX 29     oc23    O  -0.550
O10     11.249819064   30.133555895   20.123575344 XXXX 29     oc23    O  -0.550
O11     16.831935831   30.853671389   12.452042334 XXXX 29     oc23    O  -0.550
O12     14.067837909   30.554098841   16.462610998 XXXX 29     oc23    O  -0.550
O13     10.995225354   32.008962574   21.901674255 XXXX 29     oc23    O  -0.550
O14      8.223754238   32.371493725   14.598932683 XXXX 29     oc23    O  -0.550
O15     13.718513898   32.137041671   18.504532580 XXXX 29     oc23    O  -0.550
O16      9.491652695   31.077147846   18.398428067 XXXX 29     oc23    O  -0.550
O17     15.105700576   31.663433736   23.462953413 XXXX 29     oc23    O  -0.550
O18     12.236730173   31.216341681   14.788543366 XXXX 29     oc23    O  -0.550
O19     14.722241796   30.669009298   13.921189635 XXXX 29     oc23    O  -0.550
O20      9.226346995   30.509536047   21.705780111 XXXX 29     oc23    O  -0.550
O21     12.001489045   30.280414997   17.786875058 XXXX 29     oc23    O  -0.550
O22      8.417785732   32.981994462   17.041670732 XXXX 29     oc23    O  -0.550
O23     13.966067052   32.419227709   21.130931601 XXXX 29     oc23    O  -0.550
O24     11.338677261   32.932659307   13.093816130 XXXX 29     oc23    O  -0.550
Si1     16.333458410   31.028890521   13.929479579 XXXX 29     sc4     Si  1.100
Si2     10.801993878   30.494205515   21.575139515 XXXX 29     sc4     Si  1.100
Si3     13.582340770   30.652771228   17.922196120 XXXX 29     sc4     Si  1.100
Si4      8.830875513   32.561939551   18.485611462 XXXX 29     sc4     Si  1.100
Si5     14.096167202   32.732247181   22.743622162 XXXX 29     sc4     Si  1.100
Si6     11.761944029   32.682457219   14.627280487 XXXX 29     sc4     Si  1.100
Si7     10.936431728   32.703502953   23.278623946 XXXX 29     sc4     Si  1.100
Si8      9.028011116   33.269162612   15.611971651 XXXX 29     sc4     Si  1.100
Si9     14.332342099   33.043038306   19.688194363 XXXX 29     sc4     Si  1.100
Si10    10.753811805   30.005129983   18.663722226 XXXX 29     sc4     Si  1.100
Si11    16.050868540   30.344177300   23.372225298 XXXX 29     sc4     Si  1.100
Si12    13.552210566   30.272716503   15.004963616 XXXX 29     sc4     Si  1.100
O1      19.867410441   -0.076235233   11.404639101 XXXX 30     oc23    O  -0.550
O2      25.944598709   -1.120482862    2.236948226 XXXX 30     oc23    O  -0.550
O3      23.109996766   -0.112331139    7.005824379 XXXX 30     oc23    O  -0.550
O4      18.906927277    3.756002365    7.812872028 XXXX 30     oc23    O  -0.550
O5      23.868606867    4.140065727   11.448966044 XXXX 30     oc23    O  -0.550
O6      20.422478827    4.368071824    1.938532522 XXXX 30     oc23    O  -0.550
O7      21.676594995    2.776729599   11.249728425 XXXX 30     oc23    O  -0.550
O8      19.175735355    3.254256612    3.868520553 XXXX 30     oc23    O  -0.550
O9      24.491043840    2.912867764    7.428101949 XXXX 30     oc23    O  -0.550
O10     19.786060183    0.379101856    8.856598535 XXXX 30     oc23    O  -0.550
O11     25.291231017    0.957235191    0.768871601 XXXX 30     oc24    O  -0.675
O12     22.517657182    1.004602890    4.699082364 XXXX 30     oc23    O  -0.550
O13     19.362660162    2.320972066   10.506062337 XXXX 30     oc23    O  -0.550
O14     17.333581502    1.722194814    3.973093802 XXXX 30     oc23    O  -0.550
O15     22.080842314    2.352378422    6.898850623 XXXX 30     oc23    O  -0.550
O16     18.283153792    1.300805205    6.906339069 XXXX 30     oc23    O  -0.550
O17     23.844281145    1.671492642   10.339450496 XXXX 30     oc23    O  -0.550
O18     21.159265189    1.823616292    2.506574904 XXXX 30     oc23    O  -0.550
O19     23.431225175    0.198737718    2.339101292 XXXX 30     oc23    O  -0.550
O20     17.550470443    0.501456502   10.302478001 XXXX 30     oc23    O  -0.550
O21     20.567259733    0.318400481    6.393334380 XXXX 30     oc23    O  -0.550
O22     17.573226956    3.467569997    5.843056324 XXXX 30     oc23    O  -0.550
O23     22.659335469    3.789137092    9.026953354 XXXX 30     oc23    O  -0.550
Si1     25.029461507    0.322452243    2.226164125 XXXX 30     sc4     Si  1.100
Si2     19.116274468    0.782425892   10.249726618 XXXX 30     sc4     Si  1.100
Si3     22.079008587    0.903466965    6.293528273 XXXX 30     sc4     Si  1.100
Si4     17.807900265    2.790997616    7.230468321 XXXX 30     sc4     Si  1.100
Si5     23.021271823    3.105606836   10.488211210 XXXX 30     sc4     Si  1.100
Si6     19.835811465    2.858420182    2.473727457 XXXX 30     sc4     Si  1.100
Si7     20.204454248    3.180416125   11.488145271 XXXX 30     sc4     Si  1.100
Si8     17.666756981    3.230341075    4.365973750 XXXX 30     sc4     Si  1.100
Si9     23.008493410    3.534964786    7.465743437 XXXX 30     sc4     Si  1.100
Si10    19.309838083    0.174559814    7.366926623 XXXX 30     sc4     Si  1.100
Si11    24.831126622    0.659694933   11.156259577 XXXX 30     sc4     Si  1.100
Si12    22.106969941    0.660830783    3.212920552 XXXX 30     sc4     Si  1.100
H1      25.635148318    0.266839201    0.215392366 XXXX 30     hoy     H   0.400
O1      20.074822474   -0.428625638   22.949279730 XXXX 31     oc23    O  -0.550
O2      25.528306867    0.230591320   14.969261363 XXXX 31     oc23    O  -0.550
O3      23.023541110   -0.326296103   19.448506279 XXXX 31     oc23    O  -0.550
O4      18.467409551    4.000175143   19.300148056 XXXX 31     oc23    O  -0.550
O5      23.713448101    4.309641824   23.653431845 XXXX 31     oc23    O  -0.550
O6      21.365410320    3.962545821   14.381040946 XXXX 31     oc23    O  -0.550
O7      21.166574243    3.252211537   23.808008772 XXXX 31     oc23    O  -0.550
O8      19.032422227    3.446682095   15.359112907 XXXX 31     oc23    O  -0.550
O9      24.295143317    2.876952795   19.656236084 XXXX 31     oc23    O  -0.550
O10     19.382246435    0.668074470   20.701835076 XXXX 31     oc23    O  -0.550
O11     25.165435750    1.228337317   12.647470224 XXXX 31     oc23    O  -0.550
O12     22.529268135    0.738162603   16.959434803 XXXX 31     oc23    O  -0.550
O13     18.796947408    2.019414410   22.890109393 XXXX 31     oc23    O  -0.550
O14     16.645010030    2.651622584   14.636908419 XXXX 31     oc23    O  -0.550
O15     21.959052606    2.213738817   19.140422418 XXXX 31     oc23    O  -0.550
O16     18.376116992    1.389098280   18.462880616 XXXX 31     oc23    O  -0.550
O17     23.745381204    1.842800354   23.138554671 XXXX 31     oc23    O  -0.550
O18     20.707569686    1.450503866   15.178394910 XXXX 31     oc23    O  -0.550
O19     23.052071278    0.671687552   14.330696546 XXXX 31     oc23    O  -0.550
O20     17.417634619   -0.155186849   22.331842764 XXXX 31     oc23    O  -0.550
O21     20.619178871    0.131452598   18.506806063 XXXX 31     oc23    O  -0.550
O22     17.104580416    3.282283584   17.125913144 XXXX 31     oc23    O  -0.550
O23     22.426529698    3.576147938   21.470037248 XXXX 31     oc23    O  -0.550
O24     19.813655587    2.602902925   12.881941850 XXXX 31     oc23    O  -0.550
Si1     24.623380461    1.193836741   14.140551863 XXXX 31     sc4     Si  1.100
Si2     18.955809428    0.498892144   22.236635428 XXXX 31     sc4     Si  1.100
Si3     22.081110810    0.730525243   18.538230342 XXXX 31     sc4     Si  1.100
Si4     17.553439808    2.808331428   18.557886705 XXXX 31     sc4     Si  1.100
Si5     22.741853187    3.180346294   23.021152482 XXXX 31     sc4     Si  1.100
Si6     20.245130372    2.830428255   14.475043794 XXXX 31     sc4     Si  1.100
Si7     19.478077569    3.468015978   23.367544831 XXXX 31     sc4     Si  1.100
Si8     17.460178280    3.603708162   15.615514379 XXXX 31     sc4     Si  1.100
Si9     22.831544715    3.417522778   19.914377040 XXXX 31     sc4     Si  1.100
Si10    19.164255667    0.200786086   19.217645127 XXXX 31     sc4     Si  1.100
Si11    25.173176385    1.015153014   23.400706601 XXXX 31     sc4     Si  1.100
Si12    21.931156884    0.461315032   15.443554573 XXXX 31     sc4     Si  1.100
O1      19.950628237    4.810913820   11.381572513 XXXX 32     oc23    O  -0.550
O2      24.943073472    3.822097631    2.511763218 XXXX 32     oc23    O  -0.550
O3      22.777724230    4.787395201    6.464999908 XXXX 32     oc23    O  -0.550
O4      18.841993053    8.663288836    7.198242545 XXXX 32     oc23    O  -0.550
O5      24.569257669    9.083832301   10.399222578 XXXX 32     oc23    O  -0.550
O6      20.914315451    9.603361222    3.302550781 XXXX 32     oc23    O  -0.550
O7      22.221554016    8.304312035   11.319795939 XXXX 32     oc23    O  -0.550
O8      19.039729291    7.787047804    3.810668029 XXXX 32     oc23    O  -0.550
O9      24.897761320    7.732206160    6.719670365 XXXX 32     oc23    O  -0.550
O10     19.983728800    5.695482599    9.009770723 XXXX 32     oc23    O  -0.550
O11     25.199803216    5.418349281    0.500828927 XXXX 32     oc24    O  -0.675
O12     21.681433887    5.436745608    4.102484829 XXXX 32     oc23    O  -0.550
O13     19.751523664    7.493887207   10.825979866 XXXX 32     oc23    O  -0.550
O14     16.610675380    6.924812860    3.220167902 XXXX 32     oc23    O  -0.550
O15     22.287655700    7.373508162    6.063488544 XXXX 32     oc23    O  -0.550
O16     18.052851993    6.187451556    7.516555585 XXXX 32     oc23    O  -0.550
O17     23.816419234    6.473678421   10.386585918 XXXX 32     oc23    O  -0.550
O18     20.630024113    7.140275676    2.067555926 XXXX 32     oc23    O  -0.550
O19     22.925874261    5.568169822    1.746742503 XXXX 32     oc23    O  -0.550
O20     17.740032476    5.789834318   10.464409376 XXXX 32     oc23    O  -0.550
O21     20.299117922    5.504617789    6.342294585 XXXX 32     oc23    O  -0.550
O22     17.247527595    7.407757841    5.632245063 XXXX 32     oc23    O  -0.550
O23     22.832212972    8.216196781    8.602536299 XXXX 32     oc23    O  -0.550
Si1     24.522509562    5.305321914    2.011341391 XXXX 32     sc4     Si  1.100
Si2     19.377574608    5.933209161   10.441811034 XXXX 32     sc4     Si  1.100
Si3     21.778834229    5.837777015    5.745590450 XXXX 32     sc4     Si  1.100
Si4     17.640263404    7.613290701    7.098222738 XXXX 32     sc4     Si  1.100
Si5     23.372999369    8.032509722   10.169830922 XXXX 32     sc4     Si  1.100
Si6     19.861803850    8.508973700    2.701132804 XXXX 32     sc4     Si  1.100
Si7     20.605465695    8.506500297   11.684040412 XXXX 32     sc4     Si  1.100
Si8     17.512598610    7.828335572    4.169550588 XXXX 32     sc4     Si  1.100
Si9     23.315073880    8.283128197    6.988708498 XXXX 32     sc4     Si  1.100
Si10    19.362493098    5.235707343    7.612697918 XXXX 32     sc4     Si  1.100
Si11    24.642899114    5.551584936   11.365593374 XXXX 32     sc4     Si  1.100
Si12    21.375054292    5.642940431    2.445459604 XXXX 32     sc4     Si  1.100
H2      24.823151302    4.701927798   -0.028146558 XXXX 32     hoy     H   0.400
O1      19.762901921    4.492631876   22.193979226 XXXX 33     oc23    O  -0.550
O2      25.498575429    5.178601528   15.102844934 XXXX 33     oc23    O  -0.550
O3      22.663740790    4.878437627   19.150986842 XXXX 33     oc23    O  -0.550
O4      18.295733318    8.684438407   19.227605813 XXXX 33     oc23    O  -0.550
O5      24.249964419    9.031604240   21.785541311 XXXX 33     oc23    O  -0.550
O6      21.546762346    8.940178655   15.143093157 XXXX 33     oc23    O  -0.550
O7      21.915607992    8.521377579   21.371420684 XXXX 33     oc23    O  -0.550
O8      19.050206595    8.281107005   15.679030436 XXXX 33     oc23    O  -0.550
O9      24.645434908    7.899796369   17.754984526 XXXX 33     oc23    O  -0.550
O10     19.455887880    6.251003069   20.336386116 XXXX 33     oc23    O  -0.550
O11     24.978876893    6.332533483   12.792217973 XXXX 33     oc23    O  -0.550
O12     22.357526270    4.927808606   16.526394054 XXXX 33     oc23    O  -0.550
O13     20.303222925    7.109091792   22.793700559 XXXX 33     oc23    O  -0.550
O14     16.614011689    7.693113511   14.699354484 XXXX 33     oc23    O  -0.550
O15     22.168499241    7.048954448   17.924670850 XXXX 33     oc23    O  -0.550
O16     17.982647295    6.336505258   18.314855147 XXXX 33     oc23    O  -0.550
O17     23.369029608    6.533014142   22.224134260 XXXX 33     oc23    O  -0.550
O18     20.786585025    6.405074707   15.312177735 XXXX 33     oc23    O  -0.550
O19     23.036822703    5.930456954   14.307697704 XXXX 33     oc23    O  -0.550
O20     17.812838600    6.159264415   22.342271695 XXXX 33     oc23    O  -0.550
O21     20.329650870    5.161737839   18.088807961 XXXX 33     oc23    O  -0.550
O22     16.891830289    8.356853684   17.179466524 XXXX 33     oc23    O  -0.550
O23     23.629162288    7.435456947   19.803191562 XXXX 33     oc23    O  -0.550
O24     20.157206938    7.993173056   13.224457722 XXXX 33     oc23    O  -0.550
Si1     24.604894027    6.255741682   14.325548830 XXXX 33     sc4     Si  1.100
Si2     19.374205483    6.061288776   21.902811993 XXXX 33     sc4     Si  1.100
Si3     21.840763289    5.494931850   17.927745332 XXXX 33     sc4     Si  1.100
Si4     17.234214180    7.704994569   18.578344068 XXXX 33     sc4     Si  1.100
Si5     23.357884048    7.852167260   21.253616002 XXXX 33     sc4     Si  1.100
Si6     20.349436029    7.880737560   14.846977461 XXXX 33     sc4     Si  1.100
Si7     21.205746789    8.664125245   22.752381348 XXXX 33     sc4     Si  1.100
Si8     17.450802803    8.636774513   15.667932013 XXXX 33     sc4     Si  1.100
Si9     23.259817438    8.031080921   18.452517438 XXXX 33     sc4     Si  1.100
Si10    19.081004061    5.441205418   19.030039931 XXXX 33     sc4     Si  1.100
Si11    24.036713100    5.924742790   23.626221779 XXXX 33     sc4     Si  1.100
Si12    21.899923858    5.274486403   15.058183245 XXXX 33     sc4     Si  1.100
O1      20.131180742   10.006517659   11.312708490 XXXX 34     oc23    O  -0.550
O2      25.750933663    8.985995804    2.149577782 XXXX 34     oc23    O  -0.550
O3      23.287846414    9.769383489    6.499886716 XXXX 34     oc23    O  -0.550
O4      19.117541371   13.740221753    6.924858692 XXXX 34     oc23    O  -0.550
O5      24.432650970   13.964290082   11.038321395 XXXX 34     oc23    O  -0.550
O6      22.006234284   14.584059332    2.889546472 XXXX 34     oc23    O  -0.550
O7      21.908267118   13.235011989   11.546779616 XXXX 34     oc23    O  -0.550
O8      19.529863453   13.792031350    3.374804853 XXXX 34     oc23    O  -0.550
O9      24.839533525   13.018190462    7.764600363 XXXX 34     oc23    O  -0.550
O10     19.847923611   10.585556747    8.744076065 XXXX 34     oc23    O  -0.550
O11     25.317891659   11.205954213    0.937013772 XXXX 34     oc24    O  -0.675
O12     22.530537026   11.299992344    4.518103345 XXXX 34     oc23    O  -0.550
O13     19.644682213   12.433228497   10.566033673 XXXX 34     oc23    O  -0.550
O14     17.964294113   11.760951863    2.715380430 XXXX 34     oc23    O  -0.550
O15     22.450254785   12.409779968    6.857465658 XXXX 34     oc23    O  -0.550
O16     18.321560628   11.251352898    6.681487406 XXXX 34     oc23    O  -0.550
O17     23.613478154   11.571829961   10.460732152 XXXX 34     oc23    O  -0.550
O18     21.328204753   12.097560043    2.346382266 XXXX 34     oc23    O  -0.550
O19     23.455417643   10.232746841    2.321270091 XXXX 34     oc23    O  -0.550
O20     17.743769540   10.642871795   10.221913810 XXXX 34     oc23    O  -0.550
O21     20.756020255   10.403437630    6.238336531 XXXX 34     oc23    O  -0.550
O22     17.566554338   12.998121836    4.898988976 XXXX 34     oc23    O  -0.550
O23     22.790570263   13.647436938    9.031500320 XXXX 34     oc23    O  -0.550
O24     20.425881763   14.024637177    0.948105595 XXXX 34     oc24    O  -0.675
Si1     25.056490087   10.430754096    2.261625779 XXXX 34     sc4     Si  1.100
Si2     19.328423961   10.899622899   10.236154462 XXXX 34     sc4     Si  1.100
Si3     22.239238941   11.016797007    6.069692802 XXXX 34     sc4     Si  1.100
Si4     17.947478319   12.822483202    6.462566524 XXXX 34     sc4     Si  1.100
Si5     23.129716293   13.101916515   10.519767993 XXXX 34     sc4     Si  1.100
Si6     20.874440838   13.579042456    2.421403970 XXXX 34     sc4     Si  1.100
Si7     20.288008161   13.507999085   11.586828585 XXXX 34     sc4     Si  1.100
Si8     18.013512382   13.274697548    3.431734584 XXXX 34     sc4     Si  1.100
Si9     23.364890795   13.549810193    7.545438385 XXXX 34     sc4     Si  1.100
Si10    19.461860421   10.217102720    7.263897589 XXXX 34     sc4     Si  1.100
Si11    24.898294334   10.610713398   10.887087944 XXXX 34     sc4     Si  1.100
Si12    22.041970084   10.799801034    3.031252863 XXXX 34     sc4     Si  1.100
H1      20.668596025   13.298981966    0.416915625 XXXX 34     hoy     H   0.400
H2      24.747373824   10.919518116    0.290176819 XXXX 34     hoy     H   0.400
O1      20.123806057    9.842864958   22.804396490 XXXX 35     oc23    O  -0.550
O2      25.367175559   10.159474084   15.099234460 XXXX 35     oc23    O  -0.550
O3      22.870751073    9.607681890   18.630560456 XXXX 35     oc23    O  -0.550
O4      18.401142792   13.674474082   19.238237983 XXXX 35     oc23    O  -0.550
O5      23.815385028   13.934744230   23.387802941 XXXX 35     oc23    O  -0.550
O6      21.451265341   13.997076694   14.958831436 XXXX 35     oc23    O  -0.550
O7      21.505020195   12.770568730   23.440890067 XXXX 35     oc23    O  -0.550
O8      18.981302610   13.298424360   15.630691523 XXXX 35     oc23    O  -0.550
O9      24.334618171   12.528032946   19.417083992 XXXX 35     oc23    O  -0.550
O10     19.439905417   10.721614698   20.458201772 XXXX 35     oc23    O  -0.550
O11     25.111712718   10.703114015   12.483666862 XXXX 35     oc23    O  -0.550
O12     22.295730464   10.881992372   16.563901544 XXXX 35     oc23    O  -0.550
O13     19.127318597   12.210413484   22.644605098 XXXX 35     oc23    O  -0.550
O14     16.726361282   12.545907490   14.505063335 XXXX 35     oc23    O  -0.550
O15     21.914271480   12.052718965   18.898195844 XXXX 35     oc23    O  -0.550
O16     17.921316881   11.194385705   18.441018515 XXXX 35     oc23    O  -0.550
O17     23.647813798   11.479741895   22.495443884 XXXX 35     oc23    O  -0.550
O18     20.704767385   11.480961983   14.760395812 XXXX 35     oc23    O  -0.550
O19     23.161915904   11.062962011   14.174582378 XXXX 35     oc23    O  -0.550
O20     17.650273326   10.134492918   22.359788076 XXXX 35     oc23    O  -0.550
O21     20.357510792   10.120381436   18.163621695 XXXX 35     oc23    O  -0.550
O22     16.853556706   13.229472271   17.142024787 XXXX 35     oc23    O  -0.550
O23     22.446583353   13.291770469   21.179872260 XXXX 35     oc23    O  -0.550
O24     19.815157175   13.154458164   13.075631254 XXXX 35     oc23    O  -0.550
Si1     24.710635639   11.170798035   14.003759313 XXXX 35     sc4     Si  1.100
Si2     19.107599070   10.700710183   22.022487666 XXXX 35     sc4     Si  1.100
Si3     21.841165038   10.677539939   18.067814606 XXXX 35     sc4     Si  1.100
Si4     17.328577536   12.627716707   18.555880222 XXXX 35     sc4     Si  1.100
Si5     22.867582822   12.889589064   22.651959547 XXXX 35     sc4     Si  1.100
Si6     20.261180456   13.008957254   14.592380230 XXXX 35     sc4     Si  1.100
Si7     20.013092300   13.263304525   23.436076101 XXXX 35     sc4     Si  1.100
Si8     17.418501761   13.513121377   15.640252705 XXXX 35     sc4     Si  1.100
Si9     22.836950431   13.081638138   19.607094179 XXXX 35     sc4     Si  1.100
Si10    19.002123964   10.175536669   19.057785990 XXXX 35     sc4     Si  1.100
Si11    23.988361973    9.957007019   23.072031878 XXXX 35     sc4     Si  1.100
Si12    21.926584500   10.548345630   15.149845860 XXXX 35     sc4     Si  1.100
O1      19.966911017   14.957217187   11.189622593 XXXX 36     oc23    O  -0.550
O2      25.305111257   13.949273138    3.192675892 XXXX 36     oc23    O  -0.550
O3      23.338397217   14.962966655    6.654509968 XXXX 36     oc23    O  -0.550
O4      18.878230045   18.737957479    7.672469502 XXXX 36     oc23    O  -0.550
O5      24.195541310   18.897360121   11.365994869 XXXX 36     oc23    O  -0.550
O6      21.342954124   19.838615733    2.573640663 XXXX 36     oc23    O  -0.550
O7      21.794916134   17.909030929   11.582749865 XXXX 36     oc23    O  -0.550
O8      19.493594639   18.018714218    3.832503977 XXXX 36     oc23    O  -0.550
O9      24.818913045   17.599215875    7.634293019 XXXX 36     oc23    O  -0.550
O10     20.112728118   15.519567552    8.614838214 XXXX 36     oc23    O  -0.550
O11     27.093609699   14.465109607    1.676240367 XXXX 36     oc23    O  -0.550
O12     22.840854560   16.442113768    4.290778446 XXXX 36     oc23    O  -0.550
O13     19.528596550   17.406227074   10.510073311 XXXX 36     oc23    O  -0.550
O14     16.842246071   16.864851834    3.720375780 XXXX 36     oc23    O  -0.550
O15     22.444749626   17.418630434    6.684883683 XXXX 36     oc23    O  -0.550
O16     18.412053667   16.250064694    6.845832239 XXXX 36     oc23    O  -0.550
O17     23.770772954   16.318947212   10.840420768 XXXX 36     oc23    O  -0.550
O18     21.224666795   17.189858278    2.056129855 XXXX 36     oc23    O  -0.550
O19     24.054262783   15.850218589    1.871553811 XXXX 36     oc23    O  -0.550
O20     17.824652416   15.601690358   10.035245106 XXXX 36     oc23    O  -0.550
O21     20.794826852   15.609564337    6.015317004 XXXX 36     oc23    O  -0.550
O22     17.511496782   18.192855520    5.709713850 XXXX 36     oc23    O  -0.550
O23     22.787065895   18.047946481    9.183335517 XXXX 36     oc23    O  -0.550
O24     18.751032633   19.139545973    1.715305771 XXXX 36     oc23    O  -0.550
Si1     25.624203632   15.275534435    2.398611854 XXXX 36     sc4     Si  1.100
Si2     19.352982379   15.858719745   10.062456168 XXXX 36     sc4     Si  1.100
Si3     22.312313561   16.047144899    5.822524241 XXXX 36     sc4     Si  1.100
Si4     17.861388612   17.681373985    7.104908691 XXXX 36     sc4     Si  1.100
Si5     23.173228528   17.803216616   10.740735208 XXXX 36     sc4     Si  1.100
Si6     20.272558712   18.532633851    2.444964957 XXXX 36     sc4     Si  1.100
Si7     20.291745225   18.409154745   11.605748707 XXXX 36     sc4     Si  1.100
Si8     17.870364328   18.082615663    4.200719822 XXXX 36     sc4     Si  1.100
Si9     23.393319531   18.239821108    7.694733099 XXXX 36     sc4     Si  1.100
Si10    19.587590056   15.273617600    7.069941684 XXXX 36     sc4     Si  1.100
Si11    24.981446498   15.423995746   11.223854354 XXXX 36     sc4     Si  1.100
Si12    22.542249411   16.134041103    2.704803304 XXXX 36     sc4     Si  1.100
O1      19.942485852   14.764471365   22.771503712 XXXX 37     oc23    O  -0.550
O2      25.205676313   15.092822407   15.346677492 XXXX 37     oc23    O  -0.550
O3      22.803949311   14.430546339   18.808069474 XXXX 37     oc23    O  -0.550
O4      18.208945523   18.739874315   19.018138516 XXXX 37     oc23    O  -0.550
O5      23.976283639   18.912273227   23.459542192 XXXX 37     oc23    O  -0.550
O6      21.369348258   18.959552404   15.011181323 XXXX 37     oc23    O  -0.550
O7      21.168509401   18.437375633   23.471108861 XXXX 37     oc23    O  -0.550
O8      18.876394329   18.287764844   15.611570155 XXXX 37     oc23    O  -0.550
O9      24.415166919   17.607508318   19.467628643 XXXX 37     oc23    O  -0.550
O10     19.344108095   15.812240115   20.542376438 XXXX 37     oc23    O  -0.550
O11     25.332471976   15.795934551   12.737194102 XXXX 37     oc23    O  -0.550
O12     22.165830193   15.949621990   16.614178199 XXXX 37     oc23    O  -0.550
O13     18.885204970   17.164876073   22.681979088 XXXX 37     oc23    O  -0.550
O14     16.845215435   17.518278891   14.408253005 XXXX 37     oc23    O  -0.550
O15     21.861986392   17.010805475   19.046020067 XXXX 37     oc23    O  -0.550
O16     17.948578157   16.224212334   18.304894461 XXXX 37     oc23    O  -0.550
O17     23.088107395   16.516466432   22.878409224 XXXX 37     oc23    O  -0.550
O18     20.564956635   16.444657781   14.713461636 XXXX 37     oc23    O  -0.550
O19     23.033417779   15.940632800   14.175250874 XXXX 37     oc23    O  -0.550
O20     17.430780970   15.149964047   22.182815050 XXXX 37     oc23    O  -0.550
O21     20.312266262   15.046203635   18.204673906 XXXX 37     oc23    O  -0.550
O22     16.718819533   18.056483980   16.985911616 XXXX 37     oc23    O  -0.550
O23     22.531605043   18.457445297   21.155334184 XXXX 37     oc23    O  -0.550
O24     19.632136497   18.245604843   13.032975052 XXXX 37     oc23    O  -0.550
Si1     24.640297688   16.097665875   14.188957526 XXXX 37     sc4     Si  1.100
Si2     18.948301490   15.717191648   22.032183344 XXXX 37     sc4     Si  1.100
Si3     21.788943594   15.595140304   18.203669668 XXXX 37     sc4     Si  1.100
Si4     17.184930279   17.661549377   18.449307463 XXXX 37     sc4     Si  1.100
Si5     22.700644049   18.143763344   22.817569143 XXXX 37     sc4     Si  1.100
Si6     20.097012162   17.959308927   14.579677816 XXXX 37     sc4     Si  1.100
Si7     19.512812973   18.539393656   23.104257156 XXXX 37     sc4     Si  1.100
Si8     17.337352377   18.508315167   15.569248699 XXXX 37     sc4     Si  1.100
Si9     22.869750677   18.040665413   19.613312882 XXXX 37     sc4     Si  1.100
Si10    18.981970866   15.201843214   19.106658903 XXXX 37     sc4     Si  1.100
Si11    24.207786708   15.491240750   23.434137363 XXXX 37     sc4     Si  1.100
Si12    21.804826614   15.543538382   15.080179842 XXXX 37     sc4     Si  1.100
O1      20.223008304   19.972480641   11.153518844 XXXX 38     oc23    O  -0.550
O2      26.159586302   19.039828984    3.010540207 XXXX 38     oc23    O  -0.550
O3      23.288311807   19.704439313    7.225989101 XXXX 38     oc23    O  -0.550
O4      18.980634354   23.678274320    7.169693993 XXXX 38     oc23    O  -0.550
O5      24.001810631   23.901123599   11.324676655 XXXX 38     oc23    O  -0.550
O6      21.580497355   24.606535738    2.478340675 XXXX 38     oc23    O  -0.550
O7      21.591541484   23.027007078   11.942515117 XXXX 38     oc23    O  -0.550
O8      19.755195096   23.097354739    3.377927157 XXXX 38     oc23    O  -0.550
O9      24.532921234   22.882484314    8.311368070 XXXX 38     oc23    O  -0.550
O10     19.837679003   20.901890499    8.728765421 XXXX 38     oc23    O  -0.550
O11     26.973319591   21.626255013    2.350119515 XXXX 38     oc23    O  -0.550
O12     22.783127957   20.403650291    4.864302917 XXXX 38     oc23    O  -0.550
O13     19.336633966   22.434135829   10.795558829 XXXX 38     oc23    O  -0.550
O14     17.872766869   21.781545700    2.410673170 XXXX 38     oc23    O  -0.550
O15     22.331299200   22.122406016    6.912021781 XXXX 38     oc23    O  -0.550
O16     18.527737580   21.146516527    6.561864535 XXXX 38     oc23    O  -0.550
O17     23.363490639   21.436714648   10.914500252 XXXX 38     oc23    O  -0.550
O18     22.173103447   22.180172755    3.105479048 XXXX 38     oc23    O  -0.550
O19     24.097508511   20.645208966    2.462822808 XXXX 38     oc23    O  -0.550
O20     17.793986215   20.516432084   10.256279071 XXXX 38     oc23    O  -0.550
O21     20.842575355   20.029690813    6.533783731 XXXX 38     oc23    O  -0.550
O22     17.564285051   23.049656059    4.943744314 XXXX 38     oc23    O  -0.550
O23     22.339674281   23.168780231    9.414932910 XXXX 38     oc23    O  -0.550
O24     20.755819381   22.753358538    0.953514458 XXXX 38     oc24    O  -0.675
Si1     25.701250002   20.597406449    2.883315315 XXXX 38     sc4     Si  1.100
Si2     19.327523008   20.913005239   10.235017720 XXXX 38     sc4     Si  1.100
Si3     22.255921482   20.610855450    6.349535459 XXXX 38     sc4     Si  1.100
Si4     17.930394029   22.632388140    6.509287000 XXXX 38     sc4     Si  1.100
Si5     22.847195039   22.937567899   10.940842569 XXXX 38     sc4     Si  1.100
Si6     21.064000881   23.154216018    2.494974860 XXXX 38     sc4     Si  1.100
Si7     20.074689220   23.351596096   11.920183775 XXXX 38     sc4     Si  1.100
Si8     18.164399081   23.066623066    3.346015454 XXXX 38     sc4     Si  1.100
Si9     23.009493806   23.191252689    7.981488858 XXXX 38     sc4     Si  1.100
Si10    19.470336933   20.233236747    7.329686631 XXXX 38     sc4     Si  1.100
Si11    24.582571084   20.475424676   11.355765192 XXXX 38     sc4     Si  1.100
Si12    22.611620777   20.692768505    3.251277111 XXXX 38     sc4     Si  1.100
H2      21.263439582   23.344418865    0.488550362 XXXX 38     hoy     H   0.400
O1      19.594562992   19.449188658   21.876803426 XXXX 39     oc23    O  -0.550
O2      25.122424707   20.141880733   15.265912054 XXXX 39     oc23    O  -0.550
O3      22.745089059   19.344277729   18.728842274 XXXX 39     oc23    O  -0.550
O4      18.460303361   23.698134233   18.741277688 XXXX 39     oc23    O  -0.550
O5      23.818087886   24.089480220   23.052509014 XXXX 39     oc23    O  -0.550
O6      21.285328953   23.904224180   15.351624958 XXXX 39     oc23    O  -0.550
O7      22.002029838   22.284838628   22.827197075 XXXX 39     oc23    O  -0.550
O8      18.777327324   23.170975350   15.799174355 XXXX 39     oc23    O  -0.550
O9      24.401352312   22.712315826   18.295198783 XXXX 39     oc23    O  -0.550
O10     19.147907255   20.845621092   20.020814306 XXXX 39     oc23    O  -0.550
O11     25.026024760   20.888858924   12.790412735 XXXX 39     oc23    O  -0.550
O12     22.284718157   20.699806593   16.698353861 XXXX 39     oc23    O  -0.550
O13     19.321184518   22.028121791   22.415883930 XXXX 39     oc23    O  -0.550
O14     16.579743666   22.542182643   14.524652949 XXXX 39     oc23    O  -0.550
O15     22.096892398   21.688902104   19.042276092 XXXX 39     oc23    O  -0.550
O16     17.904399655   21.264002147   17.983572194 XXXX 39     oc23    O  -0.550
O17     24.525413295   21.542007697   23.451988490 XXXX 39     oc23    O  -0.550
O18     20.493952416   21.446714175   15.016798281 XXXX 39     oc23    O  -0.550
O19     22.905587909   20.902692123   14.206942153 XXXX 39     oc23    O  -0.550
O20     17.323772455   20.346020617   21.885963112 XXXX 39     oc23    O  -0.550
O21     20.211596237   19.965058354   18.081987512 XXXX 39     oc23    O  -0.550
O22     16.601599227   23.244143231   17.027764826 XXXX 39     oc23    O  -0.550
O23     23.911983860   22.561519216   20.819773258 XXXX 39     oc23    O  -0.550
O24     19.596231644   23.332398665   13.400429499 XXXX 39     oc23    O  -0.550
Si1     24.459711371   21.115192981   14.244316143 XXXX 39     sc4     Si  1.100
Si2     18.843695515   20.729317140   21.500124535 XXXX 39     sc4     Si  1.100
Si3     21.761316368   20.443683705   18.109066071 XXXX 39     sc4     Si  1.100
Si4     17.310425229   22.676462900   18.329697544 XXXX 39     sc4     Si  1.100
Si5     23.622455859   22.640088711   22.549332009 XXXX 39     sc4     Si  1.100
Si6     20.065246122   22.950285886   14.849049698 XXXX 39     sc4     Si  1.100
Si7     20.548039409   23.020596166   22.841704726 XXXX 39     sc4     Si  1.100
Si8     17.250029579   23.500615013   15.596526511 XXXX 39     sc4     Si  1.100
Si9     23.214670362   22.797364765   19.377970519 XXXX 39     sc4     Si  1.100
Si10    18.812295425   20.172541797   18.693875267 XXXX 39     sc4     Si  1.100
Si11    25.211481790   20.053278483   23.272606488 XXXX 39     sc4     Si  1.100
Si12    21.757611125   20.506258110   15.215634404 XXXX 39     sc4     Si  1.100
O1      20.063478028   24.840707432   11.395947661 XXXX 40     oc23    O  -0.550
O2      25.048282070   23.867885295    3.467985282 XXXX 40     oc23    O  -0.550
O3      22.971789036   24.672073658    7.389658465 XXXX 40     oc23    O  -0.550
O4      18.957945462   28.690714439    7.864085673 XXXX 40     oc23    O  -0.550
O5      24.530819011   28.905898453   10.968722127 XXXX 40     oc23    O  -0.550
O6      21.019156111   29.098610008    2.141113491 XXXX 40     oc23    O  -0.550
O7      22.115778593   28.252784984   10.119687768 XXXX 40     oc23    O  -0.550
O8      19.262389898   28.509362679    3.916979516 XXXX 40     oc23    O  -0.550
O9      25.186223293   27.653573433    5.965741722 XXXX 40     oc23    O  -0.550
O10     20.002048171   25.323758326    8.864219983 XXXX 40     oc23    O  -0.550
O11     25.099700016   24.833843789    1.036438932 XXXX 40     oc24    O  -0.675
O12     22.470809632   25.112337375    4.815523155 XXXX 40     oc23    O  -0.550
O13     19.751390411   27.277593282   10.735452997 XXXX 40     oc23    O  -0.550
O14     17.446797243   26.771442752    4.019386630 XXXX 40     oc23    O  -0.550
O15     22.741519059   27.190174776    6.527820072 XXXX 40     oc23    O  -0.550
O16     18.273277123   26.260798146    7.085319077 XXXX 40     oc23    O  -0.550
O17     23.977051338   26.420236092   10.119486522 XXXX 40     oc23    O  -0.550
O18     21.243185052   26.937046554    3.480601519 XXXX 40     oc23    O  -0.550
O19     23.672672534   25.996906154    2.885735498 XXXX 40     oc23    O  -0.550
O20     17.885813777   25.455949378   10.201388701 XXXX 40     oc23    O  -0.550
O21     20.767597398   25.541590190    6.434057823 XXXX 40     oc23    O  -0.550
O22     17.626214111   28.401664759    5.989589882 XXXX 40     oc23    O  -0.550
O23     24.137082807   28.385499375    8.353288528 XXXX 40     oc23    O  -0.550
Si1     25.013546665   25.239301259    2.602269415 XXXX 40     sc4     Si  1.100
Si2     19.421253907   25.722071793   10.324876094 XXXX 40     sc4     Si  1.100
Si3     22.245577432   25.631552708    6.312683015 XXXX 40     sc4     Si  1.100
Si4     17.800893519   27.782209097    7.354958956 XXXX 40     sc4     Si  1.100
Si5     23.700435003   27.982585918    9.896580569 XXXX 40     sc4     Si  1.100
Si6     20.146928520   27.898025014    2.718228510 XXXX 40     sc4     Si  1.100
Si7     20.830262335   28.340830666   11.195706800 XXXX 40     sc4     Si  1.100
Si8     17.812104711   28.257592649    4.460170870 XXXX 40     sc4     Si  1.100
Si9     23.905444495   28.213378747    6.762593567 XXXX 40     sc4     Si  1.100
Si10    19.494294717   25.221077822    7.356028449 XXXX 40     sc4     Si  1.100
Si11    24.641230462   25.428388895   11.187617106 XXXX 40     sc4     Si  1.100
Si12    22.209909253   25.669320393    3.379832519 XXXX 40     sc4     Si  1.100
H1      25.931519979   24.434660166    0.964231871 XXXX 40     hoy     H   0.400
O1      20.381303500   24.365463021   21.881750892 XXXX 41     oc23    O  -0.550
O2      25.583062116   25.101222636   14.458329409 XXXX 41     oc23    O  -0.550
O3      22.707384289   24.393546844   19.188894831 XXXX 41     oc23    O  -0.550
O4      18.190860837   28.535666732   18.951950469 XXXX 41     oc23    O  -0.550
O5      23.684518172   29.073732679   23.303227775 XXXX 41     oc23    O  -0.550
O6      21.703388890   28.951123729   15.233820276 XXXX 41     oc23    O  -0.550
O7      21.378791356   27.371073806   23.750643672 XXXX 41     oc23    O  -0.550
O8      19.211737663   28.497271870   14.101105636 XXXX 41     oc23    O  -0.550
O9      24.123166768   28.123661285   18.984042247 XXXX 41     oc23    O  -0.550
O10     19.362793415   25.880080939   19.877804049 XXXX 41     oc23    O  -0.550
O11     24.497016381   26.274282451   12.512749912 XXXX 41     oc23    O  -0.550
O12     22.501139716   25.674651397   16.844706596 XXXX 41     oc23    O  -0.550
O13     19.820727966   27.063383262   21.928954060 XXXX 41     oc23    O  -0.550
O14     16.713246753   27.435984548   14.259292040 XXXX 41     oc23    O  -0.550
O15     21.903762354   26.922064916   19.062265210 XXXX 41     oc23    O  -0.550
O16     18.020318254   26.145819157   17.714534061 XXXX 41     oc23    O  -0.550
O17     23.926965927   26.644094670   23.806002288 XXXX 41     oc23    O  -0.550
O18     20.888788459   26.466888093   14.747358652 XXXX 41     oc23    O  -0.550
O19     23.053739929   25.388598460   14.360984083 XXXX 41     oc23    O  -0.550
O20     17.946243238   25.448074361   21.875199435 XXXX 41     oc23    O  -0.550
O21     20.476500188   25.117562465   17.942320730 XXXX 41     oc23    O  -0.550
O22     18.133434552   28.272017720   16.427108995 XXXX 41     oc23    O  -0.550
O23     22.959643081   27.309263643   21.432396258 XXXX 41     oc23    O  -0.550
O24     21.390903501   28.058993521   12.728569412 XXXX 41     oc23    O  -0.550
Si1     24.429647794   26.074638721   14.053435218 XXXX 41     sc4     Si  1.100
Si2     19.402534776   25.668554074   21.375031158 XXXX 41     sc4     Si  1.100
Si3     21.948807999   25.484415322   18.292925300 XXXX 41     sc4     Si  1.100
Si4     17.569356639   27.697577583   17.753043796 XXXX 41     sc4     Si  1.100
Si5     22.905154338   27.592458980   23.067351412 XXXX 41     sc4     Si  1.100
Si6     20.819116775   28.022654637   14.210351381 XXXX 41     sc4     Si  1.100
Si7     19.760567001   27.628451048   23.382656221 XXXX 41     sc4     Si  1.100
Si8     17.819079636   28.501138769   14.878267244 XXXX 41     sc4     Si  1.100
Si9     22.768380575   27.960809170   19.900937388 XXXX 41     sc4     Si  1.100
Si10    19.049705403   25.170801901   18.498784115 XXXX 41     sc4     Si  1.100
Si11    24.771598114   25.247454560   23.716411910 XXXX 41     sc4     Si  1.100
Si12    21.893985128   25.367380356   15.365999110 XXXX 41     sc4     Si  1.100
O1      20.165582019   29.798759675   11.273062013 XXXX 42     oc23    O  -0.550
O2      26.006863886   28.753116474    2.039622445 XXXX 42     oc23    O  -0.550
O3      23.480709950   29.599184477    6.125954535 XXXX 42     oc23    O  -0.550
O4      18.739889061   33.478319911    7.272923775 XXXX 42     oc23    O  -0.550
O5      24.262410693   34.015060895   11.105714927 XXXX 42     oc23    O  -0.550
O6      21.276418869   34.112582765    3.259333680 XXXX 42     oc23    O  -0.550
O7      21.757879621   33.315189512   10.492957430 XXXX 42     oc23    O  -0.550
O8      19.451249863   32.371040994    3.107270836 XXXX 42     oc23    O  -0.550
O9      24.914644736   33.084953251    6.312783639 XXXX 42     oc23    O  -0.550
O10     19.894136715   30.840571282    8.887821568 XXXX 42     oc23    O  -0.550
O11     24.981480308   30.657720112    0.645173560 XXXX 42     oc24    O  -0.675
O12     21.721942946   30.524135564    4.391700872 XXXX 42     oc23    O  -0.550
O13     19.486319396   32.286826906   10.969858869 XXXX 42     oc23    O  -0.550
O14     16.881219732   31.852278392    2.893497919 XXXX 42     oc23    O  -0.550
O15     22.441780261   32.074290743    6.492258293 XXXX 42     oc23    O  -0.550
O16     18.672220157   31.038682374    6.575871064 XXXX 42     oc23    O  -0.550
O17     23.537400358   31.485845038   10.911090028 XXXX 42     oc23    O  -0.550
O18     21.771258669   31.698763322    2.137937638 XXXX 42     oc23    O  -0.550
O19     23.623490065   29.770538787    2.606668684 XXXX 42     oc23    O  -0.550
O20     17.877838456   30.387832557   10.137137398 XXXX 42     oc23    O  -0.550
O21     21.015685554   29.923842028    6.893769657 XXXX 42     oc23    O  -0.550
O22     17.782174387   33.108262637    4.969110289 XXXX 42     oc23    O  -0.550
O23     23.877316077   32.870639393    8.749223781 XXXX 42     oc23    O  -0.550
O24     20.194611390   33.432920188    0.941279355 XXXX 42     oc24    O  -0.675
Si1     25.141010585   30.101571945    2.099373855 XXXX 42     sc4     Si  1.100
Si2     19.362425477   30.848444222   10.368801541 XXXX 42     sc4     Si  1.100
Si3     22.160390667   30.564411957    5.964217432 XXXX 42     sc4     Si  1.100
Si4     17.867896155   32.440794706    6.463241495 XXXX 42     sc4     Si  1.100
Si5     23.364491034   32.959102502   10.298199031 XXXX 42     sc4     Si  1.100
Si6     20.756085888   32.885132997    2.389499241 XXXX 42     sc4     Si  1.100
Si7     20.548407348   33.295501969   11.513952592 XXXX 42     sc4     Si  1.100
Si8     17.925988708   32.961646514    3.330778534 XXXX 42     sc4     Si  1.100
Si9     23.565496955   33.185889289    7.156790332 XXXX 42     sc4     Si  1.100
Si10    19.596466329   30.128644393    7.548447113 XXXX 42     sc4     Si  1.100
Si11    24.580735369   30.430167005   11.588098827 XXXX 42     sc4     Si  1.100
Si12    22.032827304   30.248954387    2.762000781 XXXX 42     sc4     Si  1.100
H1      20.378767706   32.708833958    0.305532201 XXXX 42     hoy     H   0.400
H2      24.115459943   30.490581595    0.324597529 XXXX 42     hoy     H   0.400
O1      19.465965423   29.208222688   23.338194782 XXXX 43     oc23    O  -0.550
O2      25.461437484   29.996627788   15.388530702 XXXX 43     oc23    O  -0.550
O3      22.014941504   29.407206013   19.909895828 XXXX 43     oc23    O  -0.550
O4      18.488930983   33.603263123   19.265782795 XXXX 43     oc23    O  -0.550
O5      24.778471607   34.237804260   23.781733205 XXXX 43     oc23    O  -0.550
O6      21.454234706   33.801756336   15.353228949 XXXX 43     oc23    O  -0.550
O7      22.260593310   33.011332639   23.751713664 XXXX 43     oc23    O  -0.550
O8      19.022378494   33.408042859   14.969529359 XXXX 43     oc23    O  -0.550
O9      24.467652881   32.316233616   19.043278338 XXXX 43     oc23    O  -0.550
O10     18.988376978   29.856632329   21.013126919 XXXX 43     oc23    O  -0.550
O11     24.299681891   30.337103906   13.069547046 XXXX 43     oc23    O  -0.550
O12     22.144408204   30.381074829   17.495438833 XXXX 43     oc23    O  -0.550
O13     20.088702714   31.688101313   22.529275146 XXXX 43     oc23    O  -0.550
O14     16.606337681   32.548874748   14.462140134 XXXX 43     oc23    O  -0.550
O15     21.960552205   32.052445462   19.686522625 XXXX 43     oc23    O  -0.550
O16     17.553073858   31.144531992   19.157404799 XXXX 43     oc23    O  -0.550
O17     24.642666417   31.434312687   23.783203696 XXXX 43     oc23    O  -0.550
O18     20.688450794   31.421839756   15.431720904 XXXX 43     oc23    O  -0.550
O19     23.086438744   31.172057170   15.204067735 XXXX 43     oc23    O  -0.550
O20     17.501620114   30.852313198   22.961647399 XXXX 43     oc23    O  -0.550
O21     19.992704516   30.378252532   18.822579118 XXXX 43     oc23    O  -0.550
O22     17.216563065   32.653922742   17.012788929 XXXX 43     oc23    O  -0.550
O23     23.899704651   32.785972575   21.572931786 XXXX 43     oc23    O  -0.550
O24     20.959595781   32.925899502   13.088468164 XXXX 43     oc23    O  -0.550
Si1     24.499486542   30.998439209   14.512417784 XXXX 43     sc4     Si  1.100
Si2     18.989578248   30.442222510   22.437479031 XXXX 43     sc4     Si  1.100
Si3     21.501716702   30.633644406   18.993869433 XXXX 43     sc4     Si  1.100
Si4     17.328877853   32.635352488   18.689129047 XXXX 43     sc4     Si  1.100
Si5     23.886960049   32.896596630   23.214105643 XXXX 43     sc4     Si  1.100
Si6     20.454177246   32.771339830   14.665590969 XXXX 43     sc4     Si  1.100
Si7     20.646241261   32.947466499   23.484682014 XXXX 43     sc4     Si  1.100
Si8     17.469822252   33.378008973   15.524453510 XXXX 43     sc4     Si  1.100
Si9     23.314439434   32.914680925   19.975818868 XXXX 43     sc4     Si  1.100
Si10    18.602480852   29.984782035   19.530208208 XXXX 43     sc4     Si  1.100
Si11    25.103805019   29.957047105   23.296273826 XXXX 43     sc4     Si  1.100
Si12    21.923615135   30.432326820   15.889299728 XXXX 43     sc4     Si  1.100
O1      28.681635235    0.104239248   11.005227372 XXXX 44     oc23    O  -0.550
O3      31.237620051   -0.092261475    7.375484563 XXXX 44     oc23    O  -0.550
O4      27.011058171    3.923174370    7.292580139 XXXX 44     oc23    O  -0.550
O5      32.754905886    4.008362970   11.038054395 XXXX 44     oc23    O  -0.550
O6      29.798412804    4.037421306    2.986664898 XXXX 44     oc23    O  -0.550
O7      30.374368176    3.193903545   11.478650839 XXXX 44     oc23    O  -0.550
O8      27.405995645    3.190760651    3.392569055 XXXX 44     oc23    O  -0.550
O9      33.499154148    3.065162227    7.207268731 XXXX 44     oc23    O  -0.550
O10     28.203746472    1.078690899    8.598123829 XXXX 44     oc23    O  -0.550
O12     31.221468536    0.542336644    4.836443284 XXXX 44     oc23    O  -0.550
O13     27.874608375    2.556127617   10.945388539 XXXX 44     oc23    O  -0.550
O14     25.524502181    1.398408068    3.342558903 XXXX 44     oc23    O  -0.550
O15     31.056098972    2.447427408    6.583720658 XXXX 44     oc23    O  -0.550
O16     26.543779965    1.479440064    6.620552678 XXXX 44     oc23    O  -0.550
O17     32.147150663    1.370471694   10.868301322 XXXX 44     oc23    O  -0.550
O18     29.332902693    1.254719637    3.081182816 XXXX 44     oc23    O  -0.550
O19     31.861524801    0.535371728    2.381128599 XXXX 44     oc23    O  -0.550
O20     26.223917902    0.638594620   10.298265781 XXXX 44     oc23    O  -0.550
O21     29.106103272    0.834455429    6.236310621 XXXX 44     oc23    O  -0.550
O22     25.584430450    3.363587373    5.051332768 XXXX 44     oc23    O  -0.550
O23     31.427880173    2.881642345    9.070746297 XXXX 44     oc23    O  -0.550
O24     28.654574833    2.797955491    1.008064229 XXXX 44     oc24    O  -0.675
Si1     33.476207645    0.685014609    2.248421246 XXXX 44     sc4     Si  1.100
Si2     27.725823898    1.140831588   10.186946803 XXXX 44     sc4     Si  1.100
Si3     30.649616177    0.937082587    6.294564391 XXXX 44     sc4     Si  1.100
Si4     25.912200213    2.924853439    6.587605106 XXXX 44     sc4     Si  1.100
Si5     31.683374836    2.914637930   10.599797188 XXXX 44     sc4     Si  1.100
Si6     28.793116691    2.774106151    2.619772844 XXXX 44     sc4     Si  1.100
Si7     28.859618136    3.683809776   11.531068473 XXXX 44     sc4     Si  1.100
Si8     25.790708834    2.937933298    3.562182153 XXXX 44     sc4     Si  1.100
Si9     31.891321871    3.313620628    7.639106985 XXXX 44     sc4     Si  1.100
Si10    27.796394546    0.640549291    7.084383083 XXXX 44     sc4     Si  1.100
Si11    33.289186728    0.286669861   11.180796656 XXXX 44     sc4     Si  1.100
Si12    30.682084284    0.218681982    3.355549488 XXXX 44     sc4     Si  1.100
H       29.255255688    3.466685044    0.680946112 XXXX 44     hoy     H   0.400
O1      28.342954597   -0.300478009   22.434002056 XXXX 45     oc23    O  -0.550
O3      31.178624557   -0.247134736   18.443023006 XXXX 45     oc23    O  -0.550
O4      26.616653711    3.831365625   19.336318555 XXXX 45     oc23    O  -0.550
O5      31.687179521    4.615519629   23.327765851 XXXX 45     oc23    O  -0.550
O6      29.677720946    4.326156879   15.552934814 XXXX 45     oc23    O  -0.550
O7      29.303771890    3.174998157   23.767960799 XXXX 45     oc23    O  -0.550
O8      27.203020755    3.363395793   15.448235039 XXXX 45     oc23    O  -0.550
O9      32.620568473    2.567357097   19.565509961 XXXX 45     oc23    O  -0.550
O10     27.800567170    0.759064328   20.073566686 XXXX 45     oc23    O  -0.550
O12     30.773643350    1.113477092   16.397891449 XXXX 45     oc23    O  -0.550
O13     27.757522316    2.246901320   22.122642467 XXXX 45     oc23    O  -0.550
O14     24.725617706    2.646761963   14.753709859 XXXX 45     oc23    O  -0.550
O15     30.287212442    2.236518374   18.757658324 XXXX 45     oc23    O  -0.550
O16     26.162521856    1.466391745   18.283566360 XXXX 45     oc23    O  -0.550
O17     31.753981283    2.130274694   23.688064107 XXXX 45     oc23    O  -0.550
O18     29.262530930    1.912839749   14.461471638 XXXX 45     oc23    O  -0.550
O19     31.724116592    1.099937493   13.997206860 XXXX 45     oc23    O  -0.550
O20     25.981303083    0.669328759   22.077045283 XXXX 45     oc23    O  -0.550
O21     28.692313413    0.382746349   17.756052525 XXXX 45     oc23    O  -0.550
O22     25.200171154    3.677364078   17.154527948 XXXX 45     oc23    O  -0.550
O23     30.739309694    2.836267802   21.479264680 XXXX 45     oc23    O  -0.550
O24     28.465313118    4.009443137   13.065000080 XXXX 45     oc23    O  -0.550
Si1     33.265495452    1.106815413   14.063998646 XXXX 45     sc4     Si  1.100
Si2     27.461019390    0.779063642   21.608032293 XXXX 45     sc4     Si  1.100
Si3     30.233690284    0.908372756   17.843369420 XXXX 45     sc4     Si  1.100
Si4     25.527037975    2.931504734   18.585766263 XXXX 45     sc4     Si  1.100
Si5     30.824663524    3.203140129   23.049233286 XXXX 45     sc4     Si  1.100
Si6     28.629914983    3.418007179   14.592714976 XXXX 45     sc4     Si  1.100
Si7     27.660121974    2.976227957   23.419695465 XXXX 45     sc4     Si  1.100
Si8     25.625239827    3.679140993   15.596861257 XXXX 45     sc4     Si  1.100
Si9     31.180259398    3.079976947   19.875598312 XXXX 45     sc4     Si  1.100
Si10    27.319573799    0.385634744   18.624610745 XXXX 45     sc4     Si  1.100
Si11    32.592672751    0.764980520   23.681112150 XXXX 45     sc4     Si  1.100
Si12    30.404431753    0.916929919   14.899460849 XXXX 45     sc4     Si  1.100
O1      28.571088541    4.945438613   10.585222787 XXXX 46     oc23    O  -0.550
O3      31.528283690    4.845895032    7.533136470 XXXX 46     oc23    O  -0.550
O4      27.222708460    8.930840571    6.955279231 XXXX 46     oc23    O  -0.550
O5      31.891021554    9.075226270   11.372079077 XXXX 46     oc23    O  -0.550
O6      29.486325186    9.216928814    2.839549768 XXXX 46     oc23    O  -0.550
O7      29.885968299    7.981117551   10.291513078 XXXX 46     oc23    O  -0.550
O8      27.915083624    7.169961189    2.300938506 XXXX 46     oc23    O  -0.550
O9      33.153580424    8.038502169    6.757712851 XXXX 46     oc23    O  -0.550
O10     27.038285637    5.991116600    8.777504835 XXXX 46     oc23    O  -0.550
O12     30.044663255    4.929202102    5.606738614 XXXX 46     oc23    O  -0.550
O13     27.548240757    7.299294639   10.903401829 XXXX 46     oc23    O  -0.550
O14     25.312653007    6.372392970    2.900497945 XXXX 46     oc23    O  -0.550
O15     30.766970731    7.210029388    6.683105345 XXXX 46     oc23    O  -0.550
O16     27.053868339    6.398733366    6.252784905 XXXX 46     oc23    O  -0.550
O17     32.032532777    6.495803024   10.434323085 XXXX 46     oc23    O  -0.550
O18     29.483755582    6.772343951    3.865070726 XXXX 46     oc23    O  -0.550
O19     31.502490191    5.475873042    3.974798665 XXXX 46     oc23    O  -0.550
O20     26.089447236    5.262953719   10.792349850 XXXX 46     oc23    O  -0.550
O21     29.142873279    5.482527972    7.676414225 XXXX 46     oc23    O  -0.550
O22     26.520122500    8.183898204    4.474705919 XXXX 46     oc23    O  -0.550
O23     31.734426831    8.635938104    8.679958262 XXXX 46     oc23    O  -0.550
O24     30.891431475    6.833248133    2.036928039 XXXX 46     oc23    O  -0.550
Si1     32.303476889    6.149055656    2.871862469 XXXX 46     sc4     Si  1.100
Si2     27.333221343    5.892548570   10.245247398 XXXX 46     sc4     Si  1.100
Si3     30.425453982    5.682765132    6.890293180 XXXX 46     sc4     Si  1.100
Si4     26.404337154    7.845825919    6.050364210 XXXX 46     sc4     Si  1.100
Si5     31.462148196    8.041638054   10.197778226 XXXX 46     sc4     Si  1.100
Si6     29.477950105    7.623011425    2.539462451 XXXX 46     sc4     Si  1.100
Si7     28.697050873    8.239018133   11.319662439 XXXX 46     sc4     Si  1.100
Si8     26.376875003    7.673044366    2.904328844 XXXX 46     sc4     Si  1.100
Si9     31.686578886    8.423611172    7.099693727 XXXX 46     sc4     Si  1.100
Si10    27.575535844    5.413053062    7.436459141 XXXX 46     sc4     Si  1.100
Si11    32.884639092    5.535557656   11.470227395 XXXX 46     sc4     Si  1.100
Si12    30.077131362    5.226369779    4.159535108 XXXX 46     sc4     Si  1.100
O1      26.994407452    4.408349255   23.210895668 XXXX 47     oc23    O  -0.550
O3      31.136749152    4.679245589   19.405852069 XXXX 47     oc23    O  -0.550
O4      26.382348340    8.939029177   19.471304871 XXXX 47     oc23    O  -0.550
O5      33.215344409    9.684577529   24.107066446 XXXX 47     oc23    O  -0.550
O6      29.778192084    9.239227863   14.883014460 XXXX 47     oc23    O  -0.550
O7      30.649049352    8.498591014   24.051574330 XXXX 47     oc23    O  -0.550
O8      27.285506651    8.581270906   14.312511670 XXXX 47     oc23    O  -0.550
O9      32.884372585    7.571062167   19.394952900 XXXX 47     oc23    O  -0.550
O10     26.744151441    5.931850450   21.198526378 XXXX 47     oc23    O  -0.550
O12     29.746125727    6.102820043   17.638582589 XXXX 47     oc23    O  -0.550
O13     28.426474700    6.794085394   23.236702989 XXXX 47     oc23    O  -0.550
O14     24.982747211    7.658201870   14.954953961 XXXX 47     oc23    O  -0.550
O15     30.507138369    7.198287472   20.066680483 XXXX 47     oc23    O  -0.550
O16     26.663035868    6.359327129   18.563501671 XXXX 47     oc23    O  -0.550
O17     32.885140284    6.904674144   24.078116896 XXXX 47     oc23    O  -0.550
O18     28.969930144    6.727606709   15.111201628 XXXX 47     oc23    O  -0.550
O19     31.480702252    6.238216031   15.595992512 XXXX 47     oc23    O  -0.550
O20     25.655068719    6.422321555   23.543248612 XXXX 47     oc23    O  -0.550
O21     28.726448183    5.277901092   19.783535198 XXXX 47     oc23    O  -0.550
O22     26.696870320    8.447268933   16.827056716 XXXX 47     oc23    O  -0.550
O23     32.352627537    8.456954872   21.878875663 XXXX 47     oc23    O  -0.550
O24     29.147346220    7.845860704   12.728702912 XXXX 47     oc23    O  -0.550
Si1     32.671521026    6.137383310   14.498712128 XXXX 47     sc4     Si  1.100
Si2     27.061109771    5.937076579   22.787882355 XXXX 47     sc4     Si  1.100
Si3     30.038157700    5.851435248   19.208284195 XXXX 47     sc4     Si  1.100
Si4     26.183943846    7.854048791   18.201730931 XXXX 47     sc4     Si  1.100
Si5     32.261199735    8.401137676   23.547729825 XXXX 47     sc4     Si  1.100
Si6     28.786875655    8.111217839   14.251269096 XXXX 47     sc4     Si  1.100
Si7     29.000395470    8.221283249   23.906758835 XXXX 47     sc4     Si  1.100
Si8     26.110803593    8.757641074   15.322875658 XXXX 47     sc4     Si  1.100
Si9     31.773567557    8.267379201   20.292594168 XXXX 47     sc4     Si  1.100
Si10    27.140823199    5.339397146   19.756456639 XXXX 47     sc4     Si  1.100
Si11    33.176770508    5.397548603   23.441290566 XXXX 47     sc4     Si  1.100
Si12    29.977028161    5.825408441   15.992730258 XXXX 47     sc4     Si  1.100
O1      28.356001506    9.894849002   11.323806913 XXXX 48     oc23    O  -0.550
O3      31.449403594    9.849763905    6.368924325 XXXX 48     oc23    O  -0.550
O4      27.440530175   13.692626910    7.487672785 XXXX 48     oc23    O  -0.550
O5      32.971627762   13.920947374   10.986306254 XXXX 48     oc23    O  -0.550
O6      29.945029425   14.397793993    2.620534989 XXXX 48     oc23    O  -0.550
O7      30.572705050   13.477722219   11.513082851 XXXX 48     oc23    O  -0.550
O8      27.685048331   13.204142212    3.648636778 XXXX 48     oc23    O  -0.550
O9      33.228558381   12.786874293    6.964572915 XXXX 48     oc23    O  -0.550
O10     28.335313405   10.543328214    8.720742477 XXXX 48     oc23    O  -0.550
O12     30.589254337   11.228740260    4.203574628 XXXX 48     oc23    O  -0.550
O13     28.378423891   12.430511076   10.564362932 XXXX 48     oc23    O  -0.550
O14     25.695744843   11.285602577    3.480848843 XXXX 48     oc23    O  -0.550
O15     30.735538820   12.374031918    6.623802006 XXXX 48     oc23    O  -0.550
O16     26.594364579   11.253756731    7.004821635 XXXX 48     oc23    O  -0.550
O17     32.112148751   11.583536573   10.577733842 XXXX 48     oc23    O  -0.550
O18     29.037533416   12.043973791    2.041394183 XXXX 48     oc23    O  -0.550
O19     31.515704163   10.929448073    1.798270345 XXXX 48     oc23    O  -0.550
O20     26.286749904   11.035192815   10.170767414 XXXX 48     oc23    O  -0.550
O21     28.895121240   10.600712833    6.112850127 XXXX 48     oc23    O  -0.550
O22     25.801118516   13.086376232    5.468528874 XXXX 48     oc23    O  -0.550
O23     31.374192940   13.442287757    8.891432042 XXXX 48     oc23    O  -0.550
Si1     33.203031389   11.008225242    1.961805960 XXXX 48     sc4     Si  1.100
Si2     27.830797811   10.992023516   10.206336167 XXXX 48     sc4     Si  1.100
Si3     30.433661999   11.016936149    5.800607844 XXXX 48     sc4     Si  1.100
Si4     26.223251635   12.765795331    6.971659866 XXXX 48     sc4     Si  1.100
Si5     31.731491277   13.148603820   10.444418267 XXXX 48     sc4     Si  1.100
Si6     28.472053358   13.611375299    2.353081419 XXXX 48     sc4     Si  1.100
Si7     28.980174751   13.417654446   11.715128948 XXXX 48     sc4     Si  1.100
Si8     26.158418842   12.793006921    3.966608597 XXXX 48     sc4     Si  1.100
Si9     31.785679702   13.380199311    7.321663188 XXXX 48     sc4     Si  1.100
Si10    27.798864707   10.378839624    7.215425175 XXXX 48     sc4     Si  1.100
Si11    32.539586154   10.510542640   11.648939905 XXXX 48     sc4     Si  1.100
Si12    30.077298426   10.825583823    2.681095368 XXXX 48     sc4     Si  1.100
O1      28.207382104    9.450509673   23.105193648 XXXX 49     oc23    O  -0.550
O3      31.350734360    9.668236660   19.533216937 XXXX 49     oc23    O  -0.550
O4      26.288551809   14.220448275   19.465622159 XXXX 49     oc23    O  -0.550
O5      31.543699328   14.594199040   22.939384799 XXXX 49     oc23    O  -0.550
O6      29.841089718   14.105887750   15.266647300 XXXX 49     oc23    O  -0.550
O7      29.886668377   12.583571338   23.697291539 XXXX 49     oc23    O  -0.550
O8      27.378601115   13.799487903   15.357976165 XXXX 49     oc23    O  -0.550
O9      32.925313227   12.414936526   19.501057412 XXXX 49     oc23    O  -0.550
O10     26.742383346   10.711859189   21.424507809 XXXX 49     oc23    O  -0.550
O12     29.735214852   10.162575703   17.406784946 XXXX 49     oc23    O  -0.550
O13     27.332119516   11.963035769   23.726976334 XXXX 49     oc23    O  -0.550
O14     25.235006002   12.676564866   14.367870286 XXXX 49     oc23    O  -0.550
O15     30.326953802   12.021395419   19.151120342 XXXX 49     oc23    O  -0.550
O16     26.683421662   11.496675674   18.868843802 XXXX 49     oc23    O  -0.550
O17     32.673456185   12.280097625   23.646613389 XXXX 49     oc23    O  -0.550
O18     28.789512881   11.741091950   15.518302553 XXXX 49     oc23    O  -0.550
O19     31.375827781   11.219367910   15.615915875 XXXX 49     oc23    O  -0.550
O20     25.518296944    9.804817951   23.680175658 XXXX 49     oc23    O  -0.550
O21     28.709596589   10.064773472   19.785740935 XXXX 49     oc23    O  -0.550
O22     25.313653402   13.118640543   17.080917706 XXXX 49     oc23    O  -0.550
O23     31.150529949   12.415563703   21.390074802 XXXX 49     oc23    O  -0.550
O24     28.610229266   12.978784225   13.217838519 XXXX 49     oc23    O  -0.550
Si1     32.587901481   11.284453099   14.569916384 XXXX 49     sc4     Si  1.100
Si2     26.938082994   10.485107705   23.033520150 XXXX 49     sc4     Si  1.100
Si3     30.038223333   10.456397744   18.941587291 XXXX 49     sc4     Si  1.100
Si4     25.744762237   12.831228375   18.696818242 XXXX 49     sc4     Si  1.100
Si5     31.343294042   12.929796925   22.897398089 XXXX 49     sc4     Si  1.100
Si6     28.693846823   13.140834717   14.804254509 XXXX 49     sc4     Si  1.100
Si7     28.420335095   13.187243738   23.892049938 XXXX 49     sc4     Si  1.100
Si8     25.774290811   13.591062656   15.552534314 XXXX 49     sc4     Si  1.100
Si9     31.450903193   12.857255182   19.861423414 XXXX 49     sc4     Si  1.100
Si10    27.116264781   10.288285233   19.911300565 XXXX 49     sc4     Si  1.100
Si11    33.915644612   11.133830935   23.720155885 XXXX 49     sc4     Si  1.100
Si12    29.899148460   10.581933866   15.829060396 XXXX 49     sc4     Si  1.100
O1      28.440388750   14.906836391   11.391066945 XXXX 50     oc23    O  -0.550
O3      31.708267382   14.876140022    6.590139113 XXXX 50     oc23    O  -0.550
O4      27.307694351   18.716878517    7.640109728 XXXX 50     oc23    O  -0.550
O5      32.903724173   18.630714366   11.068007187 XXXX 50     oc23    O  -0.550
O6      30.349943011   19.075262407    3.270244805 XXXX 50     oc23    O  -0.550
O7      30.341369044   18.362569200   11.773362793 XXXX 50     oc23    O  -0.550
O8      28.201242499   17.811056329    3.715869412 XXXX 50     oc23    O  -0.550
O9      33.272969580   18.076518340    7.745344997 XXXX 50     oc23    O  -0.550
O10     28.461442801   15.615348072    8.793015728 XXXX 50     oc23    O  -0.550
O12     31.142755503   16.062231413    4.235633529 XXXX 50     oc23    O  -0.550
O13     28.140114949   17.433020200   10.709178426 XXXX 50     oc23    O  -0.550
O14     26.151644792   16.314800991    3.519506524 XXXX 50     oc23    O  -0.550
O15     30.955731254   17.362430598    6.637608285 XXXX 50     oc23    O  -0.550
O16     26.947092521   16.208568214    6.869099077 XXXX 50     oc23    O  -0.550
O17     31.976576258   16.275638771   11.509272126 XXXX 50     oc23    O  -0.550
O18     30.086274142   16.865095851    2.066807106 XXXX 50     oc23    O  -0.550
O19     32.527406387   15.584617437    1.947725583 XXXX 50     oc23    O  -0.550
O20     26.219514571   15.801265556   10.247921381 XXXX 50     oc23    O  -0.550
O21     29.242910846   15.363683955    6.249849900 XXXX 50     oc23    O  -0.550
O22     26.148508363   18.120001227    5.463274059 XXXX 50     oc23    O  -0.550
O23     31.230778380   17.572772681    9.374149692 XXXX 50     oc23    O  -0.550
O24     28.651571657   18.944327787    1.297046273 XXXX 50     oc24    O  -0.675
Si1     34.089609398   15.985266204    2.418883413 XXXX 50     sc4     Si  1.100
Si2     27.819485187   15.917567431   10.259287800 XXXX 50     sc4     Si  1.100
Si3     30.747149772   15.930075666    5.937621067 XXXX 50     sc4     Si  1.100
Si4     26.303400623   17.667995594    6.964372167 XXXX 50     sc4     Si  1.100
Si5     31.560415680   17.719978599   10.939972827 XXXX 50     sc4     Si  1.100
Si6     29.311814831   18.194562604    2.574897455 XXXX 50     sc4     Si  1.100
Si7     28.741764378   18.348877220   11.856735464 XXXX 50     sc4     Si  1.100
Si8     26.655259433   17.808269337    3.943662806 XXXX 50     sc4     Si  1.100
Si9     31.663054674   18.150940575    7.891965729 XXXX 50     sc4     Si  1.100
Si10    28.056395961   15.216024268    7.335502842 XXXX 50     sc4     Si  1.100
Si11    33.273669658   15.293304104   11.729570846 XXXX 50     sc4     Si  1.100
Si12    30.948656886   15.673464743    2.676843297 XXXX 50     sc4     Si  1.100
H       28.831788046   18.387934564    0.547238007 XXXX 50     hoy     H   0.400
O1      27.919488944   14.339051183   22.814225668 XXXX 51     oc23    O  -0.550
O3      31.294409902   14.440266544   19.567514452 XXXX 51     oc23    O  -0.550
O4      26.498233129   19.066830823   18.990460204 XXXX 51     oc23    O  -0.550
O5      32.383526434   19.956940358   23.752783655 XXXX 51     oc23    O  -0.550
O6      29.808020976   18.987497086   14.961773414 XXXX 51     oc23    O  -0.550
O7      29.742287231   18.961573077   23.816299712 XXXX 51     oc23    O  -0.550
O8      27.288042445   18.636427491   15.573460919 XXXX 51     oc23    O  -0.550
O9      33.092751203   17.811438450   19.806467290 XXXX 51     oc23    O  -0.550
O10     27.430120493   16.155921689   20.985647860 XXXX 51     oc23    O  -0.550
O12     30.688255710   15.574513034   17.329564230 XXXX 51     oc23    O  -0.550
O13     27.860861388   17.159302090   23.245796922 XXXX 51     oc23    O  -0.550
O14     25.022454760   17.612839322   14.458262659 XXXX 51     oc23    O  -0.550
O15     30.596963151   16.956626312   19.836686085 XXXX 51     oc23    O  -0.550
O16     26.735776360   16.610644743   18.515497503 XXXX 51     oc23    O  -0.550
O17     31.823185586   17.264246247   23.634444974 XXXX 51     oc23    O  -0.550
O18     28.954448873   16.635696518   15.512753341 XXXX 51     oc23    O  -0.550
O19     31.383101035   16.225919418   14.992461451 XXXX 51     oc23    O  -0.550
O20     25.597177041   15.751719611   22.576143568 XXXX 51     oc23    O  -0.550
O21     28.774797320   15.030560553   19.028635194 XXXX 51     oc23    O  -0.550
O22     25.169638207   18.106585454   16.935767466 XXXX 51     oc23    O  -0.550
O23     31.294911094   18.862169676   21.536962533 XXXX 51     oc23    O  -0.550
O24     28.251395531   17.818372702   13.297333715 XXXX 51     oc23    O  -0.550
Si1     32.918507355   15.968820460   14.613374581 XXXX 51     sc4     Si  1.100
Si2     27.185669958   15.825027672   22.471174800 XXXX 51     sc4     Si  1.100
Si3     30.315975306   15.504237020   18.920591944 XXXX 51     sc4     Si  1.100
Si4     25.685134285   17.812588967   18.476786522 XXXX 51     sc4     Si  1.100
Si5     31.311094432   18.770464769   23.190637559 XXXX 51     sc4     Si  1.100
Si6     28.535018613   18.054043805   14.844905224 XXXX 51     sc4     Si  1.100
Si7     28.119727166   18.737888947   23.341135765 XXXX 51     sc4     Si  1.100
Si8     25.649931499   18.614303926   15.552066068 XXXX 51     sc4     Si  1.100
Si9     31.565155128   18.229996028   19.998282714 XXXX 51     sc4     Si  1.100
Si10    27.322543164   15.468524274   19.522720259 XXXX 51     sc4     Si  1.100
Si11    32.649231894   15.739036929   23.361796366 XXXX 51     sc4     Si  1.100
Si12    30.154175742   15.631688940   15.820168706 XXXX 51     sc4     Si  1.100
O1      28.178754482   19.872344149   11.713926453 XXXX 52     oc23    O  -0.550
O3      31.051928337   19.620470281    7.755039679 XXXX 52     oc23    O  -0.550
O4      27.046093893   23.921820440    7.936560170 XXXX 52     oc23    O  -0.550
O5      32.539918293   23.621795162   11.583953356 XXXX 52     oc23    O  -0.550
O6      29.277045616   23.507584569    2.889452822 XXXX 52     oc23    O  -0.550
O7      30.302293952   22.858024411   10.428372378 XXXX 52     oc23    O  -0.550
O8      27.397453500   23.048156649    4.344525599 XXXX 52     oc23    O  -0.550
O9      33.445279310   22.786877203    6.498502900 XXXX 52     oc23    O  -0.550
O10     28.082255093   20.566535634    9.291645767 XXXX 52     oc23    O  -0.550
O12     30.992901020   20.330935141    5.337961504 XXXX 52     oc23    O  -0.550
O13     27.793359548   22.398841547   11.070146174 XXXX 52     oc23    O  -0.550
O14     25.621067203   21.359958151    4.249453258 XXXX 52     oc23    O  -0.550
O15     30.936210613   22.154425271    7.198175795 XXXX 52     oc23    O  -0.550
O16     26.475709312   21.266649997    7.437996880 XXXX 52     oc23    O  -0.550
O17     32.210714564   21.164737888   10.721947590 XXXX 52     oc23    O  -0.550
O18     29.111208671   21.214353403    3.926332976 XXXX 52     oc23    O  -0.550
O19     31.549771312   21.212226816    2.855328409 XXXX 52     oc23    O  -0.550
O20     25.835120033   20.687611947   10.458325169 XXXX 52     oc23    O  -0.550
O21     28.917810131   20.597092861    6.830187348 XXXX 52     oc23    O  -0.550
O22     25.467843595   23.197908657    6.016901568 XXXX 52     oc23    O  -0.550
O23     32.547660917   23.034358755    9.071481543 XXXX 52     oc23    O  -0.550
Si1     33.002158721   20.972759423    2.303706387 XXXX 52     sc4     Si  1.100
Si2     27.415538186   20.882134424   10.680495876 XXXX 52     sc4     Si  1.100
Si3     30.495258920   20.680085823    6.767006037 XXXX 52     sc4     Si  1.100
Si4     25.908061399   22.858965177    7.469286663 XXXX 52     sc4     Si  1.100
Si5     31.895526317   22.651446429   10.460130406 XXXX 52     sc4     Si  1.100
Si6     28.257067754   22.334175860    3.282727293 XXXX 52     sc4     Si  1.100
Si7     29.055651912   23.345046042   11.356366938 XXXX 52     sc4     Si  1.100
Si8     25.879032028   22.946454291    4.543101696 XXXX 52     sc4     Si  1.100
Si9     32.208413455   23.052233300    7.489745520 XXXX 52     sc4     Si  1.100
Si10    27.660656977   20.302712176    7.783320733 XXXX 52     sc4     Si  1.100
Si11    33.387258032   20.188464201   11.227330333 XXXX 52     sc4     Si  1.100
Si12    30.494590664   20.481173107    3.829247925 XXXX 52     sc4     Si  1.100
O1      28.180120828   19.498837401   21.934302026 XXXX 53     oc23    O  -0.550
O3      31.250999099   19.357066325   18.897526352 XXXX 53     oc23    O  -0.550
O4      26.758932633   23.753429646   19.028635194 XXXX 53     oc23    O  -0.550
O5      31.723917706   24.726322392   22.619533023 XXXX 53     oc23    O  -0.550
O6      29.533174725   24.126587501   15.379371016 XXXX 53     oc23    O  -0.550
O7      30.078831835   22.737226383   23.473717090 XXXX 53     oc23    O  -0.550
O8      27.309430624   23.228883309   14.328959055 XXXX 53     oc23    O  -0.550
O9      32.822007965   22.563504584   19.566378707 XXXX 53     oc23    O  -0.550
O10     27.612007522   21.015997255   19.983107563 XXXX 53     oc23    O  -0.550
O12     30.884490361   20.686635876   16.502859220 XXXX 53     oc23    O  -0.550
O13     27.703300081   22.132091954   22.216110319 XXXX 53     oc23    O  -0.550
O14     24.788515340   22.661969296   14.776575201 XXXX 53     oc23    O  -0.550
O15     30.470867566   21.973281185   18.728174774 XXXX 53     oc23    O  -0.550
O16     26.619557443   21.443021722   17.697017681 XXXX 53     oc23    O  -0.550
O17     32.670453009   22.272401002   22.522522442 XXXX 53     oc23    O  -0.550
O18     29.232266479   21.592493369   14.732248258 XXXX 53     oc23    O  -0.550
O19     31.637762367   20.704510421   14.142690850 XXXX 53     oc23    O  -0.550
O20     25.779197324   20.287171893   21.823718293 XXXX 53     oc23    O  -0.550
O21     28.828585985   20.023522880   17.967926805 XXXX 53     oc23    O  -0.550
O22     26.132492090   23.760083537   16.574063476 XXXX 53     oc23    O  -0.550
O23     30.769273829   22.944431542   21.031914537 XXXX 53     oc23    O  -0.550
O24     29.434038110   23.201322826   12.876527135 XXXX 53     oc23    O  -0.550
Si1     33.191653132   20.844296129   14.233217719 XXXX 53     sc4     Si  1.100
Si2     27.303724590   20.766980988   21.491231849 XXXX 53     sc4     Si  1.100
Si3     30.350977217   20.480336178   18.039532556 XXXX 53     sc4     Si  1.100
Si4     25.950105857   22.898300804   17.949005687 XXXX 53     sc4     Si  1.100
Si5     31.354105475   23.166200914   22.484279707 XXXX 53     sc4     Si  1.100
Si6     28.890749730   23.103765651   14.339789482 XXXX 53     sc4     Si  1.100
Si7     28.485301141   22.903806255   23.427986406 XXXX 53     sc4     Si  1.100
Si8     25.979902927   23.699633643   15.040064123 XXXX 53     sc4     Si  1.100
Si9     31.283198710   23.036798931   19.590313044 XXXX 53     sc4     Si  1.100
Si10    27.401190564   20.341420626   18.593855958 XXXX 53     sc4     Si  1.100
Si11    33.540164462   21.075088958   23.206818940 XXXX 53     sc4     Si  1.100
Si12    30.358385713   20.482323623   15.062863711 XXXX 53     sc4     Si  1.100
O1      28.658878722   24.924572626   11.075160390 XXXX 54     oc23    O  -0.550
O3      31.704164368   24.528140690    7.235950783 XXXX 54     oc23    O  -0.550
O4      27.387910960   28.719807561    7.044000365 XXXX 54     oc23    O  -0.550
O5      32.633981331   28.575386557   11.295525860 XXXX 54     oc23    O  -0.550
O6      30.643343319   28.444485165    3.620135051 XXXX 54     oc23    O  -0.550
O7      30.189979164   27.972133660   10.490684943 XXXX 54     oc23    O  -0.550
O8      28.557741315   27.639391341    2.113895455 XXXX 54     oc23    O  -0.550
O9      33.197458609   28.026243252    6.378017261 XXXX 54     oc23    O  -0.550
O10     27.412367946   26.051956512    9.004356008 XXXX 54     oc23    O  -0.550
O12     30.010763171   24.653048597    5.374880697 XXXX 54     oc23    O  -0.550
O13     27.704668415   27.395288653   11.150510115 XXXX 54     oc23    O  -0.550
O14     26.254816800   26.220835341    2.946824149 XXXX 54     oc23    O  -0.550
O15     30.934909899   26.938232376    6.739259979 XXXX 54     oc23    O  -0.550
O16     27.398054135   26.133416836    6.317998602 XXXX 54     oc23    O  -0.550
O17     31.948547282   26.082895859   11.059716246 XXXX 54     oc23    O  -0.550
O18     29.698409046   26.085230121    3.432416778 XXXX 54     oc23    O  -0.550
O19     31.783078275   24.942098278    3.450334655 XXXX 54     oc23    O  -0.550
O20     26.156815823   25.198534754   11.091407525 XXXX 54     oc23    O  -0.550
O21     29.308443717   25.090595931    7.732642085 XXXX 54     oc23    O  -0.550
O22     27.112861845   28.152650569    4.384540197 XXXX 54     oc23    O  -0.550
O23     32.315254906   27.434381301    8.912759147 XXXX 54     oc23    O  -0.550
Si1     32.697346347   25.791476612    2.483054018 XXXX 54     sc4     Si  1.100
Si2     27.485110427   25.900707171   10.542366335 XXXX 54     sc4     Si  1.100
Si3     30.478274073   25.365081399    6.771084259 XXXX 54     sc4     Si  1.100
Si4     26.761402795   27.674338806    5.937393420 XXXX 54     sc4     Si  1.100
Si5     31.767728270   27.502010503   10.422221420 XXXX 54     sc4     Si  1.100
Si6     30.050669606   27.301843433    2.617439585 XXXX 54     sc4     Si  1.100
Si7     28.948207837   28.354279667   11.439271362 XXXX 54     sc4     Si  1.100
Si8     27.000314360   27.686255169    2.826164662 XXXX 54     sc4     Si  1.100
Si9     31.972304191   27.933807331    7.429438940 XXXX 54     sc4     Si  1.100
Si10    27.788954228   25.323932773    7.705631272 XXXX 54     sc4     Si  1.100
Si11    33.087279854   25.112615659   11.658633590 XXXX 54     sc4     Si  1.100
Si12    30.200957660   24.659145920    3.797670719 XXXX 54     sc4     Si  1.100
O1      28.111417717   24.520892850   23.346284477 XXXX 55     oc23    O  -0.550
O3      31.084261201   24.554482124   19.034385652 XXXX 55     oc23    O  -0.550
O4      26.727401279   28.862380261   19.122706784 XXXX 55     oc23    O  -0.550
O5      32.351326823   30.018857267   23.669945980 XXXX 55     oc23    O  -0.550
O6      29.488027649   29.071502255   15.299675570 XXXX 55     oc23    O  -0.550
O7      29.634511017   29.110769350   23.716011411 XXXX 55     oc23    O  -0.550
O8      27.119335577   28.220173857   14.487747205 XXXX 55     oc23    O  -0.550
O9      32.971395066   27.817156562   19.907022591 XXXX 55     oc23    O  -0.550
O10     27.781647164   25.324663787   20.865169196 XXXX 55     oc23    O  -0.550
O12     30.478542569   25.995057851   17.040869733 XXXX 55     oc23    O  -0.550
O13     28.129470581   27.044848312   22.886365419 XXXX 55     oc23    O  -0.550
O14     24.599522121   27.510442088   14.712258145 XXXX 55     oc23    O  -0.550
O15     30.423252317   27.178397555   19.486884507 XXXX 55     oc23    O  -0.550
O16     26.113940022   26.295675002   19.066477430 XXXX 55     oc23    O  -0.550
O17     31.646704272   27.348740490   23.596534992 XXXX 55     oc23    O  -0.550
O18     29.018848095   26.508524754   14.871046295 XXXX 55     oc23    O  -0.550
O19     31.352536266   25.724962623   14.576602337 XXXX 55     oc23    O  -0.550
O20     25.904358146   25.493717063   22.675561131 XXXX 55     oc23    O  -0.550
O21     28.614099584   25.519813441   18.547722781 XXXX 55     oc23    O  -0.550
O22     26.044501035   27.797329877   16.933828728 XXXX 55     oc23    O  -0.550
O23     31.116494622   28.957534641   21.519846652 XXXX 55     oc23    O  -0.550
O24     29.326729277   28.171046376   12.930949259 XXXX 55     oc23    O  -0.550
Si1     32.930486246   25.815031055   14.555207486 XXXX 55     sc4     Si  1.100
Si2     27.415671439   25.641795214   22.460678123 XXXX 55     sc4     Si  1.100
Si3     30.128083914   25.820081699   18.556280722 XXXX 55     sc4     Si  1.100
Si4     25.707389606   27.754787755   18.564906408 XXXX 55     sc4     Si  1.100
Si5     31.219867505   28.854611157   23.098307445 XXXX 55     sc4     Si  1.100
Si6     28.723544450   27.983491379   14.389465387 XXXX 55     sc4     Si  1.100
Si7     28.097571288   28.649391367   23.289855869 XXXX 55     sc4     Si  1.100
Si8     25.817468918   28.376440614   15.384451982 XXXX 55     sc4     Si  1.100
Si9     31.446899621   28.322470164   19.996879969 XXXX 55     sc4     Si  1.100
Si10    27.318338719   25.226408826   19.367274588 XXXX 55     sc4     Si  1.100
Si11    32.517563529   25.987741479   23.339330527 XXXX 55     sc4     Si  1.100
Si12    30.054508102   25.591274238   15.552734564 XXXX 55     sc4     Si  1.100
O1      28.511327337   29.916282677   11.225591845 XXXX 56     oc23    O  -0.550
O3      31.353870789   29.454555800    7.645592190 XXXX 56     oc23    O  -0.550
O4      27.425048905   33.824266176    6.960226696 XXXX 56     oc23    O  -0.550
O5      32.863718295   33.583122849   11.074091394 XXXX 56     oc23    O  -0.550
O6      30.408936517   33.478178692    3.408608469 XXXX 56     oc23    O  -0.550
O7      30.418813186   33.073279867   11.604077966 XXXX 56     oc23    O  -0.550
O8      28.344390553   32.219581902    2.180713641 XXXX 56     oc23    O  -0.550
O9      33.356722379   33.054431329    7.694666349 XXXX 56     oc23    O  -0.550
O10     26.919264420   30.488282638    9.106515300 XXXX 56     oc23    O  -0.550
O12     30.243033939   29.874471569    5.593172934 XXXX 56     oc23    O  -0.550
O13     28.020558729   32.416160357   10.535480132 XXXX 56     oc23    O  -0.550
O14     25.849135515   31.194461096    3.004777046 XXXX 56     oc23    O  -0.550
O15     31.087431441   32.074080992    6.853454186 XXXX 56     oc23    O  -0.550
O16     26.705344844   31.264841985    6.585057649 XXXX 56     oc23    O  -0.550
O17     32.009308882   31.080701156   10.952141242 XXXX 56     oc23    O  -0.550
O18     29.806085818   31.027949756    3.557662584 XXXX 56     oc23    O  -0.550
O19     32.149618835   30.399993976    3.889661355 XXXX 56     oc23    O  -0.550
O20     26.094186685   30.896039065   11.533073960 XXXX 56     oc23    O  -0.550
O21     29.019347298   30.676568650    7.729299108 XXXX 56     oc23    O  -0.550
O22     27.027641269   32.908512993    4.568902541 XXXX 56     oc23    O  -0.550
O23     31.144690662   32.881197565    9.195303682 XXXX 56     oc23    O  -0.550
Si1     32.730381278   30.878338967    2.514343801 XXXX 56     sc4     Si  1.100
Si2     27.402326202   30.951054117   10.603675659 XXXX 56     sc4     Si  1.100
Si3     30.412440885   30.588522967    6.945585047 XXXX 56     sc4     Si  1.100
Si4     26.517453452   32.779806719    6.112469054 XXXX 56     sc4     Si  1.100
Si5     31.649240066   32.611449153   10.710915917 XXXX 56     sc4     Si  1.100
Si6     29.944828551   32.175820731    2.578287256 XXXX 56     sc4     Si  1.100
Si7     28.879170599   33.416474444   11.472232882 XXXX 56     sc4     Si  1.100
Si8     26.881758536   32.513264801    2.990114973 XXXX 56     sc4     Si  1.100
Si9     31.705365639   33.221812825    7.750158963 XXXX 56     sc4     Si  1.100
Si10    27.456146688   30.279335090    7.583213372 XXXX 56     sc4     Si  1.100
Si11    33.162190190   30.062689048   11.348477493 XXXX 56     sc4     Si  1.100
Si12    30.670238645   29.883006991    4.191366362 XXXX 56     sc4     Si  1.100
O1      28.048185955   29.510268639   21.985984414 XXXX 57     oc23    O  -0.550
O3      31.252568308   29.572392390   19.038063872 XXXX 57     oc23    O  -0.550
O4      26.714388181   33.705559429   18.775375950 XXXX 57     oc23    O  -0.550
O5      31.630053553   34.446890950   23.357048154 XXXX 57     oc23    O  -0.550
O6      29.957642763   34.138365555   14.895048379 XXXX 57     oc23    O  -0.550
O7      29.940391409   32.570510278   22.812488177 XXXX 57     oc23    O  -0.550
O8      27.444201607   33.319405304   15.371883067 XXXX 57     oc23    O  -0.550
O9      32.644092685   32.532917039   19.165093994 XXXX 57     oc23    O  -0.550
O10     27.511204244   30.935061104   20.097634524 XXXX 57     oc23    O  -0.550
O12     30.689558412   30.902867402   16.755785711 XXXX 57     oc23    O  -0.550
O13     27.481840745   32.064116769   22.387601880 XXXX 57     oc23    O  -0.550
O14     25.168971939   32.474485741   14.423162152 XXXX 57     oc23    O  -0.550
O15     30.154376617   32.048159060   18.924804164 XXXX 57     oc23    O  -0.550
O16     26.470904231   31.214321008   17.862224784 XXXX 57     oc23    O  -0.550
O17     32.616865219   32.286338871   22.317468612 XXXX 57     oc23    O  -0.550
O18     29.193692578   31.618382906   14.756050092 XXXX 57     oc23    O  -0.550
O19     31.524813133   30.386160778   14.301346496 XXXX 57     oc23    O  -0.550
O20     25.641856736   30.321285339   21.849125114 XXXX 57     oc23    O  -0.550
O21     28.772695097   30.058089058   18.148980544 XXXX 57     oc23    O  -0.550
O22     25.283422761   33.217840012   16.742814304 XXXX 57     oc23    O  -0.550
O23     31.078223028   33.790363313   20.862361713 XXXX 57     oc23    O  -0.550
O24     28.227035999   33.267141939   12.919984336 XXXX 57     oc23    O  -0.550
Si1     33.034125636   30.738970684   14.334575016 XXXX 57     sc4     Si  1.100
Si2     27.160077333   30.705383487   21.578682243 XXXX 57     sc4     Si  1.100
Si3     30.270595533   30.634863456   18.249601599 XXXX 57     sc4     Si  1.100
Si4     25.725575724   32.642110216   18.103383359 XXXX 57     sc4     Si  1.100
Si5     31.354839363   33.224809568   22.359588822 XXXX 57     sc4     Si  1.100
Si6     28.746501838   33.120212228   14.475445290 XXXX 57     sc4     Si  1.100
Si7     28.481363202   33.039867116   23.053579006 XXXX 57     sc4     Si  1.100
Si8     25.878697900   33.530477363   15.319064934 XXXX 57     sc4     Si  1.100
Si9     31.185364797   33.240835810   19.359117147 XXXX 57     sc4     Si  1.100
Si10    27.334788563   30.277385026   18.737601460 XXXX 57     sc4     Si  1.100
Si11    33.502073465   31.174322899   23.135278943 XXXX 57     sc4     Si  1.100
Si12    30.262152831   30.491977167   15.269990775 XXXX 57     sc4     Si  1.100
O2       0.815107963   -0.137765035    3.390208897 XXXX 58     oc23    O  -0.550
O11     33.839076190   -0.057629675    0.781287215 XXXX 58     oc24    O  -0.675
H       34.538078663   -0.783038792    0.814810008 XXXX 58     hoy     H   0.400
O2       0.492000456    0.085144088   15.106522159 XXXX 59     oc23    O  -0.550
O11     33.808067781    0.635821192   12.684977714 XXXX 59     oc23    O  -0.550
O2      -0.038406837    4.943591868    2.386376938 XXXX 60     oc23    O  -0.550
O2       0.330658579    5.084284075   15.182673880 XXXX 61     oc23    O  -0.550
O11     32.323264037    5.616809267   13.000415028 XXXX 61     oc23    O  -0.550
O2       0.213318754    9.963209218    3.150681959 XXXX 62     oc23    O  -0.550
O11     33.918874580   10.501169251    0.523875652 XXXX 62     oc24    O  -0.675
H       33.270099658   10.416225188   -0.153305688 XXXX 62     hoy     H   0.400
O2       0.312831978   10.193967781   15.018670268 XXXX 63     oc23    O  -0.550
O11     32.035235635   10.953314027   13.113940739 XXXX 63     oc23    O  -0.550
O2       1.469584816   14.767920839    3.091619219 XXXX 64     oc23    O  -0.550
O11      1.951301385   16.834678805    1.693797345 XXXX 64     oc23    O  -0.550
O2       0.281374771   15.125434573   15.680300678 XXXX 65     oc23    O  -0.550
O11     33.119079705   15.135538976   13.291717753 XXXX 65     oc23    O  -0.550
O2       0.220045989   19.471696420    2.696639885 XXXX 66     oc23    O  -0.550
O11     33.024614917   21.153901432    0.676720691 XXXX 66     oc24    O  -0.675
H       32.191629483   21.049968650    0.328086209 XXXX 66     hoy     H   0.400
O2       0.321014047   19.917847709   15.375359046 XXXX 67     oc23    O  -0.550
O11     33.837841606   20.499290630   12.784863524 XXXX 67     oc23    O  -0.550
O2       0.244303484   24.590891618    1.984504427 XXXX 68     oc23    O  -0.550
O11     31.367152383   26.651795240    1.816676392 XXXX 68     oc23    O  -0.550
O2       0.231411613   24.776041745   15.532543205 XXXX 69     oc23    O  -0.550
O11     33.464919423   25.494273631   13.139012815 XXXX 69     oc23    O  -0.550
O2       0.390259618   29.585980533    2.032949941 XXXX 70     oc23    O  -0.550
O11     31.264847517   31.403722232    1.808332525 XXXX 70     oc23    O  -0.550
O2       0.327939779   29.897153778   15.515227074 XXXX 71     oc23    O  -0.550
O11     33.565191085   30.297591755   12.896049002 XXXX 71     oc23    O  -0.550
O14     33.879103853    2.262127236    2.164754676 XXXX 72     oc23    O  -0.550
O14     33.657691472    2.638905117   14.410058242 XXXX 73     oc23    O  -0.550
O14     33.221084253    7.295008757    3.604035363 XXXX 74     oc23    O  -0.550
O14     33.321386339    7.584789971   14.400697310 XXXX 75     oc23    O  -0.550
O14     33.768423875   12.446398175    2.400564290 XXXX 76     oc23    O  -0.550
O14     33.281511725   12.721963550   14.737663970 XXXX 77     oc23    O  -0.550
O14     33.720214485   17.084878816    3.501701973 XXXX 78     oc23    O  -0.550
O14     33.593289857   17.403613491   14.641187389 XXXX 79     oc23    O  -0.550
O14     33.853467597   22.100384211    3.017560158 XXXX 80     oc23    O  -0.550
O14     33.653729076   22.360479913   14.503926594 XXXX 81     oc23    O  -0.550
O14      0.329266813   27.007880174    3.117172492 XXXX 82     oc23    O  -0.550
O14      0.017746172   27.359749315   14.801513777 XXXX 83     oc23    O  -0.550
O14     33.799822690   32.140177556    2.691699144 XXXX 84     oc23    O  -0.550
O14     33.186247416   32.291460125   14.757788579 XXXX 85     oc23    O  -0.550
end
end
