!BIOSYM archive 3
PBC=OFF
Materials Studio Generated CAR File
!DATE Tue Apr 15 10:12:54 2014
O1       2.191228272    7.287692799    0.263426623 XXXX 1      oap1    O  -0.800
O2       1.844579732    7.097547637    2.698675983 XXXX 1      oap1    O  -0.800
P1       1.185379065    7.611062945    1.387181100 XXXX 1      pap     P   0.700
O3      -0.156388504    6.866479968    1.231433767 XXXX 1      oap1    O  -0.800
O4       0.956711752    9.108019843    1.476219879 XXXX 1      oap1    O  -0.700
Na1      0.001886439    5.980729019    3.100933551 XXXX 1      na+     Na  1.000
Na2      3.776488181    7.445815917    1.612498230 XXXX 1      na+     Na  1.000
H1       0.260214359    9.276336477    0.877147735 XXXX 1      hop     H   0.400
end
end
