!BIOSYM archive 3
PBC=ON
Materials Studio Generated CAR File
!DATE Fri May 02 18:12:25 2014
PBC   25.8000   26.8980   49.3470   90.0000   90.0000   90.0000 (P1)
AL1      2.390027641    1.315927027    4.689136732 XXXX 1      ay2     Al  1.449
SI2      0.599761723    4.220879315    7.370465651 XXXX 1      sy2     Si  1.100
SI3      3.244418262    2.685819386    7.376071349 XXXX 1      sy1     Si  1.100
SI4      0.692585407    7.168730973    7.376071349 XXXX 1      sy1     Si  1.100
O1       2.958586095   -0.186690946    5.751302138 XXXX 1      oy5     O  -0.758
O2       0.406753419    4.296220539    5.751302138 XXXX 1      oy5     O  -0.758
O3       3.397925018    2.557693003    5.754059091 XXXX 1      oy4     O  -0.758
O4       0.846092342    7.040604351    5.754059091 XXXX 1      oy4     O  -0.758
O5       0.798185764    1.526230214    5.683297053 XXXX 1      oy6     O  -0.683
O6       3.406353114    6.009142159    5.683297053 XXXX 1      oy6     O  -0.683
O7      -0.527082445    3.241515158    7.988117114 XXXX 1      oy3     O  -0.550
O8       2.081084846    7.724426983    7.988117114 XXXX 1      oy3     O  -0.550
O9       2.945616124    1.220709680    7.983521834 XXXX 1      oy1     O  -0.550
O10      0.393783568    5.703621147    7.983521834 XXXX 1      oy1     O  -0.550
O11      2.076994537    3.725987194    7.745504513 XXXX 1      oy2     O  -0.550
O12     -0.474837990    8.208898781    7.745504513 XXXX 1      oy2     O  -0.550
AL1      7.550027641    1.315927027    4.689136732 XXXX 2      ay2     Al  1.449
AL2      4.998194801    5.798838375    4.689136732 XXXX 2      ay2     Al  1.449
SI2      5.759761723    4.220879315    7.370465651 XXXX 2      sy2     Si  1.100
SI3      8.404418262    2.685819386    7.376071349 XXXX 2      sy1     Si  1.100
SI4      5.852585407    7.168730973    7.376071349 XXXX 2      sy1     Si  1.100
O1       8.118586095   -0.186690946    5.751302138 XXXX 2      oy5     O  -0.758
O2       5.566753419    4.296220539    5.751302138 XXXX 2      oy5     O  -0.758
O3       8.557925018    2.557693003    5.754059091 XXXX 2      oy4     O  -0.758
O4       6.006092342    7.040604351    5.754059091 XXXX 2      oy4     O  -0.758
O5       5.958185764    1.526230214    5.683297053 XXXX 2      oy6     O  -0.683
O6       8.566353114    6.009142159    5.683297053 XXXX 2      oy6     O  -0.683
O7       4.632917555    3.241515158    7.988117114 XXXX 2      oy3     O  -0.550
O8       7.241084846    7.724426983    7.988117114 XXXX 2      oy3     O  -0.550
O9       8.105616124    1.220709680    7.983521834 XXXX 2      oy1     O  -0.550
O10      5.553783568    5.703621147    7.983521834 XXXX 2      oy1     O  -0.550
O11      7.236994537    3.725987194    7.745504513 XXXX 2      oy2     O  -0.550
O12      4.685162010    8.208898781    7.745504513 XXXX 2      oy2     O  -0.550
AL1     12.710027641    1.315927027    4.689136732 XXXX 3      ay2     Al  1.449
AL2     10.158194801    5.798838375    4.689136732 XXXX 3      ay2     Al  1.449
SI2     10.919761723    4.220879315    7.370465651 XXXX 3      sy2     Si  1.100
SI3     13.564418262    2.685819386    7.376071349 XXXX 3      sy1     Si  1.100
SI4     11.012585407    7.168730973    7.376071349 XXXX 3      sy1     Si  1.100
O1      13.278586095   -0.186690946    5.751302138 XXXX 3      oy5     O  -0.758
O2      10.726753419    4.296220539    5.751302138 XXXX 3      oy5     O  -0.758
O3      13.717925018    2.557693003    5.754059091 XXXX 3      oy4     O  -0.758
O4      11.166092342    7.040604351    5.754059091 XXXX 3      oy4     O  -0.758
O5      11.118185764    1.526230214    5.683297053 XXXX 3      oy6     O  -0.683
O6      13.726353114    6.009142159    5.683297053 XXXX 3      oy6     O  -0.683
O7       9.792917555    3.241515158    7.988117114 XXXX 3      oy3     O  -0.550
O8      12.401084846    7.724426983    7.988117114 XXXX 3      oy3     O  -0.550
O9      13.265616124    1.220709680    7.983521834 XXXX 3      oy1     O  -0.550
O10     10.713783568    5.703621147    7.983521834 XXXX 3      oy1     O  -0.550
O11     12.396994537    3.725987194    7.745504513 XXXX 3      oy2     O  -0.550
O12      9.845162010    8.208898781    7.745504513 XXXX 3      oy2     O  -0.550
AL1     17.870027641    1.315927027    4.689136732 XXXX 4      ay2     Al  1.449
AL2     15.318194801    5.798838375    4.689136732 XXXX 4      ay2     Al  1.449
SI2     16.079761723    4.220879315    7.370465651 XXXX 4      sy2     Si  1.100
SI3     18.724418262    2.685819386    7.376071349 XXXX 4      sy1     Si  1.100
SI4     16.172585407    7.168730973    7.376071349 XXXX 4      sy1     Si  1.100
O1      18.438586095   -0.186690946    5.751302138 XXXX 4      oy5     O  -0.758
O2      15.886753419    4.296220539    5.751302138 XXXX 4      oy5     O  -0.758
O3      18.877925018    2.557693003    5.754059091 XXXX 4      oy4     O  -0.758
O4      16.326092342    7.040604351    5.754059091 XXXX 4      oy4     O  -0.758
O5      16.278185764    1.526230214    5.683297053 XXXX 4      oy6     O  -0.683
O6      18.886353114    6.009142159    5.683297053 XXXX 4      oy6     O  -0.683
O7      14.952917555    3.241515158    7.988117114 XXXX 4      oy3     O  -0.550
O8      17.561084846    7.724426983    7.988117114 XXXX 4      oy3     O  -0.550
O9      18.425616124    1.220709680    7.983521834 XXXX 4      oy1     O  -0.550
O10     15.873783568    5.703621147    7.983521834 XXXX 4      oy1     O  -0.550
O11     17.556994537    3.725987194    7.745504513 XXXX 4      oy2     O  -0.550
O12     15.005162010    8.208898781    7.745504513 XXXX 4      oy2     O  -0.550
AL1     23.030027641    1.315927027    4.689136732 XXXX 5      ay2     Al  1.449
AL2     20.478194801    5.798838375    4.689136732 XXXX 5      ay2     Al  1.449
SI2     21.239761723    4.220879315    7.370465651 XXXX 5      sy2     Si  1.100
SI3     23.884418262    2.685819386    7.376071349 XXXX 5      sy1     Si  1.100
SI4     21.332585407    7.168730973    7.376071349 XXXX 5      sy1     Si  1.100
O1      23.598586095   -0.186690946    5.751302138 XXXX 5      oy5     O  -0.758
O2      21.046753419    4.296220539    5.751302138 XXXX 5      oy5     O  -0.758
O3      24.037925018    2.557693003    5.754059091 XXXX 5      oy4     O  -0.758
O4      21.486092342    7.040604351    5.754059091 XXXX 5      oy4     O  -0.758
O5      21.438185764    1.526230214    5.683297053 XXXX 5      oy6     O  -0.683
O6      24.046353114    6.009142159    5.683297053 XXXX 5      oy6     O  -0.683
O7      20.112917555    3.241515158    7.988117114 XXXX 5      oy3     O  -0.550
O8      22.721084846    7.724426983    7.988117114 XXXX 5      oy3     O  -0.550
O9      23.585616124    1.220709680    7.983521834 XXXX 5      oy1     O  -0.550
O10     21.033783568    5.703621147    7.983521834 XXXX 5      oy1     O  -0.550
O11     22.716994537    3.725987194    7.745504513 XXXX 5      oy2     O  -0.550
O12     20.165162010    8.208898781    7.745504513 XXXX 5      oy2     O  -0.550
AL1      2.446362310   10.281750046    4.689136732 XXXX 6      ay2     Al  1.449
SI1      3.207928949    8.703790829    7.370465651 XXXX 6      sy2     Si  1.100
SI2      0.656096392   13.186702334    7.370465651 XXXX 6      sy2     Si  1.100
SI3      3.300752931   11.651642405    7.376071349 XXXX 6      sy1     Si  1.100
SI4      0.748920076   16.134553992    7.376071349 XXXX 6      sy1     Si  1.100
O1       3.014920764    8.779132073    5.751302138 XXXX 6      oy5     O  -0.758
O2       0.463088088   13.262043558    5.751302138 XXXX 6      oy5     O  -0.758
O3       3.454259687   11.523516022    5.754059091 XXXX 6      oy4     O  -0.758
O4       0.902427011   16.006427370    5.754059091 XXXX 6      oy4     O  -0.758
O5       0.854520433   10.492053233    5.683297053 XXXX 6      oy6     O  -0.683
O6       3.462687783   14.974965178    5.683297053 XXXX 6      oy6     O  -0.683
O7      -0.470747776   12.207338177    7.988117114 XXXX 6      oy3     O  -0.550
O8       2.137419515   16.690250002    7.988117114 XXXX 6      oy3     O  -0.550
O9       3.001950793   10.186532699    7.983521834 XXXX 6      oy1     O  -0.550
O10      0.450118237   14.669444166    7.983521834 XXXX 6      oy1     O  -0.550
O11      2.133329206   12.691810213    7.745504513 XXXX 6      oy2     O  -0.550
O12     -0.418503321   17.174721800    7.745504513 XXXX 6      oy2     O  -0.550
AL1      7.606362310   10.281750046    4.689136732 XXXX 7      ay2     Al  1.449
AL2      5.054529470   14.764661394    4.689136732 XXXX 7      ay2     Al  1.449
SI1      8.367928949    8.703790829    7.370465651 XXXX 7      sy2     Si  1.100
SI2      5.816096392   13.186702334    7.370465651 XXXX 7      sy2     Si  1.100
SI3      8.460752931   11.651642405    7.376071349 XXXX 7      sy1     Si  1.100
SI4      5.908920076   16.134553992    7.376071349 XXXX 7      sy1     Si  1.100
O1       8.174920764    8.779132073    5.751302138 XXXX 7      oy5     O  -0.758
O2       5.623088088   13.262043558    5.751302138 XXXX 7      oy5     O  -0.758
O3       8.614259687   11.523516022    5.754059091 XXXX 7      oy4     O  -0.758
O4       6.062427011   16.006427370    5.754059091 XXXX 7      oy4     O  -0.758
O5       6.014520433   10.492053233    5.683297053 XXXX 7      oy6     O  -0.683
O6       8.622687783   14.974965178    5.683297053 XXXX 7      oy6     O  -0.683
O7       4.689252224   12.207338177    7.988117114 XXXX 7      oy3     O  -0.550
O8       7.297419515   16.690250002    7.988117114 XXXX 7      oy3     O  -0.550
O9       8.161950793   10.186532699    7.983521834 XXXX 7      oy1     O  -0.550
O10      5.610118237   14.669444166    7.983521834 XXXX 7      oy1     O  -0.550
O11      7.293329206   12.691810213    7.745504513 XXXX 7      oy2     O  -0.550
O12      4.741496679   17.174721800    7.745504513 XXXX 7      oy2     O  -0.550
AL1     12.766362310   10.281750046    4.689136732 XXXX 8      ay2     Al  1.449
AL2     10.214529470   14.764661394    4.689136732 XXXX 8      ay2     Al  1.449
SI1     13.527928949    8.703790829    7.370465651 XXXX 8      sy2     Si  1.100
SI2     10.976096392   13.186702334    7.370465651 XXXX 8      sy2     Si  1.100
SI3     13.620752931   11.651642405    7.376071349 XXXX 8      sy1     Si  1.100
SI4     11.068920076   16.134553992    7.376071349 XXXX 8      sy1     Si  1.100
O1      13.334920764    8.779132073    5.751302138 XXXX 8      oy5     O  -0.758
O2      10.783088088   13.262043558    5.751302138 XXXX 8      oy5     O  -0.758
O3      13.774259687   11.523516022    5.754059091 XXXX 8      oy4     O  -0.758
O4      11.222427011   16.006427370    5.754059091 XXXX 8      oy4     O  -0.758
O5      11.174520433   10.492053233    5.683297053 XXXX 8      oy6     O  -0.683
O6      13.782687783   14.974965178    5.683297053 XXXX 8      oy6     O  -0.683
O7       9.849252224   12.207338177    7.988117114 XXXX 8      oy3     O  -0.550
O8      12.457419515   16.690250002    7.988117114 XXXX 8      oy3     O  -0.550
O9      13.321950793   10.186532699    7.983521834 XXXX 8      oy1     O  -0.550
O10     10.770118237   14.669444166    7.983521834 XXXX 8      oy1     O  -0.550
O11     12.453329206   12.691810213    7.745504513 XXXX 8      oy2     O  -0.550
O12      9.901496679   17.174721800    7.745504513 XXXX 8      oy2     O  -0.550
AL1     17.926362310   10.281750046    4.689136732 XXXX 9      ay2     Al  1.449
AL2     15.374529470   14.764661394    4.689136732 XXXX 9      ay2     Al  1.449
SI1     18.687928949    8.703790829    7.370465651 XXXX 9      sy2     Si  1.100
SI2     16.136096392   13.186702334    7.370465651 XXXX 9      sy2     Si  1.100
SI3     18.780752931   11.651642405    7.376071349 XXXX 9      sy1     Si  1.100
SI4     16.228920076   16.134553992    7.376071349 XXXX 9      sy1     Si  1.100
O1      18.494920764    8.779132073    5.751302138 XXXX 9      oy5     O  -0.758
O2      15.943088088   13.262043558    5.751302138 XXXX 9      oy5     O  -0.758
O3      18.934259687   11.523516022    5.754059091 XXXX 9      oy4     O  -0.758
O4      16.382427011   16.006427370    5.754059091 XXXX 9      oy4     O  -0.758
O5      16.334520433   10.492053233    5.683297053 XXXX 9      oy6     O  -0.683
O6      18.942687783   14.974965178    5.683297053 XXXX 9      oy6     O  -0.683
O7      15.009252224   12.207338177    7.988117114 XXXX 9      oy3     O  -0.550
O8      17.617419515   16.690250002    7.988117114 XXXX 9      oy3     O  -0.550
O9      18.481950793   10.186532699    7.983521834 XXXX 9      oy1     O  -0.550
O10     15.930118237   14.669444166    7.983521834 XXXX 9      oy1     O  -0.550
O11     17.613329206   12.691810213    7.745504513 XXXX 9      oy2     O  -0.550
O12     15.061496679   17.174721800    7.745504513 XXXX 9      oy2     O  -0.550
AL1     23.086362310   10.281750046    4.689136732 XXXX 10     ay2     Al  1.449
AL2     20.534529470   14.764661394    4.689136732 XXXX 10     ay2     Al  1.449
SI1     23.847928949    8.703790829    7.370465651 XXXX 10     sy2     Si  1.100
SI2     21.296096392   13.186702334    7.370465651 XXXX 10     sy2     Si  1.100
SI3     23.940752931   11.651642405    7.376071349 XXXX 10     sy1     Si  1.100
SI4     21.388920076   16.134553992    7.376071349 XXXX 10     sy1     Si  1.100
O1      23.654920764    8.779132073    5.751302138 XXXX 10     oy5     O  -0.758
O2      21.103088088   13.262043558    5.751302138 XXXX 10     oy5     O  -0.758
O3      24.094259687   11.523516022    5.754059091 XXXX 10     oy4     O  -0.758
O4      21.542427011   16.006427370    5.754059091 XXXX 10     oy4     O  -0.758
O5      21.494520433   10.492053233    5.683297053 XXXX 10     oy6     O  -0.683
O6      24.102687783   14.974965178    5.683297053 XXXX 10     oy6     O  -0.683
O7      20.169252224   12.207338177    7.988117114 XXXX 10     oy3     O  -0.550
O8      22.777419515   16.690250002    7.988117114 XXXX 10     oy3     O  -0.550
O9      23.641950793   10.186532699    7.983521834 XXXX 10     oy1     O  -0.550
O10     21.090118237   14.669444166    7.983521834 XXXX 10     oy1     O  -0.550
O11     22.773329206   12.691810213    7.745504513 XXXX 10     oy2     O  -0.550
O12     20.221496679   17.174721800    7.745504513 XXXX 10     oy2     O  -0.550
AL1      2.502696978   19.247573065    4.689136732 XXXX 11     ay2     Al  1.449
SI1      3.264263617   17.669613848    7.370465651 XXXX 11     sy2     Si  1.100
SI2      0.712431060   22.152525353    7.370465651 XXXX 11     sy2     Si  1.100
SI3      3.357087599   20.617465424    7.376071349 XXXX 11     sy1     Si  1.100
SI4      0.805254744   25.100377011    7.376071349 XXXX 11     sy1     Si  1.100
O1       3.071255432   17.744955092    5.751302138 XXXX 11     oy5     O  -0.758
O2       0.519422756   22.227866577    5.751302138 XXXX 11     oy5     O  -0.758
O3       3.510594355   20.489339041    5.754059091 XXXX 11     oy4     O  -0.758
O4       0.958761679   24.972250389    5.754059091 XXXX 11     oy4     O  -0.758
O5       0.910855101   19.457876252    5.683297053 XXXX 11     oy6     O  -0.683
O6       3.519022451   23.940788197    5.683297053 XXXX 11     oy6     O  -0.683
O7      -0.414413108   21.173161196    7.988117114 XXXX 11     oy3     O  -0.550
O8       2.193754183   25.656073021    7.988117114 XXXX 11     oy3     O  -0.550
O9       3.058285461   19.152355718    7.983521834 XXXX 11     oy1     O  -0.550
O10      0.506452905   23.635267185    7.983521834 XXXX 11     oy1     O  -0.550
O11      2.189663874   21.657633232    7.745504513 XXXX 11     oy2     O  -0.550
O12     -0.362168653   26.140544819    7.745504513 XXXX 11     oy2     O  -0.550
AL1      7.662696978   19.247573065    4.689136732 XXXX 12     ay2     Al  1.449
AL2      5.110864138   23.730484413    4.689136732 XXXX 12     ay2     Al  1.449
SI1      8.424263617   17.669613848    7.370465651 XXXX 12     sy2     Si  1.100
SI2      5.872431060   22.152525353    7.370465651 XXXX 12     sy2     Si  1.100
SI3      8.517087599   20.617465424    7.376071349 XXXX 12     sy1     Si  1.100
SI4      5.965254744   25.100377011    7.376071349 XXXX 12     sy1     Si  1.100
O1       8.231255432   17.744955092    5.751302138 XXXX 12     oy5     O  -0.758
O2       5.679422756   22.227866577    5.751302138 XXXX 12     oy5     O  -0.758
O3       8.670594355   20.489339041    5.754059091 XXXX 12     oy4     O  -0.758
O4       6.118761679   24.972250389    5.754059091 XXXX 12     oy4     O  -0.758
O5       6.070855101   19.457876252    5.683297053 XXXX 12     oy6     O  -0.683
O6       8.679022451   23.940788197    5.683297053 XXXX 12     oy6     O  -0.683
O7       4.745586892   21.173161196    7.988117114 XXXX 12     oy3     O  -0.550
O8       7.353754183   25.656073021    7.988117114 XXXX 12     oy3     O  -0.550
O9       8.218285461   19.152355718    7.983521834 XXXX 12     oy1     O  -0.550
O10      5.666452905   23.635267185    7.983521834 XXXX 12     oy1     O  -0.550
O11      7.349663874   21.657633232    7.745504513 XXXX 12     oy2     O  -0.550
O12      4.797831347   26.140544819    7.745504513 XXXX 12     oy2     O  -0.550
AL1     12.822696978   19.247573065    4.689136732 XXXX 13     ay2     Al  1.449
AL2     10.270864138   23.730484413    4.689136732 XXXX 13     ay2     Al  1.449
SI1     13.584263617   17.669613848    7.370465651 XXXX 13     sy2     Si  1.100
SI2     11.032431060   22.152525353    7.370465651 XXXX 13     sy2     Si  1.100
SI3     13.677087599   20.617465424    7.376071349 XXXX 13     sy1     Si  1.100
SI4     11.125254744   25.100377011    7.376071349 XXXX 13     sy1     Si  1.100
O1      13.391255432   17.744955092    5.751302138 XXXX 13     oy5     O  -0.758
O2      10.839422756   22.227866577    5.751302138 XXXX 13     oy5     O  -0.758
O3      13.830594355   20.489339041    5.754059091 XXXX 13     oy4     O  -0.758
O4      11.278761679   24.972250389    5.754059091 XXXX 13     oy4     O  -0.758
O5      11.230855101   19.457876252    5.683297053 XXXX 13     oy6     O  -0.683
O6      13.839022451   23.940788197    5.683297053 XXXX 13     oy6     O  -0.683
O7       9.905586892   21.173161196    7.988117114 XXXX 13     oy3     O  -0.550
O8      12.513754183   25.656073021    7.988117114 XXXX 13     oy3     O  -0.550
O9      13.378285461   19.152355718    7.983521834 XXXX 13     oy1     O  -0.550
O10     10.826452905   23.635267185    7.983521834 XXXX 13     oy1     O  -0.550
O11     12.509663874   21.657633232    7.745504513 XXXX 13     oy2     O  -0.550
O12      9.957831347   26.140544819    7.745504513 XXXX 13     oy2     O  -0.550
AL1     17.982696978   19.247573065    4.689136732 XXXX 14     ay2     Al  1.449
AL2     15.430864138   23.730484413    4.689136732 XXXX 14     ay2     Al  1.449
SI1     18.744263617   17.669613848    7.370465651 XXXX 14     sy2     Si  1.100
SI2     16.192431060   22.152525353    7.370465651 XXXX 14     sy2     Si  1.100
SI3     18.837087599   20.617465424    7.376071349 XXXX 14     sy1     Si  1.100
SI4     16.285254744   25.100377011    7.376071349 XXXX 14     sy1     Si  1.100
O1      18.551255432   17.744955092    5.751302138 XXXX 14     oy5     O  -0.758
O2      15.999422756   22.227866577    5.751302138 XXXX 14     oy5     O  -0.758
O3      18.990594355   20.489339041    5.754059091 XXXX 14     oy4     O  -0.758
O4      16.438761679   24.972250389    5.754059091 XXXX 14     oy4     O  -0.758
O5      16.390855101   19.457876252    5.683297053 XXXX 14     oy6     O  -0.683
O6      18.999022451   23.940788197    5.683297053 XXXX 14     oy6     O  -0.683
O7      15.065586892   21.173161196    7.988117114 XXXX 14     oy3     O  -0.550
O8      17.673754183   25.656073021    7.988117114 XXXX 14     oy3     O  -0.550
O9      18.538285461   19.152355718    7.983521834 XXXX 14     oy1     O  -0.550
O10     15.986452905   23.635267185    7.983521834 XXXX 14     oy1     O  -0.550
O11     17.669663874   21.657633232    7.745504513 XXXX 14     oy2     O  -0.550
O12     15.117831347   26.140544819    7.745504513 XXXX 14     oy2     O  -0.550
AL1     23.142696978   19.247573065    4.689136732 XXXX 15     ay2     Al  1.449
AL2     20.590864138   23.730484413    4.689136732 XXXX 15     ay2     Al  1.449
SI1     23.904263617   17.669613848    7.370465651 XXXX 15     sy2     Si  1.100
SI2     21.352431060   22.152525353    7.370465651 XXXX 15     sy2     Si  1.100
SI3     23.997087599   20.617465424    7.376071349 XXXX 15     sy1     Si  1.100
SI4     21.445254744   25.100377011    7.376071349 XXXX 15     sy1     Si  1.100
O1      23.711255432   17.744955092    5.751302138 XXXX 15     oy5     O  -0.758
O2      21.159422756   22.227866577    5.751302138 XXXX 15     oy5     O  -0.758
O3      24.150594355   20.489339041    5.754059091 XXXX 15     oy4     O  -0.758
O4      21.598761679   24.972250389    5.754059091 XXXX 15     oy4     O  -0.758
O5      21.550855101   19.457876252    5.683297053 XXXX 15     oy6     O  -0.683
O6      24.159022451   23.940788197    5.683297053 XXXX 15     oy6     O  -0.683
O7      20.225586892   21.173161196    7.988117114 XXXX 15     oy3     O  -0.550
O8      22.833754183   25.656073021    7.988117114 XXXX 15     oy3     O  -0.550
O9      23.698285461   19.152355718    7.983521834 XXXX 15     oy1     O  -0.550
O10     21.146452905   23.635267185    7.983521834 XXXX 15     oy1     O  -0.550
O11     22.829663874   21.657633232    7.745504513 XXXX 15     oy2     O  -0.550
O12     20.277831347   26.140544819    7.745504513 XXXX 15     oy2     O  -0.550
AL2     25.638194801    5.798838375    4.689136732 XXXX 16     ay2     Al  1.449
AL2     25.694529470   14.764661394    4.689136732 XXXX 17     ay2     Al  1.449
AL2     25.750864138   23.730484413    4.689136732 XXXX 18     ay2     Al  1.449
SI1      3.320598286   26.635436867    7.370465651 XXXX 19     sy2     Si  1.100
SI1      8.480598286   26.635436867    7.370465651 XXXX 20     sy2     Si  1.100
SI1     13.640598286   26.635436867    7.370465651 XXXX 21     sy2     Si  1.100
SI1     18.800598286   26.635436867    7.370465651 XXXX 22     sy2     Si  1.100
SI1     23.960598286   26.635436867    7.370465651 XXXX 23     sy2     Si  1.100
AL1      2.432429193    7.286239384    4.690607112 XXX  24     ay1     Al  1.449
AL2     -0.175737882    2.803328036    4.690607112 XXX  24     ay1     Al  1.449
SI1      1.614527939   -0.101624334    2.009278193 XXX  24     sy2     Si  1.100
SI2      4.222694991    4.381287335    2.009278193 XXX  24     sy2     Si  1.100
SI3      1.578038691    5.916347264    2.003672495 XXX  24     sy1     Si  1.100
SI4      4.129871486    1.433435319    2.003672495 XXX  24     sy1     Si  1.100
O2       4.415703414    4.305946110    3.628441825 XXX  24     oy8     O  -0.758
O3       1.424531816    6.044473885    3.625684753 XXX  24     oy7     O  -0.758
O4       3.976364730    1.561561941    3.625684753 XXX  24     oy7     O  -0.758
O5       4.024271129    7.075936554    3.696446434 XXX  24     oy9     O  -0.683
O6       1.416103838    2.593024491    3.696446434 XXX  24     oy9     O  -0.683
O7       5.349539397    5.360651730    1.391626730 XXX  24     oy3     O  -0.550
O8       2.741372226    0.877739547    1.391626730 XXX  24     oy3     O  -0.550
O9       1.876840709    7.381457089    1.396222010 XXX  24     oy1     O  -0.550
O10      4.428673385    2.898545502    1.396222010 XXX  24     oy1     O  -0.550
O11      2.745462297    4.876179455    1.634239092 XXX  24     oy2     O  -0.550
O12      5.297294734    0.393267809    1.634239092 XXX  24     oy2     O  -0.550
H1       0.384343146    0.693469106    5.788169518 XXX  24     hoy     H   0.200
H2       2.948003410    5.263117550    5.812019721 XXX  24     hoy     H   0.200
H3       4.490051387    7.864687203    3.560120597 XXX  24     hoy     H   0.200
H4       1.937749027    3.416100977    3.558185592 XXX  24     hoy     H   0.200
AL1      7.592429193    7.286239384    4.690607112 XXX  25     ay1     Al  1.449
AL2      4.984262118    2.803328036    4.690607112 XXX  25     ay1     Al  1.449
SI1      6.774527939   -0.101624334    2.009278193 XXX  25     sy2     Si  1.100
SI2      9.382694991    4.381287335    2.009278193 XXX  25     sy2     Si  1.100
SI3      6.738038691    5.916347264    2.003672495 XXX  25     sy1     Si  1.100
SI4      9.289871486    1.433435319    2.003672495 XXX  25     sy1     Si  1.100
O2       9.575703414    4.305946110    3.628441825 XXX  25     oy8     O  -0.758
O3       6.584531816    6.044473885    3.625684753 XXX  25     oy7     O  -0.758
O4       9.136364730    1.561561941    3.625684753 XXX  25     oy7     O  -0.758
O5       9.184271129    7.075936554    3.696446434 XXX  25     oy9     O  -0.683
O6       6.576103838    2.593024491    3.696446434 XXX  25     oy9     O  -0.683
O7      10.509539397    5.360651730    1.391626730 XXX  25     oy3     O  -0.550
O8       7.901372226    0.877739547    1.391626730 XXX  25     oy3     O  -0.550
O9       7.036840709    7.381457089    1.396222010 XXX  25     oy1     O  -0.550
O10      9.588673385    2.898545502    1.396222010 XXX  25     oy1     O  -0.550
O11      7.905462297    4.876179455    1.634239092 XXX  25     oy2     O  -0.550
O12     10.457294734    0.393267809    1.634239092 XXX  25     oy2     O  -0.550
H1       5.544343146    0.693469106    5.788169518 XXX  25     hoy     H   0.200
H2       8.108003410    5.263117550    5.812019721 XXX  25     hoy     H   0.200
H3       9.650051387    7.864687203    3.560120597 XXX  25     hoy     H   0.200
H4       7.097749027    3.416100977    3.558185592 XXX  25     hoy     H   0.200
AL1     12.752429193    7.286239384    4.690607112 XXX  26     ay1     Al  1.449
AL2     10.144262118    2.803328036    4.690607112 XXX  26     ay1     Al  1.449
SI1     11.934527939   -0.101624334    2.009278193 XXX  26     sy2     Si  1.100
SI2     14.542694991    4.381287335    2.009278193 XXX  26     sy2     Si  1.100
SI3     11.898038691    5.916347264    2.003672495 XXX  26     sy1     Si  1.100
SI4     14.449871486    1.433435319    2.003672495 XXX  26     sy1     Si  1.100
O2      14.735703414    4.305946110    3.628441825 XXX  26     oy8     O  -0.758
O3      11.744531816    6.044473885    3.625684753 XXX  26     oy7     O  -0.758
O4      14.296364730    1.561561941    3.625684753 XXX  26     oy7     O  -0.758
O5      14.344271129    7.075936554    3.696446434 XXX  26     oy9     O  -0.683
O6      11.736103838    2.593024491    3.696446434 XXX  26     oy9     O  -0.683
O7      15.669539397    5.360651730    1.391626730 XXX  26     oy3     O  -0.550
O8      13.061372226    0.877739547    1.391626730 XXX  26     oy3     O  -0.550
O9      12.196840709    7.381457089    1.396222010 XXX  26     oy1     O  -0.550
O10     14.748673385    2.898545502    1.396222010 XXX  26     oy1     O  -0.550
O11     13.065462297    4.876179455    1.634239092 XXX  26     oy2     O  -0.550
O12     15.617294734    0.393267809    1.634239092 XXX  26     oy2     O  -0.550
H1      10.704343146    0.693469106    5.788169518 XXX  26     hoy     H   0.200
H2      13.268003410    5.263117550    5.812019721 XXX  26     hoy     H   0.200
H3      14.810051387    7.864687203    3.560120597 XXX  26     hoy     H   0.200
H4      12.257749027    3.416100977    3.558185592 XXX  26     hoy     H   0.200
AL1     17.912429193    7.286239384    4.690607112 XXX  27     ay1     Al  1.449
AL2     15.304262118    2.803328036    4.690607112 XXX  27     ay1     Al  1.449
SI1     17.094527939   -0.101624334    2.009278193 XXX  27     sy2     Si  1.100
SI2     19.702694991    4.381287335    2.009278193 XXX  27     sy2     Si  1.100
SI3     17.058038691    5.916347264    2.003672495 XXX  27     sy1     Si  1.100
SI4     19.609871486    1.433435319    2.003672495 XXX  27     sy1     Si  1.100
O2      19.895703414    4.305946110    3.628441825 XXX  27     oy8     O  -0.758
O3      16.904531816    6.044473885    3.625684753 XXX  27     oy7     O  -0.758
O4      19.456364730    1.561561941    3.625684753 XXX  27     oy7     O  -0.758
O5      19.504271129    7.075936554    3.696446434 XXX  27     oy9     O  -0.683
O6      16.896103838    2.593024491    3.696446434 XXX  27     oy9     O  -0.683
O7      20.829539397    5.360651730    1.391626730 XXX  27     oy3     O  -0.550
O8      18.221372226    0.877739547    1.391626730 XXX  27     oy3     O  -0.550
O9      17.356840709    7.381457089    1.396222010 XXX  27     oy1     O  -0.550
O10     19.908673385    2.898545502    1.396222010 XXX  27     oy1     O  -0.550
O11     18.225462297    4.876179455    1.634239092 XXX  27     oy2     O  -0.550
O12     20.777294734    0.393267809    1.634239092 XXX  27     oy2     O  -0.550
H1      15.864343146    0.693469106    5.788169518 XXX  27     hoy     H   0.200
H2      18.428003410    5.263117550    5.812019721 XXX  27     hoy     H   0.200
H3      19.970051387    7.864687203    3.560120597 XXX  27     hoy     H   0.200
H4      17.417749027    3.416100977    3.558185592 XXX  27     hoy     H   0.200
AL1     23.072429193    7.286239384    4.690607112 XXX  28     ay1     Al  1.449
AL2     20.464262118    2.803328036    4.690607112 XXX  28     ay1     Al  1.449
SI1     22.254527939   -0.101624334    2.009278193 XXX  28     sy2     Si  1.100
SI2     24.862694991    4.381287335    2.009278193 XXX  28     sy2     Si  1.100
SI3     22.218038691    5.916347264    2.003672495 XXX  28     sy1     Si  1.100
SI4     24.769871486    1.433435319    2.003672495 XXX  28     sy1     Si  1.100
O2      25.055703414    4.305946110    3.628441825 XXX  28     oy8     O  -0.758
O3      22.064531816    6.044473885    3.625684753 XXX  28     oy7     O  -0.758
O4      24.616364730    1.561561941    3.625684753 XXX  28     oy7     O  -0.758
O5      24.664271129    7.075936554    3.696446434 XXX  28     oy9     O  -0.683
O6      22.056103838    2.593024491    3.696446434 XXX  28     oy9     O  -0.683
O7      25.989539397    5.360651730    1.391626730 XXX  28     oy3     O  -0.550
O8      23.381372226    0.877739547    1.391626730 XXX  28     oy3     O  -0.550
O9      22.516840709    7.381457089    1.396222010 XXX  28     oy1     O  -0.550
O10     25.068673385    2.898545502    1.396222010 XXX  28     oy1     O  -0.550
O11     23.385462297    4.876179455    1.634239092 XXX  28     oy2     O  -0.550
O12     25.937294734    0.393267809    1.634239092 XXX  28     oy2     O  -0.550
H1      21.024343146    0.693469106    5.788169518 XXX  28     hoy     H   0.200
H2      23.588003410    5.263117550    5.812019721 XXX  28     hoy     H   0.200
H3      25.130051387    7.864687203    3.560120597 XXX  28     hoy     H   0.200
H4      22.577749027    3.416100977    3.558185592 XXX  28     hoy     H   0.200
AL1      2.488763862   16.252062403    4.690607112 XXX  29     ay1     Al  1.449
AL2     -0.119403213   11.769151055    4.690607112 XXX  29     ay1     Al  1.449
SI1      1.670862608    8.864198685    2.009278193 XXX  29     sy2     Si  1.100
SI2      4.279029660   13.347110354    2.009278193 XXX  29     sy2     Si  1.100
SI3      1.634373360   14.882170283    2.003672495 XXX  29     sy1     Si  1.100
SI4      4.186206155   10.399258338    2.003672495 XXX  29     sy1     Si  1.100
O1       1.863870673    8.788857440    3.628441825 XXX  29     oy8     O  -0.758
O2       4.472038083   13.271769129    3.628441825 XXX  29     oy8     O  -0.758
O3       1.480866485   15.010296904    3.625684753 XXX  29     oy7     O  -0.758
O4       4.032699399   10.527384960    3.625684753 XXX  29     oy7     O  -0.758
O5       4.080605798   16.041759573    3.696446434 XXX  29     oy9     O  -0.683
O6       1.472438507   11.558847510    3.696446434 XXX  29     oy9     O  -0.683
O7       5.405874066   14.326474749    1.391626730 XXX  29     oy3     O  -0.550
O8       2.797706895    9.843562566    1.391626730 XXX  29     oy3     O  -0.550
O9       1.933175378   16.347280108    1.396222010 XXX  29     oy1     O  -0.550
O10      4.485008054   11.864368521    1.396222010 XXX  29     oy1     O  -0.550
O11      2.801796966   13.842002474    1.634239092 XXX  29     oy2     O  -0.550
O12      5.353629403    9.359090828    1.634239092 XXX  29     oy2     O  -0.550
H1       0.440677815    9.659292125    5.788169518 XXX  29     hoy     H   0.200
H2       3.004338079   14.228940569    5.812019721 XXX  29     hoy     H   0.200
H3       4.546386056   16.830510222    3.560120597 XXX  29     hoy     H   0.200
H4       1.994083696   12.381923996    3.558185592 XXX  29     hoy     H   0.200
AL1      7.648763862   16.252062403    4.690607112 XXX  30     ay1     Al  1.449
AL2      5.040596787   11.769151055    4.690607112 XXX  30     ay1     Al  1.449
SI1      6.830862608    8.864198685    2.009278193 XXX  30     sy2     Si  1.100
SI2      9.439029660   13.347110354    2.009278193 XXX  30     sy2     Si  1.100
SI3      6.794373360   14.882170283    2.003672495 XXX  30     sy1     Si  1.100
SI4      9.346206155   10.399258338    2.003672495 XXX  30     sy1     Si  1.100
O1       7.023870673    8.788857440    3.628441825 XXX  30     oy8     O  -0.758
O2       9.632038083   13.271769129    3.628441825 XXX  30     oy8     O  -0.758
O3       6.640866485   15.010296904    3.625684753 XXX  30     oy7     O  -0.758
O4       9.192699399   10.527384960    3.625684753 XXX  30     oy7     O  -0.758
O5       9.240605798   16.041759573    3.696446434 XXX  30     oy9     O  -0.683
O6       6.632438507   11.558847510    3.696446434 XXX  30     oy9     O  -0.683
O7      10.565874066   14.326474749    1.391626730 XXX  30     oy3     O  -0.550
O8       7.957706895    9.843562566    1.391626730 XXX  30     oy3     O  -0.550
O9       7.093175378   16.347280108    1.396222010 XXX  30     oy1     O  -0.550
O10      9.645008054   11.864368521    1.396222010 XXX  30     oy1     O  -0.550
O11      7.961796966   13.842002474    1.634239092 XXX  30     oy2     O  -0.550
O12     10.513629403    9.359090828    1.634239092 XXX  30     oy2     O  -0.550
H1       5.600677815    9.659292125    5.788169518 XXX  30     hoy     H   0.200
H2       8.164338079   14.228940569    5.812019721 XXX  30     hoy     H   0.200
H3       9.706386056   16.830510222    3.560120597 XXX  30     hoy     H   0.200
H4       7.154083696   12.381923996    3.558185592 XXX  30     hoy     H   0.200
AL1     12.808763862   16.252062403    4.690607112 XXX  31     ay1     Al  1.449
AL2     10.200596787   11.769151055    4.690607112 XXX  31     ay1     Al  1.449
SI1     11.990862608    8.864198685    2.009278193 XXX  31     sy2     Si  1.100
SI2     14.599029660   13.347110354    2.009278193 XXX  31     sy2     Si  1.100
SI3     11.954373360   14.882170283    2.003672495 XXX  31     sy1     Si  1.100
SI4     14.506206155   10.399258338    2.003672495 XXX  31     sy1     Si  1.100
O1      12.183870673    8.788857440    3.628441825 XXX  31     oy8     O  -0.758
O2      14.792038083   13.271769129    3.628441825 XXX  31     oy8     O  -0.758
O3      11.800866485   15.010296904    3.625684753 XXX  31     oy7     O  -0.758
O4      14.352699399   10.527384960    3.625684753 XXX  31     oy7     O  -0.758
O5      14.400605798   16.041759573    3.696446434 XXX  31     oy9     O  -0.683
O6      11.792438507   11.558847510    3.696446434 XXX  31     oy9     O  -0.683
O7      15.725874066   14.326474749    1.391626730 XXX  31     oy3     O  -0.550
O8      13.117706895    9.843562566    1.391626730 XXX  31     oy3     O  -0.550
O9      12.253175378   16.347280108    1.396222010 XXX  31     oy1     O  -0.550
O10     14.805008054   11.864368521    1.396222010 XXX  31     oy1     O  -0.550
O11     13.121796966   13.842002474    1.634239092 XXX  31     oy2     O  -0.550
O12     15.673629403    9.359090828    1.634239092 XXX  31     oy2     O  -0.550
H1      10.760677815    9.659292125    5.788169518 XXX  31     hoy     H   0.200
H2      13.324338079   14.228940569    5.812019721 XXX  31     hoy     H   0.200
H3      14.866386056   16.830510222    3.560120597 XXX  31     hoy     H   0.200
H4      12.314083696   12.381923996    3.558185592 XXX  31     hoy     H   0.200
AL1     17.968763862   16.252062403    4.690607112 XXX  32     ay1     Al  1.449
AL2     15.360596787   11.769151055    4.690607112 XXX  32     ay1     Al  1.449
SI1     17.150862608    8.864198685    2.009278193 XXX  32     sy2     Si  1.100
SI2     19.759029660   13.347110354    2.009278193 XXX  32     sy2     Si  1.100
SI3     17.114373360   14.882170283    2.003672495 XXX  32     sy1     Si  1.100
SI4     19.666206155   10.399258338    2.003672495 XXX  32     sy1     Si  1.100
O1      17.343870673    8.788857440    3.628441825 XXX  32     oy8     O  -0.758
O2      19.952038083   13.271769129    3.628441825 XXX  32     oy8     O  -0.758
O3      16.960866485   15.010296904    3.625684753 XXX  32     oy7     O  -0.758
O4      19.512699399   10.527384960    3.625684753 XXX  32     oy7     O  -0.758
O5      19.560605798   16.041759573    3.696446434 XXX  32     oy9     O  -0.683
O6      16.952438507   11.558847510    3.696446434 XXX  32     oy9     O  -0.683
O7      20.885874066   14.326474749    1.391626730 XXX  32     oy3     O  -0.550
O8      18.277706895    9.843562566    1.391626730 XXX  32     oy3     O  -0.550
O9      17.413175378   16.347280108    1.396222010 XXX  32     oy1     O  -0.550
O10     19.965008054   11.864368521    1.396222010 XXX  32     oy1     O  -0.550
O11     18.281796966   13.842002474    1.634239092 XXX  32     oy2     O  -0.550
O12     20.833629403    9.359090828    1.634239092 XXX  32     oy2     O  -0.550
H1      15.920677815    9.659292125    5.788169518 XXX  32     hoy     H   0.200
H2      18.484338079   14.228940569    5.812019721 XXX  32     hoy     H   0.200
H3      20.026386056   16.830510222    3.560120597 XXX  32     hoy     H   0.200
H4      17.474083696   12.381923996    3.558185592 XXX  32     hoy     H   0.200
AL1     23.128763862   16.252062403    4.690607112 XXX  33     ay1     Al  1.449
AL2     20.520596787   11.769151055    4.690607112 XXX  33     ay1     Al  1.449
SI1     22.310862608    8.864198685    2.009278193 XXX  33     sy2     Si  1.100
SI2     24.919029660   13.347110354    2.009278193 XXX  33     sy2     Si  1.100
SI3     22.274373360   14.882170283    2.003672495 XXX  33     sy1     Si  1.100
SI4     24.826206155   10.399258338    2.003672495 XXX  33     sy1     Si  1.100
O1      22.503870673    8.788857440    3.628441825 XXX  33     oy8     O  -0.758
O2      25.112038083   13.271769129    3.628441825 XXX  33     oy8     O  -0.758
O3      22.120866485   15.010296904    3.625684753 XXX  33     oy7     O  -0.758
O4      24.672699399   10.527384960    3.625684753 XXX  33     oy7     O  -0.758
O5      24.720605798   16.041759573    3.696446434 XXX  33     oy9     O  -0.683
O6      22.112438507   11.558847510    3.696446434 XXX  33     oy9     O  -0.683
O7      26.045874066   14.326474749    1.391626730 XXX  33     oy3     O  -0.550
O8      23.437706895    9.843562566    1.391626730 XXX  33     oy3     O  -0.550
O9      22.573175378   16.347280108    1.396222010 XXX  33     oy1     O  -0.550
O10     25.125008054   11.864368521    1.396222010 XXX  33     oy1     O  -0.550
O11     23.441796966   13.842002474    1.634239092 XXX  33     oy2     O  -0.550
O12     25.993629403    9.359090828    1.634239092 XXX  33     oy2     O  -0.550
H1      21.080677815    9.659292125    5.788169518 XXX  33     hoy     H   0.200
H2      23.644338079   14.228940569    5.812019721 XXX  33     hoy     H   0.200
H3      25.186386056   16.830510222    3.560120597 XXX  33     hoy     H   0.200
H4      22.634083696   12.381923996    3.558185592 XXX  33     hoy     H   0.200
AL1      2.545098530   25.217885422    4.690607112 XXX  34     ay1     Al  1.449
AL2     -0.063068545   20.734974074    4.690607112 XXX  34     ay1     Al  1.449
SI1      1.727197276   17.830021704    2.009278193 XXX  34     sy2     Si  1.100
SI2      4.335364328   22.312933373    2.009278193 XXX  34     sy2     Si  1.100
SI3      1.690708028   23.847993302    2.003672495 XXX  34     sy1     Si  1.100
SI4      4.242540823   19.365081357    2.003672495 XXX  34     sy1     Si  1.100
O1       1.920205341   17.754680459    3.628441825 XXX  34     oy8     O  -0.758
O2       4.528372751   22.237592148    3.628441825 XXX  34     oy8     O  -0.758
O3       1.537201153   23.976119923    3.625684753 XXX  34     oy7     O  -0.758
O4       4.089034067   19.493207979    3.625684753 XXX  34     oy7     O  -0.758
O5       4.136940466   25.007582592    3.696446434 XXX  34     oy9     O  -0.683
O6       1.528773175   20.524670529    3.696446434 XXX  34     oy9     O  -0.683
O7       5.462208734   23.292297768    1.391626730 XXX  34     oy3     O  -0.550
O8       2.854041563   18.809385585    1.391626730 XXX  34     oy3     O  -0.550
O9       1.989510046   25.313103127    1.396222010 XXX  34     oy1     O  -0.550
O10      4.541342722   20.830191540    1.396222010 XXX  34     oy1     O  -0.550
O11      2.858131634   22.807825493    1.634239092 XXX  34     oy2     O  -0.550
O12      5.409964071   18.324913847    1.634239092 XXX  34     oy2     O  -0.550
H1       0.497012483   18.625115144    5.788169518 XXX  34     hoy     H   0.200
H2       3.060672747   23.194763588    5.812019721 XXX  34     hoy     H   0.200
H3       4.602720724   25.796333241    3.560120597 XXX  34     hoy     H   0.200
H4       2.050418364   21.347747015    3.558185592 XXX  34     hoy     H   0.200
AL1      7.705098530   25.217885422    4.690607112 XXX  35     ay1     Al  1.449
AL2      5.096931455   20.734974074    4.690607112 XXX  35     ay1     Al  1.449
SI1      6.887197276   17.830021704    2.009278193 XXX  35     sy2     Si  1.100
SI2      9.495364328   22.312933373    2.009278193 XXX  35     sy2     Si  1.100
SI3      6.850708028   23.847993302    2.003672495 XXX  35     sy1     Si  1.100
SI4      9.402540823   19.365081357    2.003672495 XXX  35     sy1     Si  1.100
O1       7.080205341   17.754680459    3.628441825 XXX  35     oy8     O  -0.758
O2       9.688372751   22.237592148    3.628441825 XXX  35     oy8     O  -0.758
O3       6.697201153   23.976119923    3.625684753 XXX  35     oy7     O  -0.758
O4       9.249034067   19.493207979    3.625684753 XXX  35     oy7     O  -0.758
O5       9.296940466   25.007582592    3.696446434 XXX  35     oy9     O  -0.683
O6       6.688773175   20.524670529    3.696446434 XXX  35     oy9     O  -0.683
O7      10.622208734   23.292297768    1.391626730 XXX  35     oy3     O  -0.550
O8       8.014041563   18.809385585    1.391626730 XXX  35     oy3     O  -0.550
O9       7.149510046   25.313103127    1.396222010 XXX  35     oy1     O  -0.550
O10      9.701342722   20.830191540    1.396222010 XXX  35     oy1     O  -0.550
O11      8.018131634   22.807825493    1.634239092 XXX  35     oy2     O  -0.550
O12     10.569964071   18.324913847    1.634239092 XXX  35     oy2     O  -0.550
H1       5.657012483   18.625115144    5.788169518 XXX  35     hoy     H   0.200
H2       8.220672747   23.194763588    5.812019721 XXX  35     hoy     H   0.200
H3       9.762720724   25.796333241    3.560120597 XXX  35     hoy     H   0.200
H4       7.210418364   21.347747015    3.558185592 XXX  35     hoy     H   0.200
AL1     12.865098530   25.217885422    4.690607112 XXX  36     ay1     Al  1.449
AL2     10.256931455   20.734974074    4.690607112 XXX  36     ay1     Al  1.449
SI1     12.047197276   17.830021704    2.009278193 XXX  36     sy2     Si  1.100
SI2     14.655364328   22.312933373    2.009278193 XXX  36     sy2     Si  1.100
SI3     12.010708028   23.847993302    2.003672495 XXX  36     sy1     Si  1.100
SI4     14.562540823   19.365081357    2.003672495 XXX  36     sy1     Si  1.100
O1      12.240205341   17.754680459    3.628441825 XXX  36     oy8     O  -0.758
O2      14.848372751   22.237592148    3.628441825 XXX  36     oy8     O  -0.758
O3      11.857201153   23.976119923    3.625684753 XXX  36     oy7     O  -0.758
O4      14.409034067   19.493207979    3.625684753 XXX  36     oy7     O  -0.758
O5      14.456940466   25.007582592    3.696446434 XXX  36     oy9     O  -0.683
O6      11.848773175   20.524670529    3.696446434 XXX  36     oy9     O  -0.683
O7      15.782208734   23.292297768    1.391626730 XXX  36     oy3     O  -0.550
O8      13.174041563   18.809385585    1.391626730 XXX  36     oy3     O  -0.550
O9      12.309510046   25.313103127    1.396222010 XXX  36     oy1     O  -0.550
O10     14.861342722   20.830191540    1.396222010 XXX  36     oy1     O  -0.550
O11     13.178131634   22.807825493    1.634239092 XXX  36     oy2     O  -0.550
O12     15.729964071   18.324913847    1.634239092 XXX  36     oy2     O  -0.550
H1      10.817012483   18.625115144    5.788169518 XXX  36     hoy     H   0.200
H2      13.380672747   23.194763588    5.812019721 XXX  36     hoy     H   0.200
H3      14.922720724   25.796333241    3.560120597 XXX  36     hoy     H   0.200
H4      12.370418364   21.347747015    3.558185592 XXX  36     hoy     H   0.200
AL1     18.025098530   25.217885422    4.690607112 XXX  37     ay1     Al  1.449
AL2     15.416931455   20.734974074    4.690607112 XXX  37     ay1     Al  1.449
SI1     17.207197276   17.830021704    2.009278193 XXX  37     sy2     Si  1.100
SI2     19.815364328   22.312933373    2.009278193 XXX  37     sy2     Si  1.100
SI3     17.170708028   23.847993302    2.003672495 XXX  37     sy1     Si  1.100
SI4     19.722540823   19.365081357    2.003672495 XXX  37     sy1     Si  1.100
O1      17.400205341   17.754680459    3.628441825 XXX  37     oy8     O  -0.758
O2      20.008372751   22.237592148    3.628441825 XXX  37     oy8     O  -0.758
O3      17.017201153   23.976119923    3.625684753 XXX  37     oy7     O  -0.758
O4      19.569034067   19.493207979    3.625684753 XXX  37     oy7     O  -0.758
O5      19.616940466   25.007582592    3.696446434 XXX  37     oy9     O  -0.683
O6      17.008773175   20.524670529    3.696446434 XXX  37     oy9     O  -0.683
O7      20.942208734   23.292297768    1.391626730 XXX  37     oy3     O  -0.550
O8      18.334041563   18.809385585    1.391626730 XXX  37     oy3     O  -0.550
O9      17.469510046   25.313103127    1.396222010 XXX  37     oy1     O  -0.550
O10     20.021342722   20.830191540    1.396222010 XXX  37     oy1     O  -0.550
O11     18.338131634   22.807825493    1.634239092 XXX  37     oy2     O  -0.550
O12     20.889964071   18.324913847    1.634239092 XXX  37     oy2     O  -0.550
H1      15.977012483   18.625115144    5.788169518 XXX  37     hoy     H   0.200
H2      18.540672747   23.194763588    5.812019721 XXX  37     hoy     H   0.200
H3      20.082720724   25.796333241    3.560120597 XXX  37     hoy     H   0.200
H4      17.530418364   21.347747015    3.558185592 XXX  37     hoy     H   0.200
AL1     23.185098530   25.217885422    4.690607112 XXX  38     ay1     Al  1.449
AL2     20.576931455   20.734974074    4.690607112 XXX  38     ay1     Al  1.449
SI1     22.367197276   17.830021704    2.009278193 XXX  38     sy2     Si  1.100
SI2     24.975364328   22.312933373    2.009278193 XXX  38     sy2     Si  1.100
SI3     22.330708028   23.847993302    2.003672495 XXX  38     sy1     Si  1.100
SI4     24.882540823   19.365081357    2.003672495 XXX  38     sy1     Si  1.100
O1      22.560205341   17.754680459    3.628441825 XXX  38     oy8     O  -0.758
O2      25.168372751   22.237592148    3.628441825 XXX  38     oy8     O  -0.758
O3      22.177201153   23.976119923    3.625684753 XXX  38     oy7     O  -0.758
O4      24.729034067   19.493207979    3.625684753 XXX  38     oy7     O  -0.758
O5      24.776940466   25.007582592    3.696446434 XXX  38     oy9     O  -0.683
O6      22.168773175   20.524670529    3.696446434 XXX  38     oy9     O  -0.683
O7      26.102208734   23.292297768    1.391626730 XXX  38     oy3     O  -0.550
O8      23.494041563   18.809385585    1.391626730 XXX  38     oy3     O  -0.550
O9      22.629510046   25.313103127    1.396222010 XXX  38     oy1     O  -0.550
O10     25.181342722   20.830191540    1.396222010 XXX  38     oy1     O  -0.550
O11     23.498131634   22.807825493    1.634239092 XXX  38     oy2     O  -0.550
O12     26.049964071   18.324913847    1.634239092 XXX  38     oy2     O  -0.550
H1      21.137012483   18.625115144    5.788169518 XXX  38     hoy     H   0.200
H2      23.700672747   23.194763588    5.812019721 XXX  38     hoy     H   0.200
H3      25.242720724   25.796333241    3.560120597 XXX  38     hoy     H   0.200
H4      22.690418364   21.347747015    3.558185592 XXX  38     hoy     H   0.200
O1       1.976540010   26.720503478    3.628441825 XXX  39     oy8     O  -0.758
O1       7.136540010   26.720503478    3.628441825 XXX  40     oy8     O  -0.758
O1      12.296540010   26.720503478    3.628441825 XXX  41     oy8     O  -0.758
O1      17.456540010   26.720503478    3.628441825 XXX  42     oy8     O  -0.758
O1      22.616540010   26.720503478    3.628441825 XXX  43     oy8     O  -0.758
end
end
