!BIOSYM archive 3
PBC=ON

!DATE Thu Mar 10 10:36:37 2005
PBC   11.5172   11.5172   26.7946   90.0000   90.0000  120.0000 (P1)
AL1      0.000000000    0.000000000    0.000000000 XXX  1      ac3     Al  1.500
CA1      2.879300117    1.662364602    0.568849385 XXX  1      ca+m    Ca  1.400
O1       1.602618337   -0.271297902    0.994079649 XXX  1      oc21    O  -0.800
O2       0.000000000    0.000000000   20.937299728 XXX  1      o*      O  -0.820
S1       0.000000000    0.000000000   13.397299767 XXX  1      s_m     S   1.000
O3      -0.566358328    1.523557186    0.994079649 XXX  1      oc18    O  -0.800
O4       5.031822681   -0.496760905   14.244731903 XXX  1      o*      O  -0.820
O5       4.722340107   -1.252259254    0.994079649 XXX  1      oc16    O  -0.800
CA2     -0.000000000    3.324729204   26.225749969 XXX  1      ca+m    Ca  1.400
O6       4.155981541    0.271297902   -0.994080067 XXX  1      oc20    O  -0.800
O7       0.000000000    0.000000000    5.857299328 XXX  1      o*      O  -0.820
O8       0.000000000    0.000000000   12.156709671 XXX  1      oc15    O  -0.600
O9       6.324958324   -1.523557186   -0.994080067 XXX  1      oc19    O  -0.800
O10      1.307202220   -0.438864201   14.032332420 XXX  1      oc15    O  -0.600
O11      1.036260128    1.252259254   -0.994080067 XXX  1      oc17    O  -0.800
O12     -0.273533493    1.351502419   14.032332420 XXX  1      oc15    O  -0.600
AL2      2.879300117    1.662364602    8.931532860 XXX  1      ac3     Al  1.500
CA3     -0.000000000    3.324729204    9.500382423 XXX  1      ca+m    Ca  1.400
O13      4.481918335    1.391066670    9.925613403 XXX  1      oc21    O  -0.800
O14      2.879300117    1.662364602    3.074233770 XXX  1      o*      O  -0.820
S2       8.637900352    1.662364602   22.328832626 XXX  1      s_m     S   1.000
O15      9.671568871    2.575002909   21.693801880 XXX  1      oc15    O  -0.600
O16      8.637900352    1.662364602   23.569423676 XXX  1      oc15    O  -0.600
O17      2.312941790    3.185921907    9.925613403 XXX  1      oc18    O  -0.800
O18      7.330698013    2.101228952   21.693801880 XXX  1      oc15    O  -0.600
O19      1.843039989    0.410105348    9.925613403 XXX  1      oc16    O  -0.800
O20      8.911433220    0.310862184   21.693801880 XXX  1      oc15    O  -0.600
CA4      0.000000000    0.000000000    8.362684250 XXX  1      ca+m    Ca  1.400
O21      1.276681662    1.933662534    7.937453747 XXX  1      oc20    O  -0.800
O22      2.879300117    1.662364602   14.788832664 XXX  1      o*      O  -0.820
O23      3.445658207    0.138807446    7.937453747 XXX  1      oc19    O  -0.800
O24      3.915560007    2.914623976    7.937453747 XXX  1      oc17    O  -0.800
AL3     -0.000000000    3.324729204   17.863065720 XXX  1      ac3     Al  1.500
CA5      0.000000000    0.000000000   18.431915283 XXX  1      ca+m    Ca  1.400
O25      1.602618337    3.053431273   18.857147217 XXX  1      oc21    O  -0.800
O26     -0.000000000    3.324729204   12.005766869 XXX  1      o*      O  -0.820
O27      0.824849904    3.738831520    3.652184486 XXX  1      o*      O  -0.820
O28     -0.566358328    4.848286629   18.857147217 XXX  1      oc18    O  -0.800
O29     -1.036260128    2.072469950   18.857147217 XXX  1      oc16    O  -0.800
CA6      2.879300117    1.662364602   17.294218063 XXX  1      ca+m    Ca  1.400
O30     -1.602618337    3.596027136   16.868986130 XXX  1      oc20    O  -0.800
O31     -0.000000000    3.324729204   23.720365524 XXX  1      o*      O  -0.820
O32     -1.215649009    2.641522884    5.146234035 XXX  1      o*      O  -0.820
O33      0.566358328    1.801172018   16.868986130 XXX  1      oc19    O  -0.800
O34      1.036260128    4.576988697   16.868986130 XXX  1      oc17    O  -0.800
AL4      5.758600235    0.000000000    0.000000000 XXX  1      ac3     Al  1.500
CA7      8.637900352    1.662364602    0.568849385 XXX  1      ca+m    Ca  1.400
O35      7.361218452   -0.271297902    0.994079649 XXX  1      oc21    O  -0.800
O36      5.758600235    0.000000000   20.937299728 XXX  1      o*      O  -0.820
O37      6.935245514    0.737604201   12.691995621 XXX  1      o*      O  -0.820
O38      5.192241669    1.523557186    0.994079649 XXX  1      oc18    O  -0.800
O39     -1.036260247   -1.252259254    0.994079649 XXX  1      oc16    O  -0.800
CA8      5.758600235    3.324729204   26.225749969 XXX  1      ca+m    Ca  1.400
O40     -1.602618694    0.271297902   -0.994080067 XXX  1      oc20    O  -0.800
O41      5.758600235    0.000000000    5.857299328 XXX  1      o*      O  -0.820
O42     -1.033668637   -0.912638128   14.032332420 XXX  1      oc15    O  -0.600
O43      0.566357970   -1.523557186   -0.994080067 XXX  1      oc19    O  -0.800
O44      6.794859886    1.252259254   -0.994080067 XXX  1      oc17    O  -0.800
AL5      8.637900352    1.662364602    8.931532860 XXX  1      ac3     Al  1.500
CA9      5.758600235    3.324729204    9.500382423 XXX  1      ca+m    Ca  1.400
O45     10.240518570    1.391066670    9.925613403 XXX  1      oc21    O  -0.800
O46      8.637900352    1.662364602    3.074233770 XXX  1      o*      O  -0.820
O47      1.530292630    2.435625315   21.557168961 XXX  1      o*      O  -0.820
O48      8.071541786    3.185921907    9.925613403 XXX  1      oc18    O  -0.800
O49      7.601639748    0.410105348    9.925613403 XXX  1      oc16    O  -0.800
CA10     5.758600235    0.000000000    8.362684250 XXX  1      ca+m    Ca  1.400
O50      7.035281658    1.933662534    7.937453747 XXX  1      oc20    O  -0.800
O51      8.637900352    1.662364602   14.788832664 XXX  1      o*      O  -0.820
O52      9.204257965    0.138807446    7.937453747 XXX  1      oc19    O  -0.800
O53      3.927820921    1.495315909   22.688299179 XXX  1      o*      O  -0.820
O54      9.674160004    2.914623976    7.937453747 XXX  1      oc17    O  -0.800
AL6      5.758600235    3.324729204   17.863065720 XXX  1      ac3     Al  1.500
CA11     5.758600235    0.000000000   18.431915283 XXX  1      ca+m    Ca  1.400
O55      7.361218452    3.053431273   18.857147217 XXX  1      oc21    O  -0.800
O56      5.758600235    3.324729204   12.005766869 XXX  1      o*      O  -0.820
S3       5.758600235    3.324729204    4.465766430 XXX  1      s_m     S   1.000
O57      6.792268753    4.237367630    3.830734730 XXX  1      oc15    O  -0.600
O58      5.758600235    3.324729204    5.706356525 XXX  1      oc15    O  -0.600
O59      5.192241669    4.848286629   18.857147217 XXX  1      oc18    O  -0.800
O60      4.451397896    3.763593435    3.830734730 XXX  1      oc15    O  -0.600
O61      4.722340107    2.072469950   18.857147217 XXX  1      oc16    O  -0.800
O62      6.032133579    1.973226786    3.830734730 XXX  1      oc15    O  -0.600
CA12     8.637900352    1.662364602   17.294218063 XXX  1      ca+m    Ca  1.400
O63      4.155981541    3.596027136   16.868986130 XXX  1      oc20    O  -0.800
O64      5.758600235    3.324729204   23.720365524 XXX  1      o*      O  -0.820
O65      6.324958324    1.801172018   16.868986130 XXX  1      oc19    O  -0.800
O66      6.794859886    4.576988697   16.868986130 XXX  1      oc17    O  -0.800
H2       0.480125189   -0.168716475   21.771612167 XXX  1      h*      H   0.410
H3      -0.913331926    0.173899293   21.284320831 XXX  1      h*      H   0.410
H5       4.944647789   -1.453233957   14.441386223 XXX  1      h*      H   0.410
H6       4.104637623   -0.177699864   14.281846046 XXX  1      h*      H   0.410
H9      -0.315726578    0.798955321    5.377677917 XXX  1      h*      H   0.410
H10      0.594050348   -0.405726552    5.175510406 XXX  1      h*      H   0.410
H14      3.632062674    2.189949512    3.445704222 XXX  1      h*      H   0.410
H15      3.119518280    0.768180370    3.433999300 XXX  1      h*      H   0.410
H19      2.156335354    1.094195962   14.414495468 XXX  1      h*      H   0.410
H20      2.591465473    2.545896292   14.438649178 XXX  1      h*      H   0.410
H23      1.810798883    2.732438564   19.705444336 XXX  1      hoy     H   0.200
H24      0.742536187    3.669283390   12.565628052 XXX  1      h*      H   0.410
H25     -0.219286472    2.546393871   12.581095695 XXX  1      h*      H   0.410
H26      1.681349993    3.260672808    3.580251932 XXX  1      h*      H   0.410
H27      1.090691924    4.668395519    3.502977848 XXX  1      h*      H   0.410
H28     -0.477153391    5.122150898   19.746019363 XXX  1      hoy     H   0.200
H29     -1.407141924    2.056726694   19.714836121 XXX  1      hoy     H   0.200
H30     -1.808369637    3.678159237   15.964114189 XXX  1      hoy     H   0.200
H31      0.096444987    4.183432102   23.231433868 XXX  1      h*      H   0.410
H32     -0.793729842    2.987029314   23.230434418 XXX  1      h*      H   0.410
H33     -0.484896034    3.059330463    4.623032093 XXX  1      h*      H   0.410
H34     -1.715009809    3.448968410    5.405210972 XXX  1      h*      H   0.410
H35      0.437297612    1.516306996   15.988078117 XXX  1      hoy     H   0.200
H36      1.340552688    4.614377975   15.985708237 XXX  1      hoy     H   0.200
H38      6.447677612    0.618551910   21.297834396 XXX  1      h*      H   0.410
H39      6.091787815   -0.863493443   21.300853729 XXX  1      h*      H   0.410
H40      7.406275272   -0.099828959   12.478697777 XXX  1      h*      H   0.410
H41      6.249973774    0.371932983   13.305525780 XXX  1      h*      H   0.410
H45      5.958960056    0.788750947    5.287728310 XXX  1      h*      H   0.410
H46      5.015460014   -0.347970247    5.298101425 XXX  1      h*      H   0.410
H50      7.697926044    1.785736442    3.375846386 XXX  1      h*      H   0.410
H51      9.105676651    2.034946918    3.857146502 XXX  1      h*      H   0.410
H52      0.693122983    2.421087503   21.040727615 XXX  1      h*      H   0.410
H53      1.152319193    2.658431768   22.440074921 XXX  1      h*      H   0.410
H57      8.111249924    1.459239244   13.984111786 XXX  1      h*      H   0.410
H58      9.555245399    1.517689109   14.439041138 XXX  1      h*      H   0.410
H60      3.080104351    1.560995579   22.194473267 XXX  1      h*      H   0.410
H61      4.403396130    0.821019471   22.153736115 XXX  1      h*      H   0.410
H63      7.548076630    2.843316078   19.749261856 XXX  1      hoy     H   0.200
H64      5.979027748    2.454588890   12.419502258 XXX  1      h*      H   0.410
H65      5.072792053    3.656288385   12.643951416 XXX  1      h*      H   0.410
H66      5.307082653    5.139644623   19.734138489 XXX  1      hoy     H   0.200
H67      4.512045860    1.968171954   19.757583618 XXX  1      hoy     H   0.200
H68      3.964701891    3.788421869   15.974234581 XXX  1      hoy     H   0.200
H69      5.011264324    2.794089317   23.341135025 XXX  1      h*      H   0.410
H70      6.461619854    2.986624479   23.106323242 XXX  1      h*      H   0.410
H71      6.261425495    1.538732290   15.977499008 XXX  1      hoy     H   0.200
H72      7.103791237    4.614839554   15.991605759 XXX  1      hoy     H   0.200
AL7     -2.879300117    4.987093925    0.000000000 XXX  1      ac3     Al  1.500
CA13     0.000000117    6.649458408    0.568849385 XXX  1      ca+m    Ca  1.400
O67     -1.276681662    4.715795994    0.994079649 XXX  1      oc21    O  -0.800
O68     -2.879300117    4.987093925   20.937299728 XXX  1      o*      O  -0.820
S4       2.879300117    4.987093925   13.397299767 XXX  1      s_m     S   1.000
O69     -3.445658445    6.510651112    0.994079649 XXX  1      oc18    O  -0.800
O70     -3.938469172    4.742653847   13.703570366 XXX  1      o*      O  -0.820
O71      1.843040109    3.734834671    0.994079649 XXX  1      oc16    O  -0.800
CA14    -2.879300117    8.311822891   26.225749969 XXX  1      ca+m    Ca  1.400
O72      1.276681542    5.258391857   -0.994080067 XXX  1      oc20    O  -0.800
O73     -2.879300117    4.987093925    5.857299328 XXX  1      o*      O  -0.820
O74      2.879300117    4.987093925   12.156709671 XXX  1      oc15    O  -0.600
O75      3.445658207    3.463536739   -0.994080067 XXX  1      oc19    O  -0.800
O76      4.186502457    4.548229694   14.032332420 XXX  1      oc15    O  -0.600
O77     -1.843039870    6.239353180   -0.994080067 XXX  1      oc17    O  -0.800
O78      2.605766535    6.338596344   14.032332420 XXX  1      oc15    O  -0.600
AL8      0.000000117    6.649458408    8.931532860 XXX  1      ac3     Al  1.500
CA15    -2.879300117    8.311822891    9.500382423 XXX  1      ca+m    Ca  1.400
O79      1.602618337    6.378160477    9.925613403 XXX  1      oc21    O  -0.800
O80      0.000000117    6.649458408    3.074233770 XXX  1      o*      O  -0.820
S5       0.000000117    6.649458408   22.328832626 XXX  1      s_m     S   1.000
O81      1.033668637    7.562096596   21.693801880 XXX  1      oc15    O  -0.600
O82      0.000000117    6.649458408   23.569423676 XXX  1      oc15    O  -0.600
O83     -0.566358209    8.173015594    9.925613403 XXX  1      oc18    O  -0.800
O84     -1.307202220    7.088322639   21.693801880 XXX  1      oc15    O  -0.600
O85     -1.036260009    5.397199154    9.925613403 XXX  1      oc16    O  -0.800
O86      0.273533463    5.297955990   21.693801880 XXX  1      oc15    O  -0.600
CA16    -2.879300117    4.987093925    8.362684250 XXX  1      ca+m    Ca  1.400
O87     -1.602618337    6.920756340    7.937453747 XXX  1      oc20    O  -0.800
O88      0.000000117    6.649458408   14.788832664 XXX  1      o*      O  -0.820
O89      0.566358209    5.125901222    7.937453747 XXX  1      oc19    O  -0.800
O90      1.036260009    7.901717663    7.937453747 XXX  1      oc17    O  -0.800
AL9     -2.879300117    8.311822891   17.863065720 XXX  1      ac3     Al  1.500
CA17    -2.879300117    4.987093925   18.431915283 XXX  1      ca+m    Ca  1.400
O91     -1.276681662    8.040525436   18.857147217 XXX  1      oc21    O  -0.800
O92     -2.879300117    8.311822891   12.005766869 XXX  1      o*      O  -0.820
O93      3.724179506    8.668743134    3.643589258 XXX  1      o*      O  -0.820
O94     -3.445658445    9.835380554   18.857147217 XXX  1      oc18    O  -0.800
O95     -3.915560246    7.059563637   18.857147217 XXX  1      oc16    O  -0.800
CA18     0.000000117    6.649458408   17.294218063 XXX  1      ca+m    Ca  1.400
O96     -4.481918335    8.583121300   16.868986130 XXX  1      oc20    O  -0.800
O97     -2.879300117    8.311822891   23.720365524 XXX  1      o*      O  -0.820
O98      1.663862348    7.633386135    5.144376755 XXX  1      o*      O  -0.820
O99     -2.312941790    6.788265705   16.868986130 XXX  1      oc19    O  -0.800
O100    -1.843039870    9.564082146   16.868986130 XXX  1      oc17    O  -0.800
AL10     2.879300117    4.987093925    0.000000000 XXX  1      ac3     Al  1.500
CA19     5.758600235    6.649458408    0.568849385 XXX  1      ca+m    Ca  1.400
O101     4.481918335    4.715795994    0.994079649 XXX  1      oc21    O  -0.800
O102     2.879300117    4.987093925   20.937299728 XXX  1      o*      O  -0.820
O103    -1.585686803    5.739181042   12.702541351 XXX  1      o*      O  -0.820
O104     2.312941551    6.510651112    0.994079649 XXX  1      oc18    O  -0.800
O105    -3.915560246    3.734834671    0.994079649 XXX  1      oc16    O  -0.800
CA20     2.879300117    8.311822891   26.225749969 XXX  1      ca+m    Ca  1.400
O106    -4.481918812    5.258391857   -0.994080067 XXX  1      oc20    O  -0.800
O107     2.879300117    4.987093925    5.857299328 XXX  1      o*      O  -0.820
O108     1.845631361    4.074455738   14.032332420 XXX  1      oc15    O  -0.600
O109    -2.312942028    3.463536739   -0.994080067 XXX  1      oc19    O  -0.800
O110     3.915559769    6.239353180   -0.994080067 XXX  1      oc17    O  -0.800
AL11     5.758600235    6.649458408    8.931532860 XXX  1      ac3     Al  1.500
CA21     2.879300117    8.311822891    9.500382423 XXX  1      ca+m    Ca  1.400
O111     7.361218452    6.378160477    9.925613403 XXX  1      oc21    O  -0.800
O112     5.758600235    6.649458408    3.074233770 XXX  1      o*      O  -0.820
O113     4.559859276    7.137207985   21.480993271 XXX  1      o*      O  -0.820
O114     5.192241669    8.173015594    9.925613403 XXX  1      oc18    O  -0.800
O115     4.722339630    5.397199154    9.925613403 XXX  1      oc16    O  -0.800
CA22     2.879300117    4.987093925    8.362684250 XXX  1      ca+m    Ca  1.400
O116     4.155981541    6.920756340    7.937453747 XXX  1      oc20    O  -0.800
O117     5.758600235    6.649458408   14.788832664 XXX  1      o*      O  -0.820
O118     6.324957848    5.125901222    7.937453747 XXX  1      oc19    O  -0.800
O119     6.620971203    6.447310448   23.211763382 XXX  1      o*      O  -0.820
O120     6.794859886    7.901717663    7.937453747 XXX  1      oc17    O  -0.800
AL12     2.879300117    8.311822891   17.863065720 XXX  1      ac3     Al  1.500
CA23     2.879300117    4.987093925   18.431915283 XXX  1      ca+m    Ca  1.400
O121     4.481918335    8.040525436   18.857147217 XXX  1      oc21    O  -0.800
O122     2.879300117    8.311822891   12.005766869 XXX  1      o*      O  -0.820
S6      -2.879299879    8.311822891    4.465766430 XXX  1      s_m     S   1.000
O123    -1.845631242    9.224461555    3.830734730 XXX  1      oc15    O  -0.600
O124    -2.879299879    8.311822891    5.706356525 XXX  1      oc15    O  -0.600
O125     2.312941551    9.835380554   18.857147217 XXX  1      oc18    O  -0.800
O126    -4.186501980    8.750687599    3.830734730 XXX  1      oc15    O  -0.600
O127     1.843040109    7.059563637   18.857147217 XXX  1      oc16    O  -0.800
O128    -2.605766535    6.960320473    3.830734730 XXX  1      oc15    O  -0.600
CA24     5.758600235    6.649458408   17.294218063 XXX  1      ca+m    Ca  1.400
O129     1.276681542    8.583121300   16.868986130 XXX  1      oc20    O  -0.800
O130     2.879300117    8.311822891   23.720365524 XXX  1      o*      O  -0.820
O131     3.445658207    6.788265705   16.868986130 XXX  1      oc19    O  -0.800
O132     3.915559769    9.564082146   16.868986130 XXX  1      oc17    O  -0.800
H74     -2.299443722    5.668035030   21.360803604 XXX  1      h*      H   0.410
H75     -2.516616106    4.165653706   21.349824905 XXX  1      h*      H   0.410
H77     -4.637715340    5.266478539   14.159137726 XXX  1      h*      H   0.410
H78     -4.495466232    4.236525536   13.074528694 XXX  1      h*      H   0.410
H81     -2.678212881    5.778358936    5.292791843 XXX  1      h*      H   0.410
H82     -3.624617100    4.641243458    5.297635078 XXX  1      h*      H   0.410
H86      0.463712573    7.036287785    3.852443457 XXX  1      h*      H   0.410
H87     -0.941851199    6.783338070    3.369984388 XXX  1      h*      H   0.410
H91      0.946333110    6.533222675   14.500994682 XXX  1      h*      H   0.410
H92     -0.446689695    6.263922691   13.999886513 XXX  1      h*      H   0.410
H95     -1.091448903    7.797396183   19.741159439 XXX  1      hoy     H   0.200
H96     -3.499313593    8.673015594   12.689152718 XXX  1      h*      H   0.410
H97     -2.480200529    7.555512905   12.495334625 XXX  1      h*      H   0.410
H98      4.526928902    8.104732513    3.556823730 XXX  1      h*      H   0.410
H99      4.089531898    9.566569328    3.520351171 XXX  1      h*      H   0.410
H100    -3.406462431   10.083287239   19.752925873 XXX  1      hoy     H   0.200
H101    -4.164786816    6.973347664   19.750905991 XXX  1      hoy     H   0.200
H102    -4.672566414    8.824474335   15.986316681 XXX  1      hoy     H   0.200
H103    -2.197238684    8.083628654   23.041065216 XXX  1      h*      H   0.410
H104    -3.576523781    7.669588566   23.433458328 XXX  1      h*      H   0.410
H105     2.395879030    8.038830757    4.613155365 XXX  1      h*      H   0.410
H106     1.176522255    8.448739052    5.400592804 XXX  1      h*      H   0.410
H107    -2.442582369    6.481328487   15.999905586 XXX  1      hoy     H   0.200
H108    -1.454247475    9.602865219   16.025712967 XXX  1      hoy     H   0.200
H110     1.956057549    5.238048077   21.221534729 XXX  1      h*      H   0.410
H111     2.897027731    4.088400364   21.341585159 XXX  1      h*      H   0.410
H112    -1.113389015    4.913516998   12.451957703 XXX  1      h*      H   0.410
H113    -2.397464752    5.349809647   13.117157936 XXX  1      h*      H   0.410
H117     2.556241274    5.786691666    5.384680748 XXX  1      h*      H   0.410
H118     3.494829655    4.606601238    5.180422783 XXX  1      h*      H   0.410
H122     6.498383045    7.205836773    3.437349081 XXX  1      h*      H   0.410
H123     6.035188198    5.759049416    3.422839642 XXX  1      h*      H   0.410
H124     3.917951584    7.874039650   21.506433487 XXX  1      h*      H   0.410
H125     3.946293592    6.378582001   21.353807449 XXX  1      h*      H   0.410
H129     5.520223141    7.551936150   14.446750641 XXX  1      h*      H   0.410
H130     4.987899303    6.144473553   14.424414635 XXX  1      h*      H   0.410
H132     5.926254272    6.756254673   22.581092834 XXX  1      h*      H   0.410
H133     6.629375458    5.492482185   22.995561600 XXX  1      h*      H   0.410
H135     4.693038940    7.803227425   19.733211517 XXX  1      hoy     H   0.200
H136     2.694499969    7.518643856   12.572992325 XXX  1      h*      H   0.410
H137     3.598597288    8.688522339   12.578479767 XXX  1      h*      H   0.410
H138     2.441976070   10.129767418   19.734415054 XXX  1      hoy     H   0.200
H139     1.504832864    7.036769867   19.728010178 XXX  1      hoy     H   0.200
H140     1.086935520    8.802386284   15.984020233 XXX  1      hoy     H   0.200
H141     2.178527355    7.887245178   23.163030624 XXX  1      h*      H   0.410
H142     3.018138885    9.121315002   23.170595169 XXX  1      h*      H   0.410
H143     3.312033653    6.494811058   15.991801262 XXX  1      hoy     H   0.200
H144     4.211032391    9.610711098   15.983321190 XXX  1      hoy     H   0.200
H1       4.672967434    1.156700969   10.805373192 XXX  2      hoy     H   0.200
H2       2.480288267    3.526713371   10.778832436 XXX  2      hoy     H   0.200
H3       1.495162368    0.366623312   10.791535378 XXX  2      hoy     H   0.200
H4       1.085484028    2.135428905    7.049403191 XXX  2      hoy     H   0.200
H5       3.268427610   -0.204599172    7.087100029 XXX  2      hoy     H   0.200
H6       4.277526855    2.951644182    7.076922417 XXX  2      hoy     H   0.200
H7      10.456587791    1.064882159   10.773819923 XXX  2      hoy     H   0.200
H8       8.154775620    3.459989786   10.810944557 XXX  2      hoy     H   0.200
H9       7.253243446    0.397124588   10.788393974 XXX  2      hoy     H   0.200
H10      6.819698811    2.257086039    7.087518692 XXX  2      hoy     H   0.200
H11      9.181213379   -0.105292268    7.039515972 XXX  2      hoy     H   0.200
H12     10.041278839    2.917322397    7.082241535 XXX  2      hoy     H   0.200
H13      1.818047643    6.056915283   10.775693893 XXX  2      hoy     H   0.200
H14     -0.535073221    8.420453072   10.822402000 XXX  2      hoy     H   0.200
H15     -1.390827298    5.392311573   10.785484314 XXX  2      hoy     H   0.200
H16     -1.818362474    7.253926277    7.091700554 XXX  2      hoy     H   0.200
H17      0.547022879    4.883618355    7.038558006 XXX  2      hoy     H   0.200
H18      1.388736725    7.911531925    7.076399803 XXX  2      hoy     H   0.200
H19      7.562632084    6.277840137   10.828619957 XXX  2      hoy     H   0.200
H20      5.359405994    8.513185501   10.779483795 XXX  2      hoy     H   0.200
H21      4.354935169    5.363522053   10.783260345 XXX  2      hoy     H   0.200
H22      3.963555813    7.116903305    7.048074722 XXX  2      hoy     H   0.200
H23      6.154563904    4.786020279    7.084481239 XXX  2      hoy     H   0.200
H24      7.160520077    7.937491894    7.078458786 XXX  2      hoy     H   0.200
H25      1.794888139   -0.498396635    1.880282044 XXX  2      hoy     H   0.200
H26     -0.447062373    1.822747469    1.867838383 XXX  2      hoy     H   0.200
H27     -1.431823492   -1.275333405    1.834538460 XXX  2      hoy     H   0.200
H28     -1.818665266    0.587164104   -1.845553994 XXX  2      hoy     H   0.200
H29      0.458566755   -1.824690700   -1.869457960 XXX  2      hoy     H   0.200
H30      1.345183015    1.302626252   -1.870219350 XXX  2      hoy     H   0.200
H31      7.556211948   -0.446296066    1.887859344 XXX  2      hoy     H   0.200
H32      5.313367844    1.806852579    1.876187801 XXX  2      hoy     H   0.200
H33      4.413857937   -1.289596319    1.875621200 XXX  2      hoy     H   0.200
H34      3.962246180    0.436179549   -1.891655803 XXX  2      hoy     H   0.200
H35      6.151081085   -1.864166737   -1.845741868 XXX  2      hoy     H   0.200
H36      7.175490379    1.276492715   -1.846541643 XXX  2      hoy     H   0.200
H37     -1.083329439    4.535028458    1.886920214 XXX  2      hoy     H   0.200
H38     -3.322817326    6.793899536    1.875876546 XXX  2      hoy     H   0.200
H39     -4.226889610    3.697504520    1.874745488 XXX  2      hoy     H   0.200
H40     -4.679658890    5.564706802   -1.852137446 XXX  2      hoy     H   0.200
H41     -2.515504360    3.103716612   -1.831400871 XXX  2      hoy     H   0.200
H42     -1.473399639    6.276003838   -1.851183295 XXX  2      hoy     H   0.200
H43      4.674635887    4.488747597    1.880333066 XXX  2      hoy     H   0.200
H44      2.442291021    6.816777229    1.863836169 XXX  2      hoy     H   0.200
H45      1.436167121    3.714767456    1.829649091 XXX  2      hoy     H   0.200
H46      1.061380506    5.608233452   -1.833269000 XXX  2      hoy     H   0.200
H47      3.376615763    3.192661047   -1.881602287 XXX  2      hoy     H   0.200
H48      4.185429096    6.317378521   -1.882503152 XXX  2      hoy     H   0.200
end
end
