!BIOSYM archive 3
PBC=ON
Materials Studio Generated CAR File
!DATE Fri Jun 01 09:04:12 2012
PBC   19.9484   11.5172   80.0000   90.0000   90.0000   90.0000 (P1)
O2       0.002926492    0.339727908    5.750751019 XXX  1      o*      O  -0.820
S1      -0.000000000   -0.000000000   13.397299767 XXX  1      s_m     S   1.000
O4       4.109305859    8.571081161   14.244731903 XXX  1      o*      O  -0.820
O8      -0.000000000   -0.000000000   12.156709671 XXX  1      oc15    O  -0.600
O10      0.912638247   -1.033668637   14.032332420 XXX  1      oc15    O  -0.600
O12      0.438864261    1.307202220   14.032332420 XXX  1      oc15    O  -0.600
AL2      3.324729443   -0.000000083    8.931532860 XXX  1      ac3     Al  1.500
CA3      1.662364602    2.879299879    9.500382423 XXX  1      ca+m    Ca  1.400
O13      4.576988697   -1.036260128    9.925613403 XXX  1      oc21    O  -0.800
S2       9.257828712    7.099747658   21.719604492 XXX  1      s_m     S   1.000
O15     10.224721909    8.237565041   21.840488434 XXX  1      oc15    O  -0.600
O16      9.053476334    6.428629875   23.033510208 XXX  1      oc15    O  -0.600
O17      3.596027374    1.602618456    9.925613403 XXX  1      oc18    O  -0.800
O18      7.946332932    7.590274811   21.198997498 XXX  1      oc15    O  -0.600
O19      1.801172137   -0.566358328    9.925613403 XXX  1      oc16    O  -0.800
O20      9.815950394    6.099763393   20.757900238 XXX  1      oc15    O  -0.600
CA4     -0.000000000    0.000000000    8.362684250 XXX  1      ca+m    Ca  1.400
O21      2.072469950    1.036260009    7.937453747 XXX  1      oc20    O  -0.800
O22      3.324729443   -0.000000083   14.788832664 XXX  1      o*      O  -0.820
O23      3.053431273   -1.602618337    7.937453747 XXX  1      oc19    O  -0.800
O24      4.848286629    0.566358387    7.937453747 XXX  1      oc17    O  -0.800
AL3      1.662364602    2.879299879   17.863065720 XXX  1      ac3     Al  1.500
CA5     -0.000000000   -0.000000000   18.431915283 XXX  1      ca+m    Ca  1.400
O25      2.914623737    1.843039870   18.857147217 XXX  1      oc21    O  -0.800
O26      1.662364602    2.879299879   12.005766869 XXX  1      o*      O  -0.820
O28      1.933662653    4.481918335   18.857147217 XXX  1      oc18    O  -0.800
O29      0.138807386    2.312941790   18.857147217 XXX  1      oc16    O  -0.800
CA6      3.324729443   -0.000000083   17.294218063 XXX  1      ca+m    Ca  1.400
O30      0.410105377    3.915560007   16.868986130 XXX  1      oc20    O  -0.800
O31      1.743438840    2.262125969    4.476914883 XXX  1      o*      O  -0.820
O33      1.391066670    1.276681542   16.868986130 XXX  1      oc19    O  -0.800
O34      3.185921907    3.445658445   16.868986130 XXX  1      oc17    O  -0.800
O36      4.315147877    8.072965622    5.653007984 XXX  1      o*      O  -0.820
O37      6.374900818    8.688361168   12.691995621 XXX  1      o*      O  -0.820
O42     -1.351502419   -0.273533493   14.032332420 XXX  1      oc15    O  -0.600
AL5      8.311823845    8.637900352    8.931532860 XXX  1      ac3     Al  1.500
CA9      6.649458885   -0.000000166    9.500382423 XXX  1      ca+m    Ca  1.400
O45      9.564082146    7.601639748    9.925613403 XXX  1      oc21    O  -0.800
O47      2.664806843    1.599602699   22.345624924 XXX  1      o*      O  -0.820
O48      8.583121300   10.240518570    9.925613403 XXX  1      oc18    O  -0.800
O49      6.788265705    8.071541786    9.925613403 XXX  1      oc16    O  -0.800
CA10     4.987093925    8.637900352    8.362684250 XXX  1      ca+m    Ca  1.400
O50      7.059564114    9.674160004    7.937453747 XXX  1      oc20    O  -0.800
O51      8.311823845    8.637900352   14.788832664 XXX  1      o*      O  -0.820
O52      8.040524483    7.035281658    7.937453747 XXX  1      oc19    O  -0.800
O53      3.546319723   -1.019010067   21.350458145 XXX  1      o*      O  -0.820
O54      9.835380554    9.204258919    7.937453747 XXX  1      oc17    O  -0.800
AL6      6.649458885   -0.000000166   17.863065720 XXX  1      ac3     Al  1.500
CA11     4.987093925    8.637900352   18.431915283 XXX  1      ca+m    Ca  1.400
O55      7.901717663   -1.036260128   18.857147217 XXX  1      oc21    O  -0.800
O56      6.649458885   -0.000000166   12.005766869 XXX  1      o*      O  -0.820
O59      6.920756340    1.602618575   18.857147217 XXX  1      oc18    O  -0.800
O61      5.125901699   -0.566358447   18.857147217 XXX  1      oc16    O  -0.800
CA12     8.311823845    8.637900352   17.294218063 XXX  1      ca+m    Ca  1.400
O63      5.397199154    1.036260128   16.868986130 XXX  1      oc20    O  -0.800
O64      5.803445339   -0.859954298    5.619690895 XXX  1      o*      O  -0.820
O65      6.378160477   -1.602618456   16.868986130 XXX  1      oc19    O  -0.800
O66      8.173015594    0.566358566   16.868986130 XXX  1      oc17    O  -0.800
H1       0.531207442    0.961579084    5.192799091 XXX  1      h*      H   0.410
H2      -0.759632409    0.166345403    5.142889500 XXX  1      h*      H   0.410
H3       3.555573702    7.786338806   14.441386223 XXX  1      h*      H   0.410
H4       3.465870619    9.310988426   14.281846046 XXX  1      h*      H   0.410
H9       2.414539099   -0.130566180   14.414495468 XXX  1      h*      H   0.410
H10      3.517223120    0.909078121   14.438649178 XXX  1      h*      H   0.410
H11      2.934417009    1.460961819   19.705444336 XXX  1      hoy     H   0.200
H12      2.477696896    2.806424618   12.565628052 XXX  1      h*      H   0.410
H13      1.083289266    2.314884901   12.581095695 XXX  1      h*      H   0.410
H16      2.147848606    4.674489498   19.746019363 XXX  1      hoy     H   0.200
H17     -0.190257311    2.484748602   19.714836121 XXX  1      hoy     H   0.200
H18      0.272985578    4.089564323   15.964114189 XXX  1      hoy     H   0.200
H19      2.277255297    2.110235214    3.673313379 XXX  1      h*      H   0.410
H20      2.202933550    3.075347662    4.802574158 XXX  1      h*      H   0.410
H23      1.136864305    1.094511628   15.988078117 XXX  1      hoy     H   0.200
H24      3.468141556    3.325892210   15.985708237 XXX  1      hoy     H   0.200
H25      4.686002731    7.150546074    5.583641529 XXX  1      h*      H   0.410
H26      3.607951880    7.973731518    4.985362530 XXX  1      h*      H   0.410
H27      6.364108086    7.727608204   12.478697777 XXX  1      h*      H   0.410
H28      5.598602772    8.714316368   13.305525780 XXX  1      h*      H   0.410
H33      1.815347791    1.948665977   21.966789246 XXX  1      h*      H   0.410
H34      2.371464729    1.537762523   23.276704788 XXX  1      h*      H   0.410
H35      7.754168034    8.725313187   13.984111786 XXX  1      h*      H   0.410
H36      9.033929825    8.053935051   14.439041138 XXX  1      h*      H   0.410
H37      3.239079237   -0.110684909   21.580070496 XXX  1      h*      H   0.410
H38      3.998105288   -1.264912963   22.178398132 XXX  1      h*      H   0.410
H39      7.958484173   -1.311654329   19.749261856 XXX  1      hoy     H   0.200
H40      6.405284405   -0.863777518   12.419502258 XXX  1      h*      H   0.410
H41      6.221311092    0.630042613   12.643951416 XXX  1      h*      H   0.410
H42      7.165890694    1.797521472   19.734138489 XXX  1      hoy     H   0.200
H43      4.891632080   -0.551536024   19.757583618 XXX  1      hoy     H   0.200
H44      5.327743530    1.298518658   15.974234581 XXX  1      hoy     H   0.200
H45      5.352390289   -1.679595709    5.327900887 XXX  1      h*      H   0.410
H46      5.602176666   -0.243345156    4.892488480 XXX  1      h*      H   0.410
H47      6.191919804   -1.798131466   15.977499008 XXX  1      hoy     H   0.200
H48      8.459483147    0.444672674   15.991605759 XXX  1      hoy     H   0.200
O68      0.025041964    4.936041355   21.020189285 XXX  1      o*      O  -0.820
S4       4.987093925    2.879299879   13.397299767 XXX  1      s_m     S   1.000
O70     -1.039487481    6.076493263   13.703570366 XXX  1      o*      O  -0.820
O74      4.987093925    2.879299879   12.156709671 XXX  1      oc15    O  -0.600
O76      5.899732113    1.845631242   14.032332420 XXX  1      oc15    O  -0.600
O78      5.425958157    4.186501980   14.032332420 XXX  1      oc15    O  -0.600
AL8      3.324729204    5.758599758    8.931532860 XXX  1      ac3     Al  1.500
CA15     1.662364364    8.637899399    9.500382423 XXX  1      ca+m    Ca  1.400
O79      4.576988220    4.722339630    9.925613403 XXX  1      oc21    O  -0.800
S5       4.480044842    4.333855152    5.069907665 XXX  1      s_m     S   1.000
O81      5.114152431    5.654547215    5.384423733 XXX  1      oc15    O  -0.600
O82      2.988770247    4.462639332    5.132327557 XXX  1      oc15    O  -0.600
O83      3.596027136    7.361218452    9.925613403 XXX  1      oc18    O  -0.800
O84      4.901049614    3.892148733    3.713155746 XXX  1      oc15    O  -0.600
O85      1.801172137    5.192241669    9.925613403 XXX  1      oc16    O  -0.800
O86      4.919337273    3.327030659    6.082081795 XXX  1      oc15    O  -0.600
CA16    -0.000000084    5.758600235    8.362684250 XXX  1      ca+m    Ca  1.400
O87      2.072469950    6.794859886    7.937453747 XXX  1      oc20    O  -0.800
O88      3.324729204    5.758599758   14.788832664 XXX  1      o*      O  -0.820
O89      3.053431273    4.155981541    7.937453747 XXX  1      oc19    O  -0.800
O90      4.848286152    6.324958324    7.937453747 XXX  1      oc17    O  -0.800
AL9      1.662364364    8.637899399   17.863065720 XXX  1      ac3     Al  1.500
CA17    -0.000000084    5.758600235   18.431915283 XXX  1      ca+m    Ca  1.400
O91      2.914623976    7.601640224   18.857147217 XXX  1      oc21    O  -0.800
O92      1.662364364    8.637899399   12.005766869 XXX  1      o*      O  -0.820
O94      1.933662534   10.240518570   18.857147217 XXX  1      oc18    O  -0.800
O95      0.138807178    8.071541786   18.857147217 XXX  1      oc16    O  -0.800
CA18     3.324729204    5.758599758   17.294218063 XXX  1      ca+m    Ca  1.400
O96      0.410105526    9.674160004   16.868986130 XXX  1      oc20    O  -0.800
O97      0.244737074    9.353071213   21.405290604 XXX  1      o*      O  -0.820
O99      1.391066551    7.035281658   16.868986130 XXX  1      oc19    O  -0.800
O100     3.185921669    9.204257965   16.868986130 XXX  1      oc17    O  -0.800
O102     4.988511086    3.080233097   21.069049835 XXX  1      o*      O  -0.820
O103     1.496345520    5.763120174   12.702541351 XXX  1      o*      O  -0.820
O108     3.635591507    2.605766535   14.032332420 XXX  1      oc15    O  -0.600
AL11     8.311822891    2.879299879    8.931532860 XXX  1      ac3     Al  1.500
CA21     6.649458408    5.758599758    9.500382423 XXX  1      ca+m    Ca  1.400
O111     9.564082146    1.843039751    9.925613403 XXX  1      oc21    O  -0.800
O113     7.533747196    5.488054276    4.393214226 XXX  1      o*      O  -0.820
O114     8.583121300    4.481918335    9.925613403 XXX  1      oc18    O  -0.800
O115     6.788265705    2.312941790    9.925613403 XXX  1      oc16    O  -0.800
CA22     4.987093925    2.879299879    8.362684250 XXX  1      ca+m    Ca  1.400
O116     7.059563637    3.915560007    7.937453747 XXX  1      oc20    O  -0.800
O117     8.311822891    2.879299879   14.788832664 XXX  1      o*      O  -0.820
O118     8.040524483    1.276681781    7.937453747 XXX  1      oc19    O  -0.800
O119    10.649220467   -0.360770345    5.769504547 XXX  1      o*      O  -0.820
O120     9.835380554    3.445658207    7.937453747 XXX  1      oc17    O  -0.800
AL12     6.649458408    5.758599758   17.863065720 XXX  1      ac3     Al  1.500
CA23     4.987093925    2.879299879   18.431915283 XXX  1      ca+m    Ca  1.400
O121     7.901717663    4.722340107   18.857147217 XXX  1      oc21    O  -0.800
O122     6.649458408    5.758599758   12.005766869 XXX  1      o*      O  -0.820
O125     6.920756340    7.361218452   18.857147217 XXX  1      oc18    O  -0.800
O127     5.125901222    5.192241192   18.857147217 XXX  1      oc16    O  -0.800
CA24     8.311822891    2.879299879   17.294218063 XXX  1      ca+m    Ca  1.400
O129     5.397199154    6.794860363   16.868986130 XXX  1      oc20    O  -0.800
O130     6.530611992    5.437665939   22.098876953 XXX  1      o*      O  -0.820
O131     6.378160477    4.155981541   16.868986130 XXX  1      oc19    O  -0.800
O132     8.173015594    6.324958324   16.868986130 XXX  1      oc17    O  -0.800
H49     -0.137629360    5.287617683   21.916635513 XXX  1      h*      H   0.410
H50      0.120714337    3.974748135   21.259233475 XXX  1      h*      H   0.410
H51     -1.383140087    6.879761696   14.159137726 XXX  1      h*      H   0.410
H52     -1.774925232    5.916671753   13.074528694 XXX  1      h*      H   0.410
H57      4.086159706    5.184770107   14.500994682 XXX  1      h*      H   0.410
H58      2.745116711    5.648060799   13.999886513 XXX  1      h*      H   0.410
H59      2.953475714    7.298467636   19.741159439 XXX  1      hoy     H   0.200
H60      1.306013346    9.260708809   12.689152718 XXX  1      h*      H   0.410
H61      1.629839778    7.783366203   12.495334625 XXX  1      h*      H   0.410
H64      2.091560602   10.435614586   19.752925873 XXX  1      hoy     H   0.200
H65     -0.120137349    8.121489525   19.750905991 XXX  1      hoy     H   0.200
H66      0.365675956    9.978502274   15.986316681 XXX  1      hoy     H   0.200
H67      1.178411841    9.527821541   21.613981247 XXX  1      h*      H   0.410
H68     -0.113243192   10.270046234   21.447443008 XXX  1      h*      H   0.410
H71      1.125325918    6.834286213   15.999905586 XXX  1      hoy     H   0.200
H72      3.542017460    9.043449402   16.025712967 XXX  1      hoy     H   0.200
H73      5.456022263    3.780955553   21.586469650 XXX  1      h*      H   0.410
H74      4.375807285    2.713154793   21.743923187 XXX  1      h*      H   0.410
H75      1.492535353    4.811924934   12.451957703 XXX  1      h*      H   0.410
H76      0.598639429    5.831803322   13.117157936 XXX  1      h*      H   0.410
H81      6.664725304    5.671135902    4.825706959 XXX  1      h*      H   0.410
H82      7.208687305    4.854822636    3.720528603 XXX  1      h*      H   0.410
H83      8.556621552    3.780056953   14.446750641 XXX  1      h*      H   0.410
H84      7.391884327    2.827320576   14.424414635 XXX  1      h*      H   0.410
H85     10.258460999   -0.683797240    4.934202194 XXX  1      h*      H   0.410
H86     11.598343849   -0.598688483    5.592187405 XXX  1      h*      H   0.410
H87      7.965904713    4.411273479   19.733211517 XXX  1      hoy     H   0.200
H88      6.092827320    5.164086819   12.572992325 XXX  1      h*      H   0.410
H89      7.460737705    5.725182533   12.578479767 XXX  1      h*      H   0.410
H90      7.179697037    7.551647663   19.734415054 XXX  1      hoy     H   0.200
H91      4.821608543    5.341605186   19.728010178 XXX  1      hoy     H   0.200
H92      5.342506886    7.079622269   15.984020233 XXX  1      hoy     H   0.200
H93      6.825151920    6.267860889   21.651496887 XXX  1      h*      H   0.410
H94      7.258575916    5.409486771   22.761732101 XXX  1      h*      H   0.410
H95      6.115710735    3.968654633   15.991801262 XXX  1      hoy     H   0.200
H96      8.452216148    6.217603683   15.983321190 XXX  1      hoy     H   0.200
O134     9.977208138    6.099095821    5.749722958 XXX  1      o*      O  -0.820
S7       9.974187851    5.758599758   13.397299767 XXX  1      s_m     S   1.000
O136    14.083493233    2.812481403   14.244731903 XXX  1      o*      O  -0.820
O140     9.974187851    5.758599758   12.156709671 XXX  1      oc15    O  -0.600
O142    10.886825562    4.724931240   14.032332420 XXX  1      oc15    O  -0.600
O144    10.413051605    7.065802097   14.032332420 XXX  1      oc15    O  -0.600
AL14    13.298916817    5.758599758    8.931532860 XXX  1      ac3     Al  1.500
CA27    11.636552811    8.637900352    9.500382423 XXX  1      ca+m    Ca  1.400
O145    14.551176071    4.722340107    9.925613403 XXX  1      oc21    O  -0.800
S8      19.232952118    1.339335322   21.719383240 XXX  1      s_m     S   1.000
O147    20.198999405    2.478168249   21.839395523 XXX  1      oc15    O  -0.600
O148    19.029979706    0.668581367   23.031919479 XXX  1      oc15    O  -0.600
O149    13.570215225    7.361218452    9.925613403 XXX  1      oc18    O  -0.800
O150    17.920951843    1.828530431   21.199260712 XXX  1      oc15    O  -0.600
O151    11.775360107    5.192241669    9.925613403 XXX  1      oc16    O  -0.800
O152    19.791698456    0.339558601   20.760301590 XXX  1      oc15    O  -0.600
CA28     9.974187851    5.758599758    8.362684250 XXX  1      ca+m    Ca  1.400
O153    12.046657562    6.794859886    7.937453747 XXX  1      oc20    O  -0.800
O154    13.298916817    5.758599758   14.788832664 XXX  1      o*      O  -0.820
O155    13.027619362    4.155981541    7.937453747 XXX  1      oc19    O  -0.800
O156    14.822474480    6.324958324    7.937453747 XXX  1      oc17    O  -0.800
AL15    11.636552811    8.637900352   17.863065720 XXX  1      ac3     Al  1.500
CA29     9.974187851    5.758599758   18.431915283 XXX  1      ca+m    Ca  1.400
O157    12.888812065    7.601640224   18.857147217 XXX  1      oc21    O  -0.800
O158    11.636552811    8.637900352   12.005766869 XXX  1      o*      O  -0.820
O160    11.907850266   10.240518570   18.857147217 XXX  1      oc18    O  -0.800
O161    10.112995148    8.071541786   18.857147217 XXX  1      oc16    O  -0.800
CA30    13.298916817    5.758599758   17.294218063 XXX  1      ca+m    Ca  1.400
O162    10.384293556    9.674160004   16.868986130 XXX  1      oc20    O  -0.800
O163    11.717562675    8.021465302    4.475696087 XXX  1      o*      O  -0.820
O165    11.365254402    7.035281658   16.868986130 XXX  1      oc19    O  -0.800
O166    13.160109520    9.204258919   16.868986130 XXX  1      oc17    O  -0.800
O168    14.288015366    2.314203978    5.651406765 XXX  1      o*      O  -0.820
O169    16.349088669    2.929761410   12.691995621 XXX  1      o*      O  -0.820
O174     8.622685432    5.485066414   14.032332420 XXX  1      oc15    O  -0.600
AL17    18.286010742    2.879299641    8.931532860 XXX  1      ac3     Al  1.500
CA33    16.623645782    5.758599758    9.500382423 XXX  1      ca+m    Ca  1.400
O177    19.538270950    1.843039989    9.925613403 XXX  1      oc21    O  -0.800
O179    12.639186859    7.358440399   22.344699860 XXX  1      o*      O  -0.820
O180    18.557308197    4.481918335    9.925613403 XXX  1      oc18    O  -0.800
O181    16.762453079    2.312942028    9.925613403 XXX  1      oc16    O  -0.800
CA34    14.961281776    2.879299641    8.362684250 XXX  1      ca+m    Ca  1.400
O182    17.033752441    3.915560246    7.937453747 XXX  1      oc20    O  -0.800
O183    18.286010742    2.879299641   14.788832664 XXX  1      o*      O  -0.820
O184    18.014713287    1.276681423    7.937453747 XXX  1      oc19    O  -0.800
O185    13.520343781    4.739851952   21.350709915 XXX  1      o*      O  -0.820
O186    19.809568405    3.445658207    7.937453747 XXX  1      oc17    O  -0.800
AL18    16.623645782    5.758599758   17.863065720 XXX  1      ac3     Al  1.500
CA35    14.961281776    2.879299641   18.431915283 XXX  1      ca+m    Ca  1.400
O187    17.875905991    4.722339630   18.857147217 XXX  1      oc21    O  -0.800
O188    16.623645782    5.758599758   12.005766869 XXX  1      o*      O  -0.820
O191    16.894945145    7.361218452   18.857147217 XXX  1      oc18    O  -0.800
O193    15.100089073    5.192241669   18.857147217 XXX  1      oc16    O  -0.800
CA36    18.286010742    2.879299641   17.294218063 XXX  1      ca+m    Ca  1.400
O195    15.371386528    6.794859886   16.868986130 XXX  1      oc20    O  -0.800
O196    15.776104927    4.897047043    5.620059490 XXX  1      o*      O  -0.820
O197    16.352348328    4.155981541   16.868986130 XXX  1      oc19    O  -0.800
O198    18.147203445    6.324958324   16.868986130 XXX  1      oc17    O  -0.800
H97     10.505810738    6.720861435    5.191076756 XXX  1      h*      H   0.410
H98      9.214911461    5.925778389    5.142165661 XXX  1      h*      H   0.410
H99     13.529761314    2.027739048   14.441386223 XXX  1      h*      H   0.410
H100    13.440058708    3.552388668   14.281846046 XXX  1      h*      H   0.410
H105    12.388727188    5.628033638   14.414495468 XXX  1      h*      H   0.410
H106    13.491411209    6.667678356   14.438649178 XXX  1      h*      H   0.410
H107    12.908604622    7.219561577   19.705444336 XXX  1      hoy     H   0.200
H108    12.451884270    8.565024376   12.565628052 XXX  1      h*      H   0.410
H109    11.057476997    8.073485374   12.581095695 XXX  1      h*      H   0.410
H112    12.122035980   10.433089256   19.746019363 XXX  1      hoy     H   0.200
H113     9.783930779    8.243349075   19.714836121 XXX  1      hoy     H   0.200
H114    10.247173309    9.848164558   15.964114189 XXX  1      hoy     H   0.200
H115    12.251115799    7.869768143    3.672813416 XXX  1      h*      H   0.410
H116    12.177186966    8.834276199    4.802245617 XXX  1      h*      H   0.410
H119    11.111052513    6.853111744   15.988078117 XXX  1      hoy     H   0.200
H120    13.442329407    9.084492683   15.985708237 XXX  1      hoy     H   0.200
H121    14.658951759    1.391464591    5.585132599 XXX  1      h*      H   0.410
H122    13.580207825    2.213785648    4.986418724 XXX  1      h*      H   0.410
H123    16.338294983    1.969007969   12.478697777 XXX  1      h*      H   0.410
H124    15.572790146    2.955716610   13.305525780 XXX  1      h*      H   0.410
H129    11.789401054    7.707695484   21.964881897 XXX  1      h*      H   0.410
H130    12.346287727    7.296971321   23.275747299 XXX  1      h*      H   0.410
H131    17.728355408    2.966713428   13.984111786 XXX  1      h*      H   0.410
H132    19.008117676    2.295334339   14.439041138 XXX  1      h*      H   0.410
H133    13.213323593    5.648289680   21.580125809 XXX  1      h*      H   0.410
H134    13.971594810    4.493471146   22.178503036 XXX  1      h*      H   0.410
H135    17.932672501    4.446945667   19.749261856 XXX  1      hoy     H   0.200
H136    16.379472733    4.894822598   12.419502258 XXX  1      h*      H   0.410
H137    16.195499420    6.388642788   12.643951416 XXX  1      h*      H   0.410
H138    17.140077591    7.556121826   19.734138489 XXX  1      hoy     H   0.200
H139    14.865819931    5.207064152   19.757583618 XXX  1      hoy     H   0.200
H140    15.301931381    7.057118416   15.974234581 XXX  1      hoy     H   0.200
H141    15.324226379    4.077648163    5.328491688 XXX  1      h*      H   0.410
H142    15.574680328    5.513555527    4.892510891 XXX  1      h*      H   0.410
H143    16.166107178    3.960468292   15.977499008 XXX  1      hoy     H   0.200
H144    18.433671951    6.203272820   15.991605759 XXX  1      hoy     H   0.200
O200     9.999698639   -0.821859241   21.020856857 XXX  1      o*      O  -0.820
S10     14.961281776    8.637900352   13.397299767 XXX  1      s_m     S   1.000
O202     8.934700012    0.317893296   13.703570366 XXX  1      o*      O  -0.820
O206    14.961281776    8.637900352   12.156709671 XXX  1      oc15    O  -0.600
O208    15.873920441    7.604231358   14.032332420 XXX  1      oc15    O  -0.600
O210    15.400145531    9.945102692   14.032332420 XXX  1      oc15    O  -0.600
AL20    13.298916817   -0.000000156    8.931532860 XXX  1      ac3     Al  1.500
CA39    11.636551857    2.879299879    9.500382423 XXX  1      ca+m    Ca  1.400
O211    14.551176071   -1.036260128    9.925613403 XXX  1      oc21    O  -0.800
S11     14.454560280   -1.424521327    5.069580078 XXX  1      s_m     S   1.000
O213    15.088853836   -0.104006581    5.384999752 XXX  1      oc15    O  -0.600
O214    12.963130951   -1.295508623    5.131736279 XXX  1      oc15    O  -0.600
O215    13.570215225    1.602618217    9.925613403 XXX  1      oc18    O  -0.800
O216    14.875800133   -1.866234541    3.712917805 XXX  1      oc15    O  -0.600
O217    11.775360107   -0.566358447    9.925613403 XXX  1      oc16    O  -0.800
O218    14.893764496   -2.431404114    6.081761360 XXX  1      oc15    O  -0.600
CA40     9.974187851    0.000000089    8.362684250 XXX  1      ca+m    Ca  1.400
O219    12.046657562    1.036260009    7.937453747 XXX  1      oc20    O  -0.800
O220    13.298916817   -0.000000156   14.788832664 XXX  1      o*      O  -0.820
O221    13.027619362   -1.602618456    7.937453747 XXX  1      oc19    O  -0.800
O222    14.822474480    0.566358209    7.937453747 XXX  1      oc17    O  -0.800
AL21    11.636551857    2.879299879   17.863065720 XXX  1      ac3     Al  1.500
CA41     9.974187851    0.000000089   18.431915283 XXX  1      ca+m    Ca  1.400
O223    12.888812065    1.843040109   18.857147217 XXX  1      oc21    O  -0.800
O224    11.636551857    2.879299879   12.005766869 XXX  1      o*      O  -0.820
O226    11.907850266    4.481918812   18.857147217 XXX  1      oc18    O  -0.800
O227    10.112995148    2.312941551   18.857147217 XXX  1      oc16    O  -0.800
CA42    13.298916817   -0.000000156   17.294218063 XXX  1      ca+m    Ca  1.400
O228    10.384293556    3.915560246   16.868986130 XXX  1      oc20    O  -0.800
O229    10.217890739    3.595785856   21.405015945 XXX  1      o*      O  -0.820
O231    11.365254402    1.276681423   16.868986130 XXX  1      oc19    O  -0.800
O232    13.160109520    3.445657969   16.868986130 XXX  1      oc17    O  -0.800
O234    14.963432312    8.839313507   21.068231583 XXX  1      o*      O  -0.820
O235    11.470533371    0.004519981   12.702541351 XXX  1      o*      O  -0.820
O240    13.609779358    8.364366531   14.032332420 XXX  1      oc15    O  -0.600
AL23    18.286010742    8.637900352    8.931532860 XXX  1      ac3     Al  1.500
CA45    16.623645782   -0.000000283    9.500382423 XXX  1      ca+m    Ca  1.400
O243    19.538270950    7.601639748    9.925613403 XXX  1      oc21    O  -0.800
O245    17.507020950   -0.271112204    4.394094944 XXX  1      o*      O  -0.820
O246    18.557308197   10.240518570    9.925613403 XXX  1      oc18    O  -0.800
O247    16.762453079    8.071541786    9.925613403 XXX  1      oc16    O  -0.800
CA46    14.961281776    8.637900352    8.362684250 XXX  1      ca+m    Ca  1.400
O248    17.033752441    9.674160004    7.937453747 XXX  1      oc20    O  -0.800
O249    18.286010742    8.637900352   14.788832664 XXX  1      o*      O  -0.820
O250    18.014713287    7.035281658    7.937453747 XXX  1      oc19    O  -0.800
O251    20.623121262    5.398442268    5.769265175 XXX  1      o*      O  -0.820
O252    19.809568405    9.204257965    7.937453747 XXX  1      oc17    O  -0.800
AL24    16.623645782   -0.000000283   17.863065720 XXX  1      ac3     Al  1.500
CA47    14.961281776    8.637900352   18.431915283 XXX  1      ca+m    Ca  1.400
O253    17.875905991   -1.036259890   18.857147217 XXX  1      oc21    O  -0.800
O254    16.623645782   -0.000000283   12.005766869 XXX  1      o*      O  -0.820
O257    16.894945145    1.602618694   18.857147217 XXX  1      oc18    O  -0.800
O259    15.100089073   -0.566358626   18.857147217 XXX  1      oc16    O  -0.800
CA48    18.286010742    8.637900352   17.294218063 XXX  1      ca+m    Ca  1.400
O261    15.371387482    1.036260366   16.868986130 XXX  1      oc20    O  -0.800
O262    16.504537582   -0.321030200   22.100614548 XXX  1      o*      O  -0.820
O263    16.352348328   -1.602618575   16.868986130 XXX  1      oc19    O  -0.800
O264    18.147203445    0.566358209   16.868986130 XXX  1      oc17    O  -0.800
H145     9.836363792   -0.470132649   21.916406631 XXX  1      h*      H   0.410
H146    10.095286369   -1.783098936   21.259435654 XXX  1      h*      H   0.410
H147     8.591047287    1.121161819   14.159137726 XXX  1      h*      H   0.410
H148     8.199262619    0.158071861   13.074528694 XXX  1      h*      H   0.410
H153    14.060347557   -0.573829770   14.500994682 XXX  1      h*      H   0.410
H154    12.719304085   -0.110538974   13.999886513 XXX  1      h*      H   0.410
H155    12.927663803    1.539867640   19.741159439 XXX  1      hoy     H   0.200
H156    11.280200958    3.502108574   12.689152718 XXX  1      h*      H   0.410
H157    11.604027748    2.024766445   12.495334625 XXX  1      h*      H   0.410
H160    12.065748215    4.677014351   19.752925873 XXX  1      hoy     H   0.200
H161     9.854050636    2.362889528   19.750905991 XXX  1      hoy     H   0.200
H162    10.339863777    4.219902039   15.986316681 XXX  1      hoy     H   0.200
H163    11.150038719    3.770509481   21.619657516 XXX  1      h*      H   0.410
H164     9.859881401    4.512714386   21.445125580 XXX  1      h*      H   0.410
H167    11.099514008    1.075686336   15.999905586 XXX  1      hoy     H   0.200
H168    13.516204834    3.284848928   16.025712967 XXX  1      hoy     H   0.200
H169    15.430595398    9.540260315   21.586585999 XXX  1      h*      H   0.410
H170    14.350387573    8.472271919   21.743345261 XXX  1      h*      H   0.410
H171    11.466723442   -0.946674943   12.451957703 XXX  1      h*      H   0.410
H172    10.572827339    0.073203437   13.117157936 XXX  1      h*      H   0.410
H177    16.639389038   -0.087470837    4.827275276 XXX  1      h*      H   0.410
H178    17.182704926   -0.904375553    3.721165180 XXX  1      h*      H   0.410
H179    18.530809402    9.538657188   14.446750641 XXX  1      h*      H   0.410
H180    17.366071701    8.585920334   14.424414635 XXX  1      h*      H   0.410
H181    20.232738495    5.076109409    4.933154583 XXX  1      h*      H   0.410
H182    21.572341919    5.160076141    5.593592167 XXX  1      h*      H   0.410
H183    17.940092087   -1.347326279   19.733211517 XXX  1      hoy     H   0.200
H184    16.067014694   -0.594513416   12.572992325 XXX  1      h*      H   0.410
H185    17.434925079   -0.033417579   12.578479767 XXX  1      h*      H   0.410
H186    17.153884888    1.793047905   19.734415054 XXX  1      hoy     H   0.200
H187    14.795796394   -0.416994959   19.728010178 XXX  1      hoy     H   0.200
H188    15.316694260    1.321022391   15.984020233 XXX  1      hoy     H   0.200
H189    16.800218582    0.509034812   21.651971817 XXX  1      h*      H   0.410
H190    17.232643127   -0.350136906   22.762393951 XXX  1      h*      H   0.410
H191    16.089899063   -1.789945483   15.991801262 XXX  1      hoy     H   0.200
H192    18.426404953    0.459003776   15.983321190 XXX  1      hoy     H   0.200
H1       4.625258923   -1.334751248   10.805373192 XXX  2      hoy     H   0.200
H2       3.911349297    1.814079285   10.778832436 XXX  2      hoy     H   0.200
H3       1.478160262   -0.430076092   10.791535378 XXX  2      hoy     H   0.200
H4       2.007771254    1.306593657    7.049403191 XXX  2      hoy     H   0.200
H5       2.728241682   -1.811401844    7.087100029 XXX  2      hoy     H   0.200
H6       5.180269241    0.417435408    7.076922417 XXX  2      hoy     H   0.200
H7       9.588111877    7.211121082   10.773819923 XXX  2      hoy     H   0.200
H8       8.792237282   10.436251640   10.810944557 XXX  2      hoy     H   0.200
H9       6.480055332    8.234498024   10.788393974 XXX  2      hoy     H   0.200
H10      7.034575462   10.062044144    7.087518692 XXX  2      hoy     H   0.200
H11      7.898518085    6.835407734    7.039515972 XXX  2      hoy     H   0.200
H12     10.154664040    9.023036003    7.082241535 XXX  2      hoy     H   0.200
H13      4.602932930    4.336418629   10.775693893 XXX  2      hoy     H   0.200
H14      3.746839523    7.559863091   10.822402000 XXX  2      hoy     H   0.200
H15      1.491664052    5.365292549   10.785484314 XXX  2      hoy     H   0.200
H16      2.052215099    7.191265583    7.091700554 XXX  2      hoy     H   0.200
H17      2.915544987    3.955826044    7.038558006 XXX  2      hoy     H   0.200
H18      5.158447266    6.157219410    7.076399803 XXX  2      hoy     H   0.200
H19      9.688351631    1.655452967   10.828619957 XXX  2      hoy     H   0.200
H20      8.897974014    4.692932129   10.779483795 XXX  2      hoy     H   0.200
H21      6.453245640    2.467478752   10.783260345 XXX  2      hoy     H   0.200
H22      6.990991592    4.181641102    7.048074722 XXX  2      hoy     H   0.200
H23      7.723018646    1.067533135    7.084481239 XXX  2      hoy     H   0.200
H24     10.169938087    3.293809652    7.078458786 XXX  2      hoy     H   0.200
H49     14.599447250    4.423848629   10.805373192 XXX  2      hoy     H   0.200
H50     13.885537148    7.572679520   10.778832436 XXX  2      hoy     H   0.200
H51     11.452347755    5.328524113   10.791535378 XXX  2      hoy     H   0.200
H52     11.981959343    7.065193653    7.049403191 XXX  2      hoy     H   0.200
H53     12.702429771    3.947197914    7.087100029 XXX  2      hoy     H   0.200
H54     15.154457092    6.176035404    7.076922417 XXX  2      hoy     H   0.200
H55     19.562299728    1.452520847   10.773819923 XXX  2      hoy     H   0.200
H56     18.766426086    4.677651405   10.810944557 XXX  2      hoy     H   0.200
H57     16.454242706    2.475898266   10.788393974 XXX  2      hoy     H   0.200
H58     17.008762360    4.303444386    7.087518692 XXX  2      hoy     H   0.200
H59     17.872705460    1.076807499    7.039515972 XXX  2      hoy     H   0.200
H60     20.128850937    3.264436245    7.082241535 XXX  2      hoy     H   0.200
H61     14.577120781   -1.422181368   10.775693893 XXX  2      hoy     H   0.200
H62     13.721027374    1.801262856   10.822402000 XXX  2      hoy     H   0.200
H63     11.465851784   -0.393307537   10.785484314 XXX  2      hoy     H   0.200
H64     12.026402473    1.432665706    7.091700554 XXX  2      hoy     H   0.200
H65     12.889732361   -1.802773833    7.038558006 XXX  2      hoy     H   0.200
H66     15.132635117    0.398619264    7.076399803 XXX  2      hoy     H   0.200
H67     19.662538528    7.414052963   10.828619957 XXX  2      hoy     H   0.200
H68     18.872161865   10.451532364   10.779483795 XXX  2      hoy     H   0.200
H69     16.427433014    8.226078987   10.783260345 XXX  2      hoy     H   0.200
H70     16.965179443    9.940240860    7.048074722 XXX  2      hoy     H   0.200
H71     17.697206497    6.826133251    7.084481239 XXX  2      hoy     H   0.200
H72     20.144126892    9.052410126    7.078458786 XXX  2      hoy     H   0.200
end
end
