!BIOSYM archive 3
PBC=ON
Materials Studio Generated CAR File
!DATE Tue Mar 18 14:30:19 2008
PBC   36.3426   36.0612  120.0457   90.0000   90.0000   90.0000 (P1)
AL1      1.298828125    0.752777576    0.001595629 XXX  1      ay1     Al  1.450
SI1      2.140627623    8.376114845    2.703195333 XXX  1      sy1     Si  1.100
SI2      2.073014021    2.326848984    2.704392195 XXX  1      sy2     Si  1.100
H1       1.814997077    5.859043598    1.194727421 XXX  1      hoy     H   0.200
O1       1.826298237    0.835718334    3.356805086 XXX  1      oy1     O  -0.550
O2       0.984393775    7.308703899    3.147977114 XXX  1      oy2     O  -0.550
O3       0.961082339    3.338365555    3.364583731 XXX  1      oy3     O  -0.550
O4       2.286393166    8.503231049    1.065680861 XXX  1      oy7     O  -0.758
O5       1.896388888    2.267348051    1.066678166 XXX  1      oy8     O  -0.758
O6       2.270059347    5.072909355    1.000858426 XXX  1      oy9     O  -0.792
AL3      3.892971992    8.262522697   -0.001595629 XXX  1      ay2     Al  1.450
AL5      3.894728184    5.260427475    0.001595629 XXX  1      ay1     Mg  1.098
SI9      4.736527443    3.868465185    2.703195333 XXX  1      sy1     Si  1.100
SI10     4.668914318    6.834498882    2.704392195 XXX  1      sy2     Si  1.100
H5       4.410897255    1.351393461    1.194727421 XXX  1      hoy     H   0.200
O25      4.422198296    5.343368530    3.356805086 XXX  1      oy1     O  -0.550
O26      3.580293655    2.801053762    3.147977114 XXX  1      oy2     O  -0.550
O27      3.556982279    7.846015453    3.364583731 XXX  1      oy3     O  -0.550
O28      4.882293224    3.995580912    1.065680861 XXX  1      oy7     O  -0.867
O29      4.492289066    6.774998188    1.066678166 XXX  1      oy8     O  -0.867
O30      4.865959644    0.565259337    1.000858426 XXX  1      oy9     O  -0.683
AL7      1.297071934    3.754872561   -0.001595629 XXX  1      ay2     Al  1.450
AL1      1.298828125    9.768077576    0.001595629 XXX  2      ay1     Al  1.450
SI1      2.140627623   17.391414845    2.703195333 XXX  2      sy1     Si  1.100
SI2      2.073014021   11.342148984    2.704392195 XXX  2      sy2     Si  1.100
H1       1.814997077   14.874343598    1.194727421 XXX  2      hoy     H   0.200
O1       1.826298237    9.851018334    3.356805086 XXX  2      oy1     O  -0.550
O2       0.984393775   16.324003899    3.147977114 XXX  2      oy2     O  -0.550
O3       0.961082339   12.353665555    3.364583731 XXX  2      oy3     O  -0.550
O4       2.286393166   17.518531049    1.065680861 XXX  2      oy7     O  -0.867
O5       1.896388888   11.282648051    1.066678166 XXX  2      oy8     O  -0.758
O6       2.270059347   14.088209355    1.000858426 XXX  2      oy9     O  -0.683
AL3      3.892971992   17.277822697   -0.001595629 XXX  2      ay2     Mg  1.097
AL5      3.894728184   14.275727475    0.001595629 XXX  2      ay1     Al  1.450
SI9      4.736527443   12.883765185    2.703195333 XXX  2      sy1     Si  1.100
SI10     4.668914318   15.849798882    2.704392195 XXX  2      sy2     Si  1.100
K3      33.255986264   23.343834661    4.894921017 XXX  2      k+      K   1.000
H5       4.410897255   10.366693461    1.194727421 XXX  2      hoy     H   0.200
O25      4.422198296   14.358668530    3.356805086 XXX  2      oy1     O  -0.550
O26      3.580293655   11.816353762    3.147977114 XXX  2      oy2     O  -0.550
O27      3.556982279   16.861315453    3.364583731 XXX  2      oy3     O  -0.550
O28      4.882293224   13.010880912    1.065680861 XXX  2      oy7     O  -0.758
O29      4.492289066   15.790298188    1.066678166 XXX  2      oy8     O  -0.867
O30      4.865959644    9.580559337    1.000858426 XXX  2      oy9     O  -0.683
AL7      1.297071934   12.770172561   -0.001595629 XXX  2      ay2     Al  1.450
AL1      1.298828125   18.783377576    0.001595629 XXX  3      ay1     Al  1.450
SI1      2.140627623   26.406714845    2.703195333 XXX  3      sy1     Si  1.100
SI2      2.073014021   20.357448984    2.704392195 XXX  3      sy2     Si  1.100
H1       1.814997077   23.889643598    1.194727421 XXX  3      hoy     H   0.200
O1       1.826298237   18.866318334    3.356805086 XXX  3      oy1     O  -0.550
O2       0.984393775   25.339303899    3.147977114 XXX  3      oy2     O  -0.550
O3       0.961082339   21.368965555    3.364583731 XXX  3      oy3     O  -0.550
O4       2.286393166   26.533831049    1.065680861 XXX  3      oy7     O  -0.758
O5       1.896388888   20.297948051    1.066678166 XXX  3      oy8     O  -0.758
O6       2.270059347   23.103509355    1.000858426 XXX  3      oy9     O  -0.683
AL3      3.892971992   26.293122697   -0.001595629 XXX  3      ay2     Al  1.450
AL5      3.894728184   23.291027475    0.001595629 XXX  3      ay1     Al  1.450
SI9      4.736527443   21.899065185    2.703195333 XXX  3      sy1     Si  1.100
SI10     4.668914318   24.865098882    2.704392195 XXX  3      sy2     Si  1.100
H5       4.410897255   19.381993461    1.194727421 XXX  3      hoy     H   0.200
O25      4.422198296   23.373968530    3.356805086 XXX  3      oy1     O  -0.550
O26      3.580293655   20.831653762    3.147977114 XXX  3      oy2     O  -0.550
O27      3.556982279   25.876615453    3.364583731 XXX  3      oy3     O  -0.550
O28      4.882293224   22.026180912    1.065680861 XXX  3      oy7     O  -0.758
O29      4.492289066   24.805598188    1.066678166 XXX  3      oy8     O  -0.758
O30      4.865959644   18.595859337    1.000858426 XXX  3      oy9     O  -0.792
AL7      1.297071934   21.785472561   -0.001595629 XXX  3      ay2     Al  1.450
K4      29.240460985   21.682466712   -5.004670581 XXX  3      k+      K   1.000
AL1      1.298828125   27.798677576    0.001595629 XXX  4      ay1     Al  1.450
SI1      2.140627623   35.422014845    2.703195333 XXX  4      sy1     Si  1.100
SI2      2.073014021   29.372748984    2.704392195 XXX  4      sy2     Si  1.100
H1       1.814997077   32.904943598    1.194727421 XXX  4      hoy     H   0.200
O1       1.826298237   27.881618334    3.356805086 XXX  4      oy1     O  -0.550
O2       0.984393775   34.354603899    3.147977114 XXX  4      oy2     O  -0.550
O3       0.961082339   30.384265555    3.364583731 XXX  4      oy3     O  -0.550
O4       2.286393166   35.549131049    1.065680861 XXX  4      oy7     O  -0.758
O5       1.896388888   29.313248051    1.066678166 XXX  4      oy8     O  -0.867
O6       2.270059347   32.118809355    1.000858426 XXX  4      oy9     O  -0.792
AL3      3.892971992   35.308422697   -0.001595629 XXX  4      ay2     Al  1.450
AL5      3.894728184   32.306327475    0.001595629 XXX  4      ay1     Al  1.450
SI9      4.736527443   30.914365185    2.703195333 XXX  4      sy1     Si  1.100
SI10     4.668914318   33.880398882    2.704392195 XXX  4      sy2     Si  1.100
K3      28.194439989   32.529161571    4.884511270 XXX  4      k+      K   1.000
H5       4.410897255   28.397293461    1.194727421 XXX  4      hoy     H   0.200
O25      4.422198296   32.389268530    3.356805086 XXX  4      oy1     O  -0.550
O26      3.580293655   29.846953762    3.147977114 XXX  4      oy2     O  -0.550
O27      3.556982279   34.891915453    3.364583731 XXX  4      oy3     O  -0.550
O28      4.882293224   31.041480912    1.065680861 XXX  4      oy7     O  -0.758
O29      4.492289066   33.820898188    1.066678166 XXX  4      oy8     O  -0.758
O30      4.865959644   27.611159337    1.000858426 XXX  4      oy9     O  -0.683
AL7      1.297071934   30.800772561   -0.001595629 XXX  4      ay2     Mg  1.098
AL1      6.490628125    0.752777576    0.001595629 XXX  5      ay1     Al  1.450
SI1      7.332427623    8.376114845    2.703195333 XXX  5      sy1     Si  1.100
SI2      7.264814021    2.326848984    2.704392195 XXX  5      sy2     Si  1.100
H1       7.006797077    5.859043598    1.194727421 XXX  5      hoy     H   0.200
O1       7.018098237    0.835718334    3.356805086 XXX  5      oy1     O  -0.550
O2       6.176193775    7.308703899    3.147977114 XXX  5      oy2     O  -0.550
O3       6.152882339    3.338365555    3.364583731 XXX  5      oy3     O  -0.550
O4       7.478193166    8.503231049    1.065680861 XXX  5      oy7     O  -0.867
O5       7.088188888    2.267348051    1.066678166 XXX  5      oy8     O  -0.758
O6       7.461859347    5.072909355    1.000858426 XXX  5      oy9     O  -0.683
AL3      9.084771992    8.262522697   -0.001595629 XXX  5      ay2     Mg  1.098
AL5      9.086528184    5.260427475    0.001595629 XXX  5      ay1     Al  1.450
SI9      9.928327443    3.868465185    2.703195333 XXX  5      sy1     Si  1.100
SI10     9.860714318    6.834498882    2.704392195 XXX  5      sy2     Si  1.100
H5       9.602697255    1.351393461    1.194727421 XXX  5      hoy     H   0.200
O25      9.613998296    5.343368530    3.356805086 XXX  5      oy1     O  -0.550
O26      8.772093655    2.801053762    3.147977114 XXX  5      oy2     O  -0.550
O27      8.748782279    7.846015453    3.364583731 XXX  5      oy3     O  -0.550
O28     10.074093224    3.995580912    1.065680861 XXX  5      oy7     O  -0.758
O29      9.684089066    6.774998188    1.066678166 XXX  5      oy8     O  -0.867
O30     10.057759644    0.565259337    1.000858426 XXX  5      oy9     O  -0.683
AL7      6.488871934    3.754872561   -0.001595629 XXX  5      ay2     Al  1.450
K4      21.267707132   26.223510064   -4.728798908 XXX  5      k+      K   1.000
AL1      6.490628125    9.768077576    0.001595629 XXX  6      ay1     Al  1.450
SI1      7.332427623   17.391414845    2.703195333 XXX  6      sy1     Si  1.100
SI2      7.264814021   11.342148984    2.704392195 XXX  6      sy2     Si  1.100
H1       7.006797077   14.874343598    1.194727421 XXX  6      hoy     H   0.200
O1       7.018098237    9.851018334    3.356805086 XXX  6      oy1     O  -0.550
O2       6.176193775   16.324003899    3.147977114 XXX  6      oy2     O  -0.550
O3       6.152882339   12.353665555    3.364583731 XXX  6      oy3     O  -0.550
O4       7.478193166   17.518531049    1.065680861 XXX  6      oy7     O  -0.758
O5       7.088188888   11.282648051    1.066678166 XXX  6      oy8     O  -0.758
O6       7.461859347   14.088209355    1.000858426 XXX  6      oy9     O  -0.683
AL3      9.084771992   17.277822697   -0.001595629 XXX  6      ay2     Al  1.450
AL5      9.086528184   14.275727475    0.001595629 XXX  6      ay1     Al  1.450
SI9      9.928327443   12.883765185    2.703195333 XXX  6      sy1     Si  1.100
SI10     9.860714318   15.849798882    2.704392195 XXX  6      sy2     Si  1.100
H5       9.602697255   10.366693461    1.194727421 XXX  6      hoy     H   0.200
O25      9.613998296   14.358668530    3.356805086 XXX  6      oy1     O  -0.550
O26      8.772093655   11.816353762    3.147977114 XXX  6      oy2     O  -0.550
O27      8.748782279   16.861315453    3.364583731 XXX  6      oy3     O  -0.550
O28     10.074093224   13.010880912    1.065680861 XXX  6      oy7     O  -0.758
O29      9.684089066   15.790298188    1.066678166 XXX  6      oy8     O  -0.758
O30     10.057759644    9.580559337    1.000858426 XXX  6      oy9     O  -0.792
AL7      6.488871934   12.770172561   -0.001595629 XXX  6      ay2     Al  1.450
AL1      6.490628125   18.783377576    0.001595629 XXX  7      ay1     Al  1.450
SI1      7.332427623   26.406714845    2.703195333 XXX  7      sy1     Si  1.100
SI2      7.264814021   20.357448984    2.704392195 XXX  7      sy2     Si  1.100
H1       7.006797077   23.889643598    1.194727421 XXX  7      hoy     H   0.200
O1       7.018098237   18.866318334    3.356805086 XXX  7      oy1     O  -0.550
O2       6.176193775   25.339303899    3.147977114 XXX  7      oy2     O  -0.550
O3       6.152882339   21.368965555    3.364583731 XXX  7      oy3     O  -0.550
O4       7.478193166   26.533831049    1.065680861 XXX  7      oy7     O  -0.758
O5       7.088188888   20.297948051    1.066678166 XXX  7      oy8     O  -0.758
O6       7.461859347   23.103509355    1.000858426 XXX  7      oy9     O  -0.683
AL3      9.084771992   26.293122697   -0.001595629 XXX  7      ay2     Al  1.450
AL5      9.086528184   23.291027475    0.001595629 XXX  7      ay1     Al  1.450
SI9      9.928327443   21.899065185    2.703195333 XXX  7      sy1     Si  1.100
SI10     9.860714318   24.865098882    2.704392195 XXX  7      sy2     Si  1.100
H5       9.602697255   19.381993461    1.194727421 XXX  7      hoy     H   0.200
O25      9.613998296   23.373968530    3.356805086 XXX  7      oy1     O  -0.550
O26      8.772093655   20.831653762    3.147977114 XXX  7      oy2     O  -0.550
O27      8.748782279   25.876615453    3.364583731 XXX  7      oy3     O  -0.550
O28     10.074093224   22.026180912    1.065680861 XXX  7      oy7     O  -0.867
O29      9.684089066   24.805598188    1.066678166 XXX  7      oy8     O  -0.758
O30     10.057759644   18.595859337    1.000858426 XXX  7      oy9     O  -0.683
AL7      6.488871934   21.785472561   -0.001595629 XXX  7      ay2     Al  1.450
AL1      6.490628125   27.798677576    0.001595629 XXX  8      ay1     Al  1.450
SI1      7.332427623   35.422014845    2.703195333 XXX  8      sy1     Si  1.100
SI2      7.264814021   29.372748984    2.704392195 XXX  8      sy2     Si  1.100
H1       7.006797077   32.904943598    1.194727421 XXX  8      hoy     H   0.200
O1       7.018098237   27.881618334    3.356805086 XXX  8      oy1     O  -0.550
O2       6.176193775   34.354603899    3.147977114 XXX  8      oy2     O  -0.550
O3       6.152882339   30.384265555    3.364583731 XXX  8      oy3     O  -0.550
O4       7.478193166   35.549131049    1.065680861 XXX  8      oy7     O  -0.758
O5       7.088188888   29.313248051    1.066678166 XXX  8      oy8     O  -0.758
O6       7.461859347   32.118809355    1.000858426 XXX  8      oy9     O  -0.792
AL3      9.084771992   35.308422697   -0.001595629 XXX  8      ay2     Al  1.450
AL5      9.086528184   32.306327475    0.001595629 XXX  8      ay1     Mg  1.097
SI9      9.928327443   30.914365185    2.703195333 XXX  8      sy1     Si  1.100
SI10     9.860714318   33.880398882    2.704392195 XXX  8      sy2     Si  1.100
H5       9.602697255   28.397293461    1.194727421 XXX  8      hoy     H   0.200
O25      9.613998296   32.389268530    3.356805086 XXX  8      oy1     O  -0.550
O26      8.772093655   29.846953762    3.147977114 XXX  8      oy2     O  -0.550
O27      8.748782279   34.891915453    3.364583731 XXX  8      oy3     O  -0.550
O28     10.074093224   31.041480912    1.065680861 XXX  8      oy7     O  -0.867
O29      9.684089066   33.820898188    1.066678166 XXX  8      oy8     O  -0.867
O30     10.057759644   27.611159337    1.000858426 XXX  8      oy9     O  -0.683
AL7      6.488871934   30.800772561   -0.001595629 XXX  8      ay2     Al  1.450
AL1     11.682428125    0.752777576    0.001595629 XXX  9      ay1     Al  1.450
SI1     12.524227623    8.376114845    2.703195333 XXX  9      sy1     Si  1.100
SI2     12.456614021    2.326848984    2.704392195 XXX  9      sy2     Si  1.100
H1      12.198597077    5.859043598    1.194727421 XXX  9      hoy     H   0.200
O1      12.209898237    0.835718334    3.356805086 XXX  9      oy1     O  -0.550
O2      11.367993775    7.308703899    3.147977114 XXX  9      oy2     O  -0.550
O3      11.344682339    3.338365555    3.364583731 XXX  9      oy3     O  -0.550
O4      12.669993166    8.503231049    1.065680861 XXX  9      oy7     O  -0.758
O5      12.279988888    2.267348051    1.066678166 XXX  9      oy8     O  -0.758
O6      12.653659347    5.072909355    1.000858426 XXX  9      oy9     O  -0.683
AL3     14.276571992    8.262522697   -0.001595629 XXX  9      ay2     Al  1.450
AL5     14.278328184    5.260427475    0.001595629 XXX  9      ay1     Al  1.450
SI9     15.120127443    3.868465185    2.703195333 XXX  9      sy1     Si  1.100
SI10    15.052514318    6.834498882    2.704392195 XXX  9      sy2     Si  1.100
K3       2.159468370    5.320574100    4.849453592 XXX  9      k+      K   1.000
H5      14.794497255    1.351393461    1.194727421 XXX  9      hoy     H   0.200
O25     14.805798296    5.343368530    3.356805086 XXX  9      oy1     O  -0.550
O26     13.963893655    2.801053762    3.147977114 XXX  9      oy2     O  -0.550
O27     13.940582279    7.846015453    3.364583731 XXX  9      oy3     O  -0.550
O28     15.265893224    3.995580912    1.065680861 XXX  9      oy7     O  -0.867
O29     14.875889066    6.774998188    1.066678166 XXX  9      oy8     O  -0.758
O30     15.249559644    0.565259337    1.000858426 XXX  9      oy9     O  -0.683
AL7     11.680671934    3.754872561   -0.001595629 XXX  9      ay2     Al  1.450
AL1     11.682428125    9.768077576    0.001595629 XXX  10     ay1     Al  1.450
SI1     12.524227623   17.391414845    2.703195333 XXX  10     sy1     Si  1.100
SI2     12.456614021   11.342148984    2.704392195 XXX  10     sy2     Si  1.100
H1      12.198597077   14.874343598    1.194727421 XXX  10     hoy     H   0.200
O1      12.209898237    9.851018334    3.356805086 XXX  10     oy1     O  -0.550
O2      11.367993775   16.324003899    3.147977114 XXX  10     oy2     O  -0.550
O3      11.344682339   12.353665555    3.364583731 XXX  10     oy3     O  -0.550
O4      12.669993166   17.518531049    1.065680861 XXX  10     oy7     O  -0.758
O5      12.279988888   11.282648051    1.066678166 XXX  10     oy8     O  -0.758
O6      12.653659347   14.088209355    1.000858426 XXX  10     oy9     O  -0.683
AL3     14.276571992   17.277822697   -0.001595629 XXX  10     ay2     Al  1.450
K2       0.621291873   17.064917448   -4.855795509 XXX  10     k+      K   1.000
AL5     14.278328184   14.275727475    0.001595629 XXX  10     ay1     Al  1.450
SI9     15.120127443   12.883765185    2.703195333 XXX  10     sy1     Si  1.100
SI10    15.052514318   15.849798882    2.704392195 XXX  10     sy2     Si  1.100
H5      14.794497255   10.366693461    1.194727421 XXX  10     hoy     H   0.200
O25     14.805798296   14.358668530    3.356805086 XXX  10     oy1     O  -0.550
O26     13.963893655   11.816353762    3.147977114 XXX  10     oy2     O  -0.550
O27     13.940582279   16.861315453    3.364583731 XXX  10     oy3     O  -0.550
O28     15.265893224   13.010880912    1.065680861 XXX  10     oy7     O  -0.867
O29     14.875889066   15.790298188    1.066678166 XXX  10     oy8     O  -0.758
O30     15.249559644    9.580559337    1.000858426 XXX  10     oy9     O  -0.683
AL7     11.680671934   12.770172561   -0.001595629 XXX  10     ay2     Al  1.450
AL1     11.682428125   18.783377576    0.001595629 XXX  11     ay1     Al  1.450
SI1     12.524227623   26.406714845    2.703195333 XXX  11     sy1     Si  1.100
SI2     12.456614021   20.357448984    2.704392195 XXX  11     sy2     Si  1.100
H1      12.198597077   23.889643598    1.194727421 XXX  11     hoy     H   0.200
O1      12.209898237   18.866318334    3.356805086 XXX  11     oy1     O  -0.550
O2      11.367993775   25.339303899    3.147977114 XXX  11     oy2     O  -0.550
O3      11.344682339   21.368965555    3.364583731 XXX  11     oy3     O  -0.550
O4      12.669993166   26.533831049    1.065680861 XXX  11     oy7     O  -0.758
O5      12.279988888   20.297948051    1.066678166 XXX  11     oy8     O  -0.867
O6      12.653659347   23.103509355    1.000858426 XXX  11     oy9     O  -0.792
AL3     14.276571992   26.293122697   -0.001595629 XXX  11     ay2     Al  1.450
AL5     14.278328184   23.291027475    0.001595629 XXX  11     ay1     Al  1.450
SI9     15.120127443   21.899065185    2.703195333 XXX  11     sy1     Si  1.100
SI10    15.052514318   24.865098882    2.704392195 XXX  11     sy2     Si  1.100
H5      14.794497255   19.381993461    1.194727421 XXX  11     hoy     H   0.200
O25     14.805798296   23.373968530    3.356805086 XXX  11     oy1     O  -0.550
O26     13.963893655   20.831653762    3.147977114 XXX  11     oy2     O  -0.550
O27     13.940582279   25.876615453    3.364583731 XXX  11     oy3     O  -0.550
O28     15.265893224   22.026180912    1.065680861 XXX  11     oy7     O  -0.758
O29     14.875889066   24.805598188    1.066678166 XXX  11     oy8     O  -0.758
O30     15.249559644   18.595859337    1.000858426 XXX  11     oy9     O  -0.683
AL7     11.680671934   21.785472561   -0.001595629 XXX  11     ay2     Mg  1.098
AL1     11.682428125   27.798677576    0.001595629 XXX  12     ay1     Al  1.450
SI1     12.524227623   35.422014845    2.703195333 XXX  12     sy1     Si  1.100
SI2     12.456614021   29.372748984    2.704392195 XXX  12     sy2     Si  1.100
K1       9.886524099   28.081657724    4.953261243 XXX  12     k+      K   1.000
H1      12.198597077   32.904943598    1.194727421 XXX  12     hoy     H   0.200
O1      12.209898237   27.881618334    3.356805086 XXX  12     oy1     O  -0.550
O2      11.367993775   34.354603899    3.147977114 XXX  12     oy2     O  -0.550
O3      11.344682339   30.384265555    3.364583731 XXX  12     oy3     O  -0.550
O4      12.669993166   35.549131049    1.065680861 XXX  12     oy7     O  -0.758
O5      12.279988888   29.313248051    1.066678166 XXX  12     oy8     O  -0.758
O6      12.653659347   32.118809355    1.000858426 XXX  12     oy9     O  -0.792
AL3     14.276571992   35.308422697   -0.001595629 XXX  12     ay2     Al  1.450
AL5     14.278328184   32.306327475    0.001595629 XXX  12     ay1     Mg  1.098
SI9     15.120127443   30.914365185    2.703195333 XXX  12     sy1     Si  1.100
SI10    15.052514318   33.880398882    2.704392195 XXX  12     sy2     Si  1.100
H5      14.794497255   28.397293461    1.194727421 XXX  12     hoy     H   0.200
O25     14.805798296   32.389268530    3.356805086 XXX  12     oy1     O  -0.550
O26     13.963893655   29.846953762    3.147977114 XXX  12     oy2     O  -0.550
O27     13.940582279   34.891915453    3.364583731 XXX  12     oy3     O  -0.550
O28     15.265893224   31.041480912    1.065680861 XXX  12     oy7     O  -0.867
O29     14.875889066   33.820898188    1.066678166 XXX  12     oy8     O  -0.867
O30     15.249559644   27.611159337    1.000858426 XXX  12     oy9     O  -0.792
AL7     11.680671934   30.800772561   -0.001595629 XXX  12     ay2     Al  1.450
AL1     16.874228125    0.752777576    0.001595629 XXX  13     ay1     Al  1.450
SI1     17.716027623    8.376114845    2.703195333 XXX  13     sy1     Si  1.100
SI2     17.648414021    2.326848984    2.704392195 XXX  13     sy2     Si  1.100
H1      17.390397077    5.859043598    1.194727421 XXX  13     hoy     H   0.200
O1      17.401698237    0.835718334    3.356805086 XXX  13     oy1     O  -0.550
O2      16.559793775    7.308703899    3.147977114 XXX  13     oy2     O  -0.550
O3      16.536482339    3.338365555    3.364583731 XXX  13     oy3     O  -0.550
O4      17.861793166    8.503231049    1.065680861 XXX  13     oy7     O  -0.758
O5      17.471788888    2.267348051    1.066678166 XXX  13     oy8     O  -0.867
O6      17.845459347    5.072909355    1.000858426 XXX  13     oy9     O  -0.792
AL3     19.468371992    8.262522697   -0.001595629 XXX  13     ay2     Al  1.450
K2       8.180316504    3.738540798   -4.942078942 XXX  13     k+      K   1.000
AL5     19.470128184    5.260427475    0.001595629 XXX  13     ay1     Al  1.450
SI9     20.311927443    3.868465185    2.703195333 XXX  13     sy1     Si  1.100
SI10    20.244314318    6.834498882    2.704392195 XXX  13     sy2     Si  1.100
H5      19.986297255    1.351393461    1.194727421 XXX  13     hoy     H   0.200
O25     19.997598296    5.343368530    3.356805086 XXX  13     oy1     O  -0.550
O26     19.155693655    2.801053762    3.147977114 XXX  13     oy2     O  -0.550
O27     19.132382279    7.846015453    3.364583731 XXX  13     oy3     O  -0.550
O28     20.457693224    3.995580912    1.065680861 XXX  13     oy7     O  -0.758
O29     20.067689066    6.774998188    1.066678166 XXX  13     oy8     O  -0.758
O30     20.441359644    0.565259337    1.000858426 XXX  13     oy9     O  -0.683
AL7     16.872471934    3.754872561   -0.001595629 XXX  13     ay2     Mg  1.098
K4      34.196851554    3.558673400   -4.855750244 XXX  13     k+      K   1.000
AL1     16.874228125    9.768077576    0.001595629 XXX  14     ay1     Al  1.450
SI1     17.716027623   17.391414845    2.703195333 XXX  14     sy1     Si  1.100
SI2     17.648414021   11.342148984    2.704392195 XXX  14     sy2     Si  1.100
H1      17.390397077   14.874343598    1.194727421 XXX  14     hoy     H   0.200
O1      17.401698237    9.851018334    3.356805086 XXX  14     oy1     O  -0.550
O2      16.559793775   16.324003899    3.147977114 XXX  14     oy2     O  -0.550
O3      16.536482339   12.353665555    3.364583731 XXX  14     oy3     O  -0.550
O4      17.861793166   17.518531049    1.065680861 XXX  14     oy7     O  -0.758
O5      17.471788888   11.282648051    1.066678166 XXX  14     oy8     O  -0.867
O6      17.845459347   14.088209355    1.000858426 XXX  14     oy9     O  -0.792
AL3     19.468371992   17.277822697   -0.001595629 XXX  14     ay2     Al  1.450
AL5     19.470128184   14.275727475    0.001595629 XXX  14     ay1     Al  1.450
SI9     20.311927443   12.883765185    2.703195333 XXX  14     sy1     Si  1.100
SI10    20.244314318   15.849798882    2.704392195 XXX  14     sy2     Si  1.100
K3      20.310911104   18.909536909    4.919803254 XXX  14     k+      K   1.000
H5      19.986297255   10.366693461    1.194727421 XXX  14     hoy     H   0.200
O25     19.997598296   14.358668530    3.356805086 XXX  14     oy1     O  -0.550
O26     19.155693655   11.816353762    3.147977114 XXX  14     oy2     O  -0.550
O27     19.132382279   16.861315453    3.364583731 XXX  14     oy3     O  -0.550
O28     20.457693224   13.010880912    1.065680861 XXX  14     oy7     O  -0.758
O29     20.067689066   15.790298188    1.066678166 XXX  14     oy8     O  -0.758
O30     20.441359644    9.580559337    1.000858426 XXX  14     oy9     O  -0.792
AL7     16.872471934   12.770172561   -0.001595629 XXX  14     ay2     Mg  1.097
AL1     16.874228125   18.783377576    0.001595629 XXX  15     ay1     Al  1.450
SI1     17.716027623   26.406714845    2.703195333 XXX  15     sy1     Si  1.100
SI2     17.648414021   20.357448984    2.704392195 XXX  15     sy2     Si  1.100
H1      17.390397077   23.889643598    1.194727421 XXX  15     hoy     H   0.200
O1      17.401698237   18.866318334    3.356805086 XXX  15     oy1     O  -0.550
O2      16.559793775   25.339303899    3.147977114 XXX  15     oy2     O  -0.550
O3      16.536482339   21.368965555    3.364583731 XXX  15     oy3     O  -0.550
O4      17.861793166   26.533831049    1.065680861 XXX  15     oy7     O  -0.867
O5      17.471788888   20.297948051    1.066678166 XXX  15     oy8     O  -0.758
O6      17.845459347   23.103509355    1.000858426 XXX  15     oy9     O  -0.683
AL3     19.468371992   26.293122697   -0.001595629 XXX  15     ay2     Al  1.450
AL5     19.470128184   23.291027475    0.001595629 XXX  15     ay1     Al  1.450
SI9     20.311927443   21.899065185    2.703195333 XXX  15     sy1     Si  1.100
SI10    20.244314318   24.865098882    2.704392195 XXX  15     sy2     Si  1.100
K3      20.208385478   27.913922533    4.699912612 XXX  15     k+      K   1.000
H5      19.986297255   19.381993461    1.194727421 XXX  15     hoy     H   0.200
O25     19.997598296   23.373968530    3.356805086 XXX  15     oy1     O  -0.550
O26     19.155693655   20.831653762    3.147977114 XXX  15     oy2     O  -0.550
O27     19.132382279   25.876615453    3.364583731 XXX  15     oy3     O  -0.550
O28     20.457693224   22.026180912    1.065680861 XXX  15     oy7     O  -0.867
O29     20.067689066   24.805598188    1.066678166 XXX  15     oy8     O  -0.758
O30     20.441359644   18.595859337    1.000858426 XXX  15     oy9     O  -0.683
AL7     16.872471934   21.785472561   -0.001595629 XXX  15     ay2     Al  1.450
AL1     16.874228125   27.798677576    0.001595629 XXX  16     ay1     Mg  1.098
SI1     17.716027623   35.422014845    2.703195333 XXX  16     sy1     Si  1.100
SI2     17.648414021   29.372748984    2.704392195 XXX  16     sy2     Si  1.100
H1      17.390397077   32.904943598    1.194727421 XXX  16     hoy     H   0.200
O1      17.401698237   27.881618334    3.356805086 XXX  16     oy1     O  -0.550
O2      16.559793775   34.354603899    3.147977114 XXX  16     oy2     O  -0.550
O3      16.536482339   30.384265555    3.364583731 XXX  16     oy3     O  -0.550
O4      17.861793166   35.549131049    1.065680861 XXX  16     oy7     O  -0.758
O5      17.471788888   29.313248051    1.066678166 XXX  16     oy8     O  -0.867
O6      17.845459347   32.118809355    1.000858426 XXX  16     oy9     O  -0.683
AL3     19.468371992   35.308422697   -0.001595629 XXX  16     ay2     Al  1.450
AL5     19.470128184   32.306327475    0.001595629 XXX  16     ay1     Al  1.450
SI9     20.311927443   30.914365185    2.703195333 XXX  16     sy1     Si  1.100
SI10    20.244314318   33.880398882    2.704392195 XXX  16     sy2     Si  1.100
H5      19.986297255   28.397293461    1.194727421 XXX  16     hoy     H   0.200
O25     19.997598296   32.389268530    3.356805086 XXX  16     oy1     O  -0.550
O26     19.155693655   29.846953762    3.147977114 XXX  16     oy2     O  -0.550
O27     19.132382279   34.891915453    3.364583731 XXX  16     oy3     O  -0.550
O28     20.457693224   31.041480912    1.065680861 XXX  16     oy7     O  -0.758
O29     20.067689066   33.820898188    1.066678166 XXX  16     oy8     O  -0.758
O30     20.441359644   27.611159337    1.000858426 XXX  16     oy9     O  -0.792
AL7     16.872471934   30.800772561   -0.001595629 XXX  16     ay2     Al  1.450
AL1     22.066028125    0.752777576    0.001595629 XXX  17     ay1     Al  1.450
SI1     22.907827623    8.376114845    2.703195333 XXX  17     sy1     Si  1.100
SI2     22.840214021    2.326848984    2.704392195 XXX  17     sy2     Si  1.100
H1      22.582197077    5.859043598    1.194727421 XXX  17     hoy     H   0.200
O1      22.593498237    0.835718334    3.356805086 XXX  17     oy1     O  -0.550
O2      21.751593775    7.308703899    3.147977114 XXX  17     oy2     O  -0.550
O3      21.728282339    3.338365555    3.364583731 XXX  17     oy3     O  -0.550
O4      23.053593166    8.503231049    1.065680861 XXX  17     oy7     O  -0.867
O5      22.663588888    2.267348051    1.066678166 XXX  17     oy8     O  -0.758
O6      23.037259347    5.072909355    1.000858426 XXX  17     oy9     O  -0.683
AL3     24.660171992    8.262522697   -0.001595629 XXX  17     ay2     Al  1.450
AL5     24.661928184    5.260427475    0.001595629 XXX  17     ay1     Al  1.450
SI9     25.503727443    3.868465185    2.703195333 XXX  17     sy1     Si  1.100
SI10    25.436114318    6.834498882    2.704392195 XXX  17     sy2     Si  1.100
H5      25.178097255    1.351393461    1.194727421 XXX  17     hoy     H   0.200
O25     25.189398296    5.343368530    3.356805086 XXX  17     oy1     O  -0.550
O26     24.347493655    2.801053762    3.147977114 XXX  17     oy2     O  -0.550
O27     24.324182279    7.846015453    3.364583731 XXX  17     oy3     O  -0.550
O28     25.649493224    3.995580912    1.065680861 XXX  17     oy7     O  -0.758
O29     25.259489066    6.774998188    1.066678166 XXX  17     oy8     O  -0.758
O30     25.633159644    0.565259337    1.000858426 XXX  17     oy9     O  -0.683
AL7     22.064271934    3.754872561   -0.001595629 XXX  17     ay2     Al  1.450
AL1     22.066028125    9.768077576    0.001595629 XXX  18     ay1     Mg  1.098
SI1     22.907827623   17.391414845    2.703195333 XXX  18     sy1     Si  1.100
SI2     22.840214021   11.342148984    2.704392195 XXX  18     sy2     Si  1.100
H1      22.582197077   14.874343598    1.194727421 XXX  18     hoy     H   0.200
O1      22.593498237    9.851018334    3.356805086 XXX  18     oy1     O  -0.550
O2      21.751593775   16.324003899    3.147977114 XXX  18     oy2     O  -0.550
O3      21.728282339   12.353665555    3.364583731 XXX  18     oy3     O  -0.550
O4      23.053593166   17.518531049    1.065680861 XXX  18     oy7     O  -0.758
O5      22.663588888   11.282648051    1.066678166 XXX  18     oy8     O  -0.867
O6      23.037259347   14.088209355    1.000858426 XXX  18     oy9     O  -0.792
AL3     24.660171992   17.277822697   -0.001595629 XXX  18     ay2     Al  1.450
AL5     24.661928184   14.275727475    0.001595629 XXX  18     ay1     Mg  1.097
SI9     25.503727443   12.883765185    2.703195333 XXX  18     sy1     Si  1.100
SI10    25.436114318   15.849798882    2.704392195 XXX  18     sy2     Si  1.100
H5      25.178097255   10.366693461    1.194727421 XXX  18     hoy     H   0.200
O25     25.189398296   14.358668530    3.356805086 XXX  18     oy1     O  -0.550
O26     24.347493655   11.816353762    3.147977114 XXX  18     oy2     O  -0.550
O27     24.324182279   16.861315453    3.364583731 XXX  18     oy3     O  -0.550
O28     25.649493224   13.010880912    1.065680861 XXX  18     oy7     O  -0.867
O29     25.259489066   15.790298188    1.066678166 XXX  18     oy8     O  -0.867
O30     25.633159644    9.580559337    1.000858426 XXX  18     oy9     O  -0.683
AL7     22.064271934   12.770172561   -0.001595629 XXX  18     ay2     Al  1.450
AL1     22.066028125   18.783377576    0.001595629 XXX  19     ay1     Al  1.450
SI1     22.907827623   26.406714845    2.703195333 XXX  19     sy1     Si  1.100
SI2     22.840214021   20.357448984    2.704392195 XXX  19     sy2     Si  1.100
H1      22.582197077   23.889643598    1.194727421 XXX  19     hoy     H   0.200
O1      22.593498237   18.866318334    3.356805086 XXX  19     oy1     O  -0.550
O2      21.751593775   25.339303899    3.147977114 XXX  19     oy2     O  -0.550
O3      21.728282339   21.368965555    3.364583731 XXX  19     oy3     O  -0.550
O4      23.053593166   26.533831049    1.065680861 XXX  19     oy7     O  -0.867
O5      22.663588888   20.297948051    1.066678166 XXX  19     oy8     O  -0.867
O6      23.037259347   23.103509355    1.000858426 XXX  19     oy9     O  -0.792
AL3     24.660171992   26.293122697   -0.001595629 XXX  19     ay2     Al  1.450
K2      13.386101026   21.617789701   -4.855990584 XXX  19     k+      K   1.000
AL5     24.661928184   23.291027475    0.001595629 XXX  19     ay1     Al  1.450
SI9     25.503727443   21.899065185    2.703195333 XXX  19     sy1     Si  1.100
SI10    25.436114318   24.865098882    2.704392195 XXX  19     sy2     Si  1.100
H5      25.178097255   19.381993461    1.194727421 XXX  19     hoy     H   0.200
O25     25.189398296   23.373968530    3.356805086 XXX  19     oy1     O  -0.550
O26     24.347493655   20.831653762    3.147977114 XXX  19     oy2     O  -0.550
O27     24.324182279   25.876615453    3.364583731 XXX  19     oy3     O  -0.550
O28     25.649493224   22.026180912    1.065680861 XXX  19     oy7     O  -0.758
O29     25.259489066   24.805598188    1.066678166 XXX  19     oy8     O  -0.758
O30     25.633159644   18.595859337    1.000858426 XXX  19     oy9     O  -0.683
AL7     22.064271934   21.785472561   -0.001595629 XXX  19     ay2     Mg  1.098
AL1     22.066028125   27.798677576    0.001595629 XXX  20     ay1     Mg  1.098
SI1     22.907827623   35.422014845    2.703195333 XXX  20     sy1     Si  1.100
SI2     22.840214021   29.372748984    2.704392195 XXX  20     sy2     Si  1.100
H1      22.582197077   32.904943598    1.194727421 XXX  20     hoy     H   0.200
O1      22.593498237   27.881618334    3.356805086 XXX  20     oy1     O  -0.550
O2      21.751593775   34.354603899    3.147977114 XXX  20     oy2     O  -0.550
O3      21.728282339   30.384265555    3.364583731 XXX  20     oy3     O  -0.550
O4      23.053593166   35.549131049    1.065680861 XXX  20     oy7     O  -0.758
O5      22.663588888   29.313248051    1.066678166 XXX  20     oy8     O  -0.867
O6      23.037259347   32.118809355    1.000858426 XXX  20     oy9     O  -0.683
AL3     24.660171992   35.308422697   -0.001595629 XXX  20     ay2     Al  1.450
K2      13.478203702   30.744017441   -4.703036928 XXX  20     k+      K   1.000
AL5     24.661928184   32.306327475    0.001595629 XXX  20     ay1     Al  1.450
SI9     25.503727443   30.914365185    2.703195333 XXX  20     sy1     Si  1.100
SI10    25.436114318   33.880398882    2.704392195 XXX  20     sy2     Si  1.100
H5      25.178097255   28.397293461    1.194727421 XXX  20     hoy     H   0.200
O25     25.189398296   32.389268530    3.356805086 XXX  20     oy1     O  -0.550
O26     24.347493655   29.846953762    3.147977114 XXX  20     oy2     O  -0.550
O27     24.324182279   34.891915453    3.364583731 XXX  20     oy3     O  -0.550
O28     25.649493224   31.041480912    1.065680861 XXX  20     oy7     O  -0.758
O29     25.259489066   33.820898188    1.066678166 XXX  20     oy8     O  -0.758
O30     25.633159644   27.611159337    1.000858426 XXX  20     oy9     O  -0.683
AL7     22.064271934   30.800772561   -0.001595629 XXX  20     ay2     Al  1.450
AL1     27.257828125    0.752777576    0.001595629 XXX  21     ay1     Al  1.450
SI1     28.099627623    8.376114845    2.703195333 XXX  21     sy1     Si  1.100
SI2     28.032014021    2.326848984    2.704392195 XXX  21     sy2     Si  1.100
H1      27.773997077    5.859043598    1.194727421 XXX  21     hoy     H   0.200
O1      27.785298237    0.835718334    3.356805086 XXX  21     oy1     O  -0.550
O2      26.943393775    7.308703899    3.147977114 XXX  21     oy2     O  -0.550
O3      26.920082339    3.338365555    3.364583731 XXX  21     oy3     O  -0.550
O4      28.245393166    8.503231049    1.065680861 XXX  21     oy7     O  -0.758
O5      27.855388888    2.267348051    1.066678166 XXX  21     oy8     O  -0.758
O6      28.229059347    5.072909355    1.000858426 XXX  21     oy9     O  -0.683
AL3     29.851971992    8.262522697   -0.001595629 XXX  21     ay2     Al  1.450
AL5     29.853728184    5.260427475    0.001595629 XXX  21     ay1     Al  1.450
SI9     30.695527443    3.868465185    2.703195333 XXX  21     sy1     Si  1.100
SI10    30.627914318    6.834498882    2.704392195 XXX  21     sy2     Si  1.100
H5      30.369897255    1.351393461    1.194727421 XXX  21     hoy     H   0.200
O25     30.381198296    5.343368530    3.356805086 XXX  21     oy1     O  -0.550
O26     29.539293655    2.801053762    3.147977114 XXX  21     oy2     O  -0.550
O27     29.515982279    7.846015453    3.364583731 XXX  21     oy3     O  -0.550
O28     30.841293224    3.995580912    1.065680861 XXX  21     oy7     O  -0.867
O29     30.451289066    6.774998188    1.066678166 XXX  21     oy8     O  -0.758
O30     30.824959644    0.565259337    1.000858426 XXX  21     oy9     O  -0.683
AL7     27.256071934    3.754872561   -0.001595629 XXX  21     ay2     Al  1.450
AL1     27.257828125    9.768077576    0.001595629 XXX  22     ay1     Al  1.450
SI1     28.099627623   17.391414845    2.703195333 XXX  22     sy1     Si  1.100
SI2     28.032014021   11.342148984    2.704392195 XXX  22     sy2     Si  1.100
K1       2.081725900   14.491319118    4.851430755 XXX  22     k+      K   1.000
H1      27.773997077   14.874343598    1.194727421 XXX  22     hoy     H   0.200
O1      27.785298237    9.851018334    3.356805086 XXX  22     oy1     O  -0.550
O2      26.943393775   16.324003899    3.147977114 XXX  22     oy2     O  -0.550
O3      26.920082339   12.353665555    3.364583731 XXX  22     oy3     O  -0.550
O4      28.245393166   17.518531049    1.065680861 XXX  22     oy7     O  -0.758
O5      27.855388888   11.282648051    1.066678166 XXX  22     oy8     O  -0.758
O6      28.229059347   14.088209355    1.000858426 XXX  22     oy9     O  -0.683
AL3     29.851971992   17.277822697   -0.001595629 XXX  22     ay2     Al  1.450
K2      23.850785928   12.624491403   -4.709452653 XXX  22     k+      K   1.000
AL5     29.853728184   14.275727475    0.001595629 XXX  22     ay1     Al  1.450
SI9     30.695527443   12.883765185    2.703195333 XXX  22     sy1     Si  1.100
SI10    30.627914318   15.849798882    2.704392195 XXX  22     sy2     Si  1.100
H5      30.369897255   10.366693461    1.194727421 XXX  22     hoy     H   0.200
O25     30.381198296   14.358668530    3.356805086 XXX  22     oy1     O  -0.550
O26     29.539293655   11.816353762    3.147977114 XXX  22     oy2     O  -0.550
O27     29.515982279   16.861315453    3.364583731 XXX  22     oy3     O  -0.550
O28     30.841293224   13.010880912    1.065680861 XXX  22     oy7     O  -0.758
O29     30.451289066   15.790298188    1.066678166 XXX  22     oy8     O  -0.758
O30     30.824959644    9.580559337    1.000858426 XXX  22     oy9     O  -0.683
AL7     27.256071934   12.770172561   -0.001595629 XXX  22     ay2     Al  1.450
AL1     27.257828125   18.783377576    0.001595629 XXX  23     ay1     Al  1.450
SI1     28.099627623   26.406714845    2.703195333 XXX  23     sy1     Si  1.100
SI2     28.032014021   20.357448984    2.704392195 XXX  23     sy2     Si  1.100
H1      27.773997077   23.889643598    1.194727421 XXX  23     hoy     H   0.200
O1      27.785298237   18.866318334    3.356805086 XXX  23     oy1     O  -0.550
O2      26.943393775   25.339303899    3.147977114 XXX  23     oy2     O  -0.550
O3      26.920082339   21.368965555    3.364583731 XXX  23     oy3     O  -0.550
O4      28.245393166   26.533831049    1.065680861 XXX  23     oy7     O  -0.758
O5      27.855388888   20.297948051    1.066678166 XXX  23     oy8     O  -0.758
O6      28.229059347   23.103509355    1.000858426 XXX  23     oy9     O  -0.683
AL3     29.851971992   26.293122697   -0.001595629 XXX  23     ay2     Al  1.450
AL5     29.853728184   23.291027475    0.001595629 XXX  23     ay1     Al  1.450
SI9     30.695527443   21.899065185    2.703195333 XXX  23     sy1     Si  1.100
SI10    30.627914318   24.865098882    2.704392195 XXX  23     sy2     Si  1.100
H5      30.369897255   19.381993461    1.194727421 XXX  23     hoy     H   0.200
O25     30.381198296   23.373968530    3.356805086 XXX  23     oy1     O  -0.550
O26     29.539293655   20.831653762    3.147977114 XXX  23     oy2     O  -0.550
O27     29.515982279   25.876615453    3.364583731 XXX  23     oy3     O  -0.550
O28     30.841293224   22.026180912    1.065680861 XXX  23     oy7     O  -0.867
O29     30.451289066   24.805598188    1.066678166 XXX  23     oy8     O  -0.758
O30     30.824959644   18.595859337    1.000858426 XXX  23     oy9     O  -0.683
AL7     27.256071934   21.785472561   -0.001595629 XXX  23     ay2     Al  1.450
AL1     27.257828125   27.798677576    0.001595629 XXX  24     ay1     Al  1.450
SI1     28.099627623   35.422014845    2.703195333 XXX  24     sy1     Si  1.100
SI2     28.032014021   29.372748984    2.704392195 XXX  24     sy2     Si  1.100
K1      15.032545062    0.906679383    4.870645473 XXX  24     k+      K   1.000
H1      27.773997077   32.904943598    1.194727421 XXX  24     hoy     H   0.200
O1      27.785298237   27.881618334    3.356805086 XXX  24     oy1     O  -0.550
O2      26.943393775   34.354603899    3.147977114 XXX  24     oy2     O  -0.550
O3      26.920082339   30.384265555    3.364583731 XXX  24     oy3     O  -0.550
O4      28.245393166   35.549131049    1.065680861 XXX  24     oy7     O  -0.758
O5      27.855388888   29.313248051    1.066678166 XXX  24     oy8     O  -0.758
O6      28.229059347   32.118809355    1.000858426 XXX  24     oy9     O  -0.792
AL3     29.851971992   35.308422697   -0.001595629 XXX  24     ay2     Al  1.450
AL5     29.853728184   32.306327475    0.001595629 XXX  24     ay1     Mg  1.098
SI9     30.695527443   30.914365185    2.703195333 XXX  24     sy1     Si  1.100
SI10    30.627914318   33.880398882    2.704392195 XXX  24     sy2     Si  1.100
H5      30.369897255   28.397293461    1.194727421 XXX  24     hoy     H   0.200
O25     30.381198296   32.389268530    3.356805086 XXX  24     oy1     O  -0.550
O26     29.539293655   29.846953762    3.147977114 XXX  24     oy2     O  -0.550
O27     29.515982279   34.891915453    3.364583731 XXX  24     oy3     O  -0.550
O28     30.841293224   31.041480912    1.065680861 XXX  24     oy7     O  -0.867
O29     30.451289066   33.820898188    1.066678166 XXX  24     oy8     O  -0.867
O30     30.824959644   27.611159337    1.000858426 XXX  24     oy9     O  -0.683
AL7     27.256071934   30.800772561   -0.001595629 XXX  24     ay2     Al  1.450
AL1     32.449628125    0.752777576    0.001595629 XXX  25     ay1     Al  1.450
SI1     33.291427623    8.376114845    2.703195333 XXX  25     sy1     Si  1.100
SI2     33.223814021    2.326848984    2.704392195 XXX  25     sy2     Si  1.100
K1      20.286823854    9.931527169    4.750123334 XXX  25     k+      K   1.000
H1      32.965797077    5.859043598    1.194727421 XXX  25     hoy     H   0.200
O1      32.977098237    0.835718334    3.356805086 XXX  25     oy1     O  -0.550
O2      32.135193775    7.308703899    3.147977114 XXX  25     oy2     O  -0.550
O3      32.111882339    3.338365555    3.364583731 XXX  25     oy3     O  -0.550
O4      33.437193166    8.503231049    1.065680861 XXX  25     oy7     O  -0.758
O5      33.047188888    2.267348051    1.066678166 XXX  25     oy8     O  -0.867
O6      33.420859347    5.072909355    1.000858426 XXX  25     oy9     O  -0.792
AL3     35.043771992    8.262522697   -0.001595629 XXX  25     ay2     Al  1.450
AL5     35.045528184    5.260427475    0.001595629 XXX  25     ay1     Al  1.450
SI9     35.887327443    3.868465185    2.703195333 XXX  25     sy1     Si  1.100
SI10    35.819714318    6.834498882    2.704392195 XXX  25     sy2     Si  1.100
H5      35.561697255    1.351393461    1.194727421 XXX  25     hoy     H   0.200
O25     35.572998296    5.343368530    3.356805086 XXX  25     oy1     O  -0.550
O26     34.731093655    2.801053762    3.147977114 XXX  25     oy2     O  -0.550
O27     34.707782279    7.846015453    3.364583731 XXX  25     oy3     O  -0.550
O28     36.033093224    3.995580912    1.065680861 XXX  25     oy7     O  -0.758
O29     35.643089066    6.774998188    1.066678166 XXX  25     oy8     O  -0.758
O30     36.016759644    0.565259337    1.000858426 XXX  25     oy9     O  -0.683
AL7     32.447871934    3.754872561   -0.001595629 XXX  25     ay2     Mg  1.098
AL1     32.449628125    9.768077576    0.001595629 XXX  26     ay1     Al  1.450
SI1     33.291427623   17.391414845    2.703195333 XXX  26     sy1     Si  1.100
SI2     33.223814021   11.342148984    2.704392195 XXX  26     sy2     Si  1.100
H1      32.965797077   14.874343598    1.194727421 XXX  26     hoy     H   0.200
O1      32.977098237    9.851018334    3.356805086 XXX  26     oy1     O  -0.550
O2      32.135193775   16.324003899    3.147977114 XXX  26     oy2     O  -0.550
O3      32.111882339   12.353665555    3.364583731 XXX  26     oy3     O  -0.550
O4      33.437193166   17.518531049    1.065680861 XXX  26     oy7     O  -0.758
O5      33.047188888   11.282648051    1.066678166 XXX  26     oy8     O  -0.758
O6      33.420859347   14.088209355    1.000858426 XXX  26     oy9     O  -0.792
AL3     35.043771992   17.277822697   -0.001595629 XXX  26     ay2     Al  1.450
AL5     35.045528184   14.275727475    0.001595629 XXX  26     ay1     Mg  1.098
SI9     35.887327443   12.883765185    2.703195333 XXX  26     sy1     Si  1.100
SI10    35.819714318   15.849798882    2.704392195 XXX  26     sy2     Si  1.100
H5      35.561697255   10.366693461    1.194727421 XXX  26     hoy     H   0.200
O25     35.572998296   14.358668530    3.356805086 XXX  26     oy1     O  -0.550
O26     34.731093655   11.816353762    3.147977114 XXX  26     oy2     O  -0.550
O27     34.707782279   16.861315453    3.364583731 XXX  26     oy3     O  -0.550
O28     36.033093224   13.010880912    1.065680861 XXX  26     oy7     O  -0.867
O29     35.643089066   15.790298188    1.066678166 XXX  26     oy8     O  -0.867
O30     36.016759644    9.580559337    1.000858426 XXX  26     oy9     O  -0.683
AL7     32.447871934   12.770172561   -0.001595629 XXX  26     ay2     Al  1.450
AL1     32.449628125   18.783377576    0.001595629 XXX  27     ay1     Al  1.450
SI1     33.291427623   26.406714845    2.703195333 XXX  27     sy1     Si  1.100
SI2     33.223814021   20.357448984    2.704392195 XXX  27     sy2     Si  1.100
H1      32.965797077   23.889643598    1.194727421 XXX  27     hoy     H   0.200
O1      32.977098237   18.866318334    3.356805086 XXX  27     oy1     O  -0.550
O2      32.135193775   25.339303899    3.147977114 XXX  27     oy2     O  -0.550
O3      32.111882339   21.368965555    3.364583731 XXX  27     oy3     O  -0.550
O4      33.437193166   26.533831049    1.065680861 XXX  27     oy7     O  -0.758
O5      33.047188888   20.297948051    1.066678166 XXX  27     oy8     O  -0.867
O6      33.420859347   23.103509355    1.000858426 XXX  27     oy9     O  -0.792
AL3     35.043771992   26.293122697   -0.001595629 XXX  27     ay2     Al  1.450
K2      16.131771127    8.139440888   -4.879618685 XXX  27     k+      K   1.000
AL5     35.045528184   23.291027475    0.001595629 XXX  27     ay1     Al  1.450
SI9     35.887327443   21.899065185    2.703195333 XXX  27     sy1     Si  1.100
SI10    35.819714318   24.865098882    2.704392195 XXX  27     sy2     Si  1.100
H5      35.561697255   19.381993461    1.194727421 XXX  27     hoy     H   0.200
O25     35.572998296   23.373968530    3.356805086 XXX  27     oy1     O  -0.550
O26     34.731093655   20.831653762    3.147977114 XXX  27     oy2     O  -0.550
O27     34.707782279   25.876615453    3.364583731 XXX  27     oy3     O  -0.550
O28     36.033093224   22.026180912    1.065680861 XXX  27     oy7     O  -0.758
O29     35.643089066   24.805598188    1.066678166 XXX  27     oy8     O  -0.758
O30     36.016759644   18.595859337    1.000858426 XXX  27     oy9     O  -0.683
AL7     32.447871934   21.785472561   -0.001595629 XXX  27     ay2     Mg  1.098
AL1     32.449628125   27.798677576    0.001595629 XXX  28     ay1     Al  1.450
SI1     33.291427623   35.422014845    2.703195333 XXX  28     sy1     Si  1.100
SI2     33.223814021   29.372748984    2.704392195 XXX  28     sy2     Si  1.100
H1      32.965797077   32.904943598    1.194727421 XXX  28     hoy     H   0.200
O1      32.977098237   27.881618334    3.356805086 XXX  28     oy1     O  -0.550
O2      32.135193775   34.354603899    3.147977114 XXX  28     oy2     O  -0.550
O3      32.111882339   30.384265555    3.364583731 XXX  28     oy3     O  -0.550
O4      33.437193166   35.549131049    1.065680861 XXX  28     oy7     O  -0.758
O5      33.047188888   29.313248051    1.066678166 XXX  28     oy8     O  -0.758
O6      33.420859347   32.118809355    1.000858426 XXX  28     oy9     O  -0.683
AL3     35.043771992   35.308422697   -0.001595629 XXX  28     ay2     Al  1.450
AL5     35.045528184   32.306327475    0.001595629 XXX  28     ay1     Al  1.450
SI9     35.887327443   30.914365185    2.703195333 XXX  28     sy1     Si  1.100
SI10    35.819714318   33.880398882    2.704392195 XXX  28     sy2     Si  1.100
H5      35.561697255   28.397293461    1.194727421 XXX  28     hoy     H   0.200
O25     35.572998296   32.389268530    3.356805086 XXX  28     oy1     O  -0.550
O26     34.731093655   29.846953762    3.147977114 XXX  28     oy2     O  -0.550
O27     34.707782279   34.891915453    3.364583731 XXX  28     oy3     O  -0.550
O28     36.033093224   31.041480912    1.065680861 XXX  28     oy7     O  -0.867
O29     35.643089066   33.820898188    1.066678166 XXX  28     oy8     O  -0.758
O30     36.016759644   27.611159337    1.000858426 XXX  28     oy9     O  -0.683
AL7     32.447871934   30.800772561   -0.001595629 XXX  28     ay2     Al  1.450
SI5      3.051172310    0.639184773   -2.703195191 XXX  29     sy1     Si  1.100
SI6      3.118785912    6.688451290   -2.704393006 XXX  29     sy2     Si  1.100
H3       3.376802975    3.156256437   -1.194726563 XXX  29     hoy     H   0.200
O13      3.365501696    8.179581642   -3.356805421 XXX  29     oy1     O  -0.550
O14      4.207406217    1.706596255   -3.147977448 XXX  29     oy2     O  -0.550
O15      4.230717593    5.676934242   -3.364583588 XXX  29     oy3     O  -0.550
O16      2.905406827    0.512069046   -1.065681077 XXX  29     oy4     O  -0.758
O17      3.295411164    6.747951984   -1.066678620 XXX  29     oy5     O  -0.867
O18      2.921740586    3.942390680   -1.000857926 XXX  29     oy6     O  -0.792
SI13     0.455272371    5.146834850   -2.703195191 XXX  29     sy1     Si  1.100
SI14     0.522885972    2.180801153   -2.704393006 XXX  29     sy2     Si  1.100
H7       0.780902916    7.663906574   -1.194726563 XXX  29     hoy     H   0.200
O37      0.769601756    3.671931744   -3.356805421 XXX  29     oy1     O  -0.550
O38      1.611506247    6.214246273   -3.147977448 XXX  29     oy2     O  -0.550
O39      1.634817654    1.169284463   -3.364583588 XXX  29     oy3     O  -0.550
O40      0.309506828    5.019719124   -1.065681077 XXX  29     oy4     O  -0.758
O41      0.699511105    2.240302086   -1.066678620 XXX  29     oy5     O  -0.758
O42      0.325840646    8.450040817   -1.000857926 XXX  29     oy6     O  -0.683
SI5      3.051172310    9.654484773   -2.703195191 XXX  30     sy1     Si  1.100
SI6      3.118785912   15.703751290   -2.704393006 XXX  30     sy2     Si  1.100
H3       3.376802975   12.171556437   -1.194726563 XXX  30     hoy     H   0.200
O13      3.365501696   17.194881642   -3.356805421 XXX  30     oy1     O  -0.550
O14      4.207406217   10.721896255   -3.147977448 XXX  30     oy2     O  -0.550
O15      4.230717593   14.692234242   -3.364583588 XXX  30     oy3     O  -0.550
O16      2.905406827    9.527369046   -1.065681077 XXX  30     oy4     O  -0.758
O17      3.295411164   15.763251984   -1.066678620 XXX  30     oy5     O  -0.867
O18      2.921740586   12.957690680   -1.000857926 XXX  30     oy6     O  -0.683
SI13     0.455272371   14.162134850   -2.703195191 XXX  30     sy1     Si  1.100
SI14     0.522885972   11.196101153   -2.704393006 XXX  30     sy2     Si  1.100
H7       0.780902916   16.679206574   -1.194726563 XXX  30     hoy     H   0.200
O37      0.769601756   12.687231744   -3.356805421 XXX  30     oy1     O  -0.550
O38      1.611506247   15.229546273   -3.147977448 XXX  30     oy2     O  -0.550
O39      1.634817654   10.184584463   -3.364583588 XXX  30     oy3     O  -0.550
O40      0.309506828   14.035019124   -1.065681077 XXX  30     oy4     O  -0.867
O41      0.699511105   11.255602086   -1.066678620 XXX  30     oy5     O  -0.758
O42      0.325840646   17.465340817   -1.000857926 XXX  30     oy6     O  -0.683
SI5      3.051172310   18.669784773   -2.703195191 XXX  31     sy1     Si  1.100
SI6      3.118785912   24.719051290   -2.704393006 XXX  31     sy2     Si  1.100
H3       3.376802975   21.186856437   -1.194726563 XXX  31     hoy     H   0.200
O13      3.365501696   26.210181642   -3.356805421 XXX  31     oy1     O  -0.550
O14      4.207406217   19.737196255   -3.147977448 XXX  31     oy2     O  -0.550
O15      4.230717593   23.707534242   -3.364583588 XXX  31     oy3     O  -0.550
O16      2.905406827   18.542669046   -1.065681077 XXX  31     oy4     O  -0.867
O17      3.295411164   24.778551984   -1.066678620 XXX  31     oy5     O  -0.758
O18      2.921740586   21.972990680   -1.000857926 XXX  31     oy6     O  -0.683
SI13     0.455272371   23.177434850   -2.703195191 XXX  31     sy1     Si  1.100
SI14     0.522885972   20.211401153   -2.704393006 XXX  31     sy2     Si  1.100
H7       0.780902916   25.694506574   -1.194726563 XXX  31     hoy     H   0.200
O37      0.769601756   21.702531744   -3.356805421 XXX  31     oy1     O  -0.550
O38      1.611506247   24.244846273   -3.147977448 XXX  31     oy2     O  -0.550
O39      1.634817654   19.199884463   -3.364583588 XXX  31     oy3     O  -0.550
O40      0.309506828   23.050319124   -1.065681077 XXX  31     oy4     O  -0.758
O41      0.699511105   20.270902086   -1.066678620 XXX  31     oy5     O  -0.758
O42      0.325840646   26.480640817   -1.000857926 XXX  31     oy6     O  -0.683
SI5      3.051172310   27.685084773   -2.703195191 XXX  32     sy1     Si  1.100
SI6      3.118785912   33.734351290   -2.704393006 XXX  32     sy2     Si  1.100
H3       3.376802975   30.202156437   -1.194726563 XXX  32     hoy     H   0.200
O13      3.365501696   35.225481642   -3.356805421 XXX  32     oy1     O  -0.550
O14      4.207406217   28.752496255   -3.147977448 XXX  32     oy2     O  -0.550
O15      4.230717593   32.722834242   -3.364583588 XXX  32     oy3     O  -0.550
O16      2.905406827   27.557969046   -1.065681077 XXX  32     oy4     O  -0.758
O17      3.295411164   33.793851984   -1.066678620 XXX  32     oy5     O  -0.758
O18      2.921740586   30.988290680   -1.000857926 XXX  32     oy6     O  -0.792
SI13     0.455272371   32.192734850   -2.703195191 XXX  32     sy1     Si  1.100
SI14     0.522885972   29.226701153   -2.704393006 XXX  32     sy2     Si  1.100
H7       0.780902916   34.709806574   -1.194726563 XXX  32     hoy     H   0.200
O37      0.769601756   30.717831744   -3.356805421 XXX  32     oy1     O  -0.550
O38      1.611506247   33.260146273   -3.147977448 XXX  32     oy2     O  -0.550
O39      1.634817654   28.215184463   -3.364583588 XXX  32     oy3     O  -0.550
O40      0.309506828   32.065619124   -1.065681077 XXX  32     oy4     O  -0.867
O41      0.699511105   29.286202086   -1.066678620 XXX  32     oy5     O  -0.867
O42      0.325840646   35.495940817   -1.000857926 XXX  32     oy6     O  -0.683
SI5      8.242972310    0.639184773   -2.703195191 XXX  33     sy1     Si  1.100
SI6      8.310585912    6.688451290   -2.704393006 XXX  33     sy2     Si  1.100
H3       8.568602975    3.156256437   -1.194726563 XXX  33     hoy     H   0.200
O13      8.557301696    8.179581642   -3.356805421 XXX  33     oy1     O  -0.550
O14      9.399206217    1.706596255   -3.147977448 XXX  33     oy2     O  -0.550
O15      9.422517593    5.676934242   -3.364583588 XXX  33     oy3     O  -0.550
O16      8.097206827    0.512069046   -1.065681077 XXX  33     oy4     O  -0.758
O17      8.487211164    6.747951984   -1.066678620 XXX  33     oy5     O  -0.867
O18      8.113540586    3.942390680   -1.000857926 XXX  33     oy6     O  -0.683
SI13     5.647072371    5.146834850   -2.703195191 XXX  33     sy1     Si  1.100
SI14     5.714685972    2.180801153   -2.704393006 XXX  33     sy2     Si  1.100
H7       5.972702916    7.663906574   -1.194726563 XXX  33     hoy     H   0.200
O37      5.961401756    3.671931744   -3.356805421 XXX  33     oy1     O  -0.550
O38      6.803306247    6.214246273   -3.147977448 XXX  33     oy2     O  -0.550
O39      6.826617654    1.169284463   -3.364583588 XXX  33     oy3     O  -0.550
O40      5.501306828    5.019719124   -1.065681077 XXX  33     oy4     O  -0.867
O41      5.891311105    2.240302086   -1.066678620 XXX  33     oy5     O  -0.758
O42      5.517640646    8.450040817   -1.000857926 XXX  33     oy6     O  -0.683
SI5      8.242972310    9.654484773   -2.703195191 XXX  34     sy1     Si  1.100
SI6      8.310585912   15.703751290   -2.704393006 XXX  34     sy2     Si  1.100
H3       8.568602975   12.171556437   -1.194726563 XXX  34     hoy     H   0.200
O13      8.557301696   17.194881642   -3.356805421 XXX  34     oy1     O  -0.550
O14      9.399206217   10.721896255   -3.147977448 XXX  34     oy2     O  -0.550
O15      9.422517593   14.692234242   -3.364583588 XXX  34     oy3     O  -0.550
O16      8.097206827    9.527369046   -1.065681077 XXX  34     oy4     O  -0.867
O17      8.487211164   15.763251984   -1.066678620 XXX  34     oy5     O  -0.758
O18      8.113540586   12.957690680   -1.000857926 XXX  34     oy6     O  -0.683
SI13     5.647072371   14.162134850   -2.703195191 XXX  34     sy1     Si  1.100
SI14     5.714685972   11.196101153   -2.704393006 XXX  34     sy2     Si  1.100
H7       5.972702916   16.679206574   -1.194726563 XXX  34     hoy     H   0.200
O37      5.961401756   12.687231744   -3.356805421 XXX  34     oy1     O  -0.550
O38      6.803306247   15.229546273   -3.147977448 XXX  34     oy2     O  -0.550
O39      6.826617654   10.184584463   -3.364583588 XXX  34     oy3     O  -0.550
O40      5.501306828   14.035019124   -1.065681077 XXX  34     oy4     O  -0.758
O41      5.891311105   11.255602086   -1.066678620 XXX  34     oy5     O  -0.758
O42      5.517640646   17.465340817   -1.000857926 XXX  34     oy6     O  -0.792
SI5      8.242972310   18.669784773   -2.703195191 XXX  35     sy1     Si  1.100
SI6      8.310585912   24.719051290   -2.704393006 XXX  35     sy2     Si  1.100
H3       8.568602975   21.186856437   -1.194726563 XXX  35     hoy     H   0.200
O13      8.557301696   26.210181642   -3.356805421 XXX  35     oy1     O  -0.550
O14      9.399206217   19.737196255   -3.147977448 XXX  35     oy2     O  -0.550
O15      9.422517593   23.707534242   -3.364583588 XXX  35     oy3     O  -0.550
O16      8.097206827   18.542669046   -1.065681077 XXX  35     oy4     O  -0.758
O17      8.487211164   24.778551984   -1.066678620 XXX  35     oy5     O  -0.758
O18      8.113540586   21.972990680   -1.000857926 XXX  35     oy6     O  -0.683
SI13     5.647072371   23.177434850   -2.703195191 XXX  35     sy1     Si  1.100
SI14     5.714685972   20.211401153   -2.704393006 XXX  35     sy2     Si  1.100
H7       5.972702916   25.694506574   -1.194726563 XXX  35     hoy     H   0.200
O37      5.961401756   21.702531744   -3.356805421 XXX  35     oy1     O  -0.550
O38      6.803306247   24.244846273   -3.147977448 XXX  35     oy2     O  -0.550
O39      6.826617654   19.199884463   -3.364583588 XXX  35     oy3     O  -0.550
O40      5.501306828   23.050319124   -1.065681077 XXX  35     oy4     O  -0.758
O41      5.891311105   20.270902086   -1.066678620 XXX  35     oy5     O  -0.758
O42      5.517640646   26.480640817   -1.000857926 XXX  35     oy6     O  -0.683
SI5      8.242972310   27.685084773   -2.703195191 XXX  36     sy1     Si  1.100
SI6      8.310585912   33.734351290   -2.704393006 XXX  36     sy2     Si  1.100
H3       8.568602975   30.202156437   -1.194726563 XXX  36     hoy     H   0.200
O13      8.557301696   35.225481642   -3.356805421 XXX  36     oy1     O  -0.550
O14      9.399206217   28.752496255   -3.147977448 XXX  36     oy2     O  -0.550
O15      9.422517593   32.722834242   -3.364583588 XXX  36     oy3     O  -0.550
O16      8.097206827   27.557969046   -1.065681077 XXX  36     oy4     O  -0.758
O17      8.487211164   33.793851984   -1.066678620 XXX  36     oy5     O  -0.867
O18      8.113540586   30.988290680   -1.000857926 XXX  36     oy6     O  -0.792
SI13     5.647072371   32.192734850   -2.703195191 XXX  36     sy1     Si  1.100
SI14     5.714685972   29.226701153   -2.704393006 XXX  36     sy2     Si  1.100
H7       5.972702916   34.709806574   -1.194726563 XXX  36     hoy     H   0.200
O37      5.961401756   30.717831744   -3.356805421 XXX  36     oy1     O  -0.550
O38      6.803306247   33.260146273   -3.147977448 XXX  36     oy2     O  -0.550
O39      6.826617654   28.215184463   -3.364583588 XXX  36     oy3     O  -0.550
O40      5.501306828   32.065619124   -1.065681077 XXX  36     oy4     O  -0.758
O41      5.891311105   29.286202086   -1.066678620 XXX  36     oy5     O  -0.758
O42      5.517640646   35.495940817   -1.000857926 XXX  36     oy6     O  -0.683
SI5     13.434772310    0.639184773   -2.703195191 XXX  37     sy1     Si  1.100
SI6     13.502385912    6.688451290   -2.704393006 XXX  37     sy2     Si  1.100
H3      13.760402975    3.156256437   -1.194726563 XXX  37     hoy     H   0.200
O13     13.749101696    8.179581642   -3.356805421 XXX  37     oy1     O  -0.550
O14     14.591006217    1.706596255   -3.147977448 XXX  37     oy2     O  -0.550
O15     14.614317593    5.676934242   -3.364583588 XXX  37     oy3     O  -0.550
O16     13.289006827    0.512069046   -1.065681077 XXX  37     oy4     O  -0.758
O17     13.679011164    6.747951984   -1.066678620 XXX  37     oy5     O  -0.758
O18     13.305340586    3.942390680   -1.000857926 XXX  37     oy6     O  -0.683
SI13    10.838872371    5.146834850   -2.703195191 XXX  37     sy1     Si  1.100
SI14    10.906485972    2.180801153   -2.704393006 XXX  37     sy2     Si  1.100
H7      11.164502916    7.663906574   -1.194726563 XXX  37     hoy     H   0.200
O37     11.153201756    3.671931744   -3.356805421 XXX  37     oy1     O  -0.550
O38     11.995106247    6.214246273   -3.147977448 XXX  37     oy2     O  -0.550
O39     12.018417654    1.169284463   -3.364583588 XXX  37     oy3     O  -0.550
O40     10.693106828    5.019719124   -1.065681077 XXX  37     oy4     O  -0.758
O41     11.083111105    2.240302086   -1.066678620 XXX  37     oy5     O  -0.758
O42     10.709440646    8.450040817   -1.000857926 XXX  37     oy6     O  -0.792
SI5     13.434772310    9.654484773   -2.703195191 XXX  38     sy1     Si  1.100
SI6     13.502385912   15.703751290   -2.704393006 XXX  38     sy2     Si  1.100
H3      13.760402975   12.171556437   -1.194726563 XXX  38     hoy     H   0.200
O13     13.749101696   17.194881642   -3.356805421 XXX  38     oy1     O  -0.550
O14     14.591006217   10.721896255   -3.147977448 XXX  38     oy2     O  -0.550
O15     14.614317593   14.692234242   -3.364583588 XXX  38     oy3     O  -0.550
O16     13.289006827    9.527369046   -1.065681077 XXX  38     oy4     O  -0.758
O17     13.679011164   15.763251984   -1.066678620 XXX  38     oy5     O  -0.758
O18     13.305340586   12.957690680   -1.000857926 XXX  38     oy6     O  -0.683
SI13    10.838872371   14.162134850   -2.703195191 XXX  38     sy1     Si  1.100
SI14    10.906485972   11.196101153   -2.704393006 XXX  38     sy2     Si  1.100
H7      11.164502916   16.679206574   -1.194726563 XXX  38     hoy     H   0.200
O37     11.153201756   12.687231744   -3.356805421 XXX  38     oy1     O  -0.550
O38     11.995106247   15.229546273   -3.147977448 XXX  38     oy2     O  -0.550
O39     12.018417654   10.184584463   -3.364583588 XXX  38     oy3     O  -0.550
O40     10.693106828   14.035019124   -1.065681077 XXX  38     oy4     O  -0.758
O41     11.083111105   11.255602086   -1.066678620 XXX  38     oy5     O  -0.758
O42     10.709440646   17.465340817   -1.000857926 XXX  38     oy6     O  -0.683
SI5     13.434772310   18.669784773   -2.703195191 XXX  39     sy1     Si  1.100
SI6     13.502385912   24.719051290   -2.704393006 XXX  39     sy2     Si  1.100
H3      13.760402975   21.186856437   -1.194726563 XXX  39     hoy     H   0.200
O13     13.749101696   26.210181642   -3.356805421 XXX  39     oy1     O  -0.550
O14     14.591006217   19.737196255   -3.147977448 XXX  39     oy2     O  -0.550
O15     14.614317593   23.707534242   -3.364583588 XXX  39     oy3     O  -0.550
O16     13.289006827   18.542669046   -1.065681077 XXX  39     oy4     O  -0.758
O17     13.679011164   24.778551984   -1.066678620 XXX  39     oy5     O  -0.758
O18     13.305340586   21.972990680   -1.000857926 XXX  39     oy6     O  -0.792
SI13    10.838872371   23.177434850   -2.703195191 XXX  39     sy1     Si  1.100
SI14    10.906485972   20.211401153   -2.704393006 XXX  39     sy2     Si  1.100
H7      11.164502916   25.694506574   -1.194726563 XXX  39     hoy     H   0.200
O37     11.153201756   21.702531744   -3.356805421 XXX  39     oy1     O  -0.550
O38     11.995106247   24.244846273   -3.147977448 XXX  39     oy2     O  -0.550
O39     12.018417654   19.199884463   -3.364583588 XXX  39     oy3     O  -0.550
O40     10.693106828   23.050319124   -1.065681077 XXX  39     oy4     O  -0.867
O41     11.083111105   20.270902086   -1.066678620 XXX  39     oy5     O  -0.867
O42     10.709440646   26.480640817   -1.000857926 XXX  39     oy6     O  -0.683
SI5     13.434772310   27.685084773   -2.703195191 XXX  40     sy1     Si  1.100
SI6     13.502385912   33.734351290   -2.704393006 XXX  40     sy2     Si  1.100
H3      13.760402975   30.202156437   -1.194726563 XXX  40     hoy     H   0.200
O13     13.749101696   35.225481642   -3.356805421 XXX  40     oy1     O  -0.550
O14     14.591006217   28.752496255   -3.147977448 XXX  40     oy2     O  -0.550
O15     14.614317593   32.722834242   -3.364583588 XXX  40     oy3     O  -0.550
O16     13.289006827   27.557969046   -1.065681077 XXX  40     oy4     O  -0.758
O17     13.679011164   33.793851984   -1.066678620 XXX  40     oy5     O  -0.867
O18     13.305340586   30.988290680   -1.000857926 XXX  40     oy6     O  -0.792
SI13    10.838872371   32.192734850   -2.703195191 XXX  40     sy1     Si  1.100
SI14    10.906485972   29.226701153   -2.704393006 XXX  40     sy2     Si  1.100
H7      11.164502916   34.709806574   -1.194726563 XXX  40     hoy     H   0.200
O37     11.153201756   30.717831744   -3.356805421 XXX  40     oy1     O  -0.550
O38     11.995106247   33.260146273   -3.147977448 XXX  40     oy2     O  -0.550
O39     12.018417654   28.215184463   -3.364583588 XXX  40     oy3     O  -0.550
O40     10.693106828   32.065619124   -1.065681077 XXX  40     oy4     O  -0.867
O41     11.083111105   29.286202086   -1.066678620 XXX  40     oy5     O  -0.758
O42     10.709440646   35.495940817   -1.000857926 XXX  40     oy6     O  -0.683
SI5     18.626572310    0.639184773   -2.703195191 XXX  41     sy1     Si  1.100
SI6     18.694185912    6.688451290   -2.704393006 XXX  41     sy2     Si  1.100
H3      18.952202975    3.156256437   -1.194726563 XXX  41     hoy     H   0.200
O13     18.940901696    8.179581642   -3.356805421 XXX  41     oy1     O  -0.550
O14     19.782806217    1.706596255   -3.147977448 XXX  41     oy2     O  -0.550
O15     19.806117593    5.676934242   -3.364583588 XXX  41     oy3     O  -0.550
O16     18.480806827    0.512069046   -1.065681077 XXX  41     oy4     O  -0.758
O17     18.870811164    6.747951984   -1.066678620 XXX  41     oy5     O  -0.758
O18     18.497140586    3.942390680   -1.000857926 XXX  41     oy6     O  -0.792
SI13    16.030672371    5.146834850   -2.703195191 XXX  41     sy1     Si  1.100
SI14    16.098285972    2.180801153   -2.704393006 XXX  41     sy2     Si  1.100
H7      16.356302916    7.663906574   -1.194726563 XXX  41     hoy     H   0.200
O37     16.345001756    3.671931744   -3.356805421 XXX  41     oy1     O  -0.550
O38     17.186906247    6.214246273   -3.147977448 XXX  41     oy2     O  -0.550
O39     17.210217654    1.169284463   -3.364583588 XXX  41     oy3     O  -0.550
O40     15.884906828    5.019719124   -1.065681077 XXX  41     oy4     O  -0.867
O41     16.274911105    2.240302086   -1.066678620 XXX  41     oy5     O  -0.867
O42     15.901240646    8.450040817   -1.000857926 XXX  41     oy6     O  -0.683
SI5     18.626572310    9.654484773   -2.703195191 XXX  42     sy1     Si  1.100
SI6     18.694185912   15.703751290   -2.704393006 XXX  42     sy2     Si  1.100
H3      18.952202975   12.171556437   -1.194726563 XXX  42     hoy     H   0.200
O13     18.940901696   17.194881642   -3.356805421 XXX  42     oy1     O  -0.550
O14     19.782806217   10.721896255   -3.147977448 XXX  42     oy2     O  -0.550
O15     19.806117593   14.692234242   -3.364583588 XXX  42     oy3     O  -0.550
O16     18.480806827    9.527369046   -1.065681077 XXX  42     oy4     O  -0.758
O17     18.870811164   15.763251984   -1.066678620 XXX  42     oy5     O  -0.758
O18     18.497140586   12.957690680   -1.000857926 XXX  42     oy6     O  -0.792
SI13    16.030672371   14.162134850   -2.703195191 XXX  42     sy1     Si  1.100
SI14    16.098285972   11.196101153   -2.704393006 XXX  42     sy2     Si  1.100
H7      16.356302916   16.679206574   -1.194726563 XXX  42     hoy     H   0.200
O37     16.345001756   12.687231744   -3.356805421 XXX  42     oy1     O  -0.550
O38     17.186906247   15.229546273   -3.147977448 XXX  42     oy2     O  -0.550
O39     17.210217654   10.184584463   -3.364583588 XXX  42     oy3     O  -0.550
O40     15.884906828   14.035019124   -1.065681077 XXX  42     oy4     O  -0.867
O41     16.274911105   11.255602086   -1.066678620 XXX  42     oy5     O  -0.867
O42     15.901240646   17.465340817   -1.000857926 XXX  42     oy6     O  -0.683
SI5     18.626572310   18.669784773   -2.703195191 XXX  43     sy1     Si  1.100
SI6     18.694185912   24.719051290   -2.704393006 XXX  43     sy2     Si  1.100
H3      18.952202975   21.186856437   -1.194726563 XXX  43     hoy     H   0.200
O13     18.940901696   26.210181642   -3.356805421 XXX  43     oy1     O  -0.550
O14     19.782806217   19.737196255   -3.147977448 XXX  43     oy2     O  -0.550
O15     19.806117593   23.707534242   -3.364583588 XXX  43     oy3     O  -0.550
O16     18.480806827   18.542669046   -1.065681077 XXX  43     oy4     O  -0.758
O17     18.870811164   24.778551984   -1.066678620 XXX  43     oy5     O  -0.758
O18     18.497140586   21.972990680   -1.000857926 XXX  43     oy6     O  -0.683
SI13    16.030672371   23.177434850   -2.703195191 XXX  43     sy1     Si  1.100
SI14    16.098285972   20.211401153   -2.704393006 XXX  43     sy2     Si  1.100
H7      16.356302916   25.694506574   -1.194726563 XXX  43     hoy     H   0.200
O37     16.345001756   21.702531744   -3.356805421 XXX  43     oy1     O  -0.550
O38     17.186906247   24.244846273   -3.147977448 XXX  43     oy2     O  -0.550
O39     17.210217654   19.199884463   -3.364583588 XXX  43     oy3     O  -0.550
O40     15.884906828   23.050319124   -1.065681077 XXX  43     oy4     O  -0.758
O41     16.274911105   20.270902086   -1.066678620 XXX  43     oy5     O  -0.758
O42     15.901240646   26.480640817   -1.000857926 XXX  43     oy6     O  -0.792
SI5     18.626572310   27.685084773   -2.703195191 XXX  44     sy1     Si  1.100
SI6     18.694185912   33.734351290   -2.704393006 XXX  44     sy2     Si  1.100
H3      18.952202975   30.202156437   -1.194726563 XXX  44     hoy     H   0.200
O13     18.940901696   35.225481642   -3.356805421 XXX  44     oy1     O  -0.550
O14     19.782806217   28.752496255   -3.147977448 XXX  44     oy2     O  -0.550
O15     19.806117593   32.722834242   -3.364583588 XXX  44     oy3     O  -0.550
O16     18.480806827   27.557969046   -1.065681077 XXX  44     oy4     O  -0.867
O17     18.870811164   33.793851984   -1.066678620 XXX  44     oy5     O  -0.758
O18     18.497140586   30.988290680   -1.000857926 XXX  44     oy6     O  -0.683
SI13    16.030672371   32.192734850   -2.703195191 XXX  44     sy1     Si  1.100
SI14    16.098285972   29.226701153   -2.704393006 XXX  44     sy2     Si  1.100
H7      16.356302916   34.709806574   -1.194726563 XXX  44     hoy     H   0.200
O37     16.345001756   30.717831744   -3.356805421 XXX  44     oy1     O  -0.550
O38     17.186906247   33.260146273   -3.147977448 XXX  44     oy2     O  -0.550
O39     17.210217654   28.215184463   -3.364583588 XXX  44     oy3     O  -0.550
O40     15.884906828   32.065619124   -1.065681077 XXX  44     oy4     O  -0.867
O41     16.274911105   29.286202086   -1.066678620 XXX  44     oy5     O  -0.867
O42     15.901240646   35.495940817   -1.000857926 XXX  44     oy6     O  -0.683
SI5     23.818372310    0.639184773   -2.703195191 XXX  45     sy1     Si  1.100
SI6     23.885985912    6.688451290   -2.704393006 XXX  45     sy2     Si  1.100
H3      24.144002975    3.156256437   -1.194726563 XXX  45     hoy     H   0.200
O13     24.132701696    8.179581642   -3.356805421 XXX  45     oy1     O  -0.550
O14     24.974606217    1.706596255   -3.147977448 XXX  45     oy2     O  -0.550
O15     24.997917593    5.676934242   -3.364583588 XXX  45     oy3     O  -0.550
O16     23.672606827    0.512069046   -1.065681077 XXX  45     oy4     O  -0.758
O17     24.062611164    6.747951984   -1.066678620 XXX  45     oy5     O  -0.758
O18     23.688940586    3.942390680   -1.000857926 XXX  45     oy6     O  -0.683
SI13    21.222472371    5.146834850   -2.703195191 XXX  45     sy1     Si  1.100
SI14    21.290085972    2.180801153   -2.704393006 XXX  45     sy2     Si  1.100
H7      21.548102916    7.663906574   -1.194726563 XXX  45     hoy     H   0.200
O37     21.536801756    3.671931744   -3.356805421 XXX  45     oy1     O  -0.550
O38     22.378706247    6.214246273   -3.147977448 XXX  45     oy2     O  -0.550
O39     22.402017654    1.169284463   -3.364583588 XXX  45     oy3     O  -0.550
O40     21.076706828    5.019719124   -1.065681077 XXX  45     oy4     O  -0.758
O41     21.466711105    2.240302086   -1.066678620 XXX  45     oy5     O  -0.758
O42     21.093040646    8.450040817   -1.000857926 XXX  45     oy6     O  -0.792
SI5     23.818372310    9.654484773   -2.703195191 XXX  46     sy1     Si  1.100
SI6     23.885985912   15.703751290   -2.704393006 XXX  46     sy2     Si  1.100
H3      24.144002975   12.171556437   -1.194726563 XXX  46     hoy     H   0.200
O13     24.132701696   17.194881642   -3.356805421 XXX  46     oy1     O  -0.550
O14     24.974606217   10.721896255   -3.147977448 XXX  46     oy2     O  -0.550
O15     24.997917593   14.692234242   -3.364583588 XXX  46     oy3     O  -0.550
O16     23.672606827    9.527369046   -1.065681077 XXX  46     oy4     O  -0.867
O17     24.062611164   15.763251984   -1.066678620 XXX  46     oy5     O  -0.867
O18     23.688940586   12.957690680   -1.000857926 XXX  46     oy6     O  -0.792
SI13    21.222472371   14.162134850   -2.703195191 XXX  46     sy1     Si  1.100
SI14    21.290085972   11.196101153   -2.704393006 XXX  46     sy2     Si  1.100
H7      21.548102916   16.679206574   -1.194726563 XXX  46     hoy     H   0.200
O37     21.536801756   12.687231744   -3.356805421 XXX  46     oy1     O  -0.550
O38     22.378706247   15.229546273   -3.147977448 XXX  46     oy2     O  -0.550
O39     22.402017654   10.184584463   -3.364583588 XXX  46     oy3     O  -0.550
O40     21.076706828   14.035019124   -1.065681077 XXX  46     oy4     O  -0.758
O41     21.466711105   11.255602086   -1.066678620 XXX  46     oy5     O  -0.867
O42     21.093040646   17.465340817   -1.000857926 XXX  46     oy6     O  -0.683
SI5     23.818372310   18.669784773   -2.703195191 XXX  47     sy1     Si  1.100
SI6     23.885985912   24.719051290   -2.704393006 XXX  47     sy2     Si  1.100
H3      24.144002975   21.186856437   -1.194726563 XXX  47     hoy     H   0.200
O13     24.132701696   26.210181642   -3.356805421 XXX  47     oy1     O  -0.550
O14     24.974606217   19.737196255   -3.147977448 XXX  47     oy2     O  -0.550
O15     24.997917593   23.707534242   -3.364583588 XXX  47     oy3     O  -0.550
O16     23.672606827   18.542669046   -1.065681077 XXX  47     oy4     O  -0.758
O17     24.062611164   24.778551984   -1.066678620 XXX  47     oy5     O  -0.758
O18     23.688940586   21.972990680   -1.000857926 XXX  47     oy6     O  -0.792
SI13    21.222472371   23.177434850   -2.703195191 XXX  47     sy1     Si  1.100
SI14    21.290085972   20.211401153   -2.704393006 XXX  47     sy2     Si  1.100
H7      21.548102916   25.694506574   -1.194726563 XXX  47     hoy     H   0.200
O37     21.536801756   21.702531744   -3.356805421 XXX  47     oy1     O  -0.550
O38     22.378706247   24.244846273   -3.147977448 XXX  47     oy2     O  -0.550
O39     22.402017654   19.199884463   -3.364583588 XXX  47     oy3     O  -0.550
O40     21.076706828   23.050319124   -1.065681077 XXX  47     oy4     O  -0.867
O41     21.466711105   20.270902086   -1.066678620 XXX  47     oy5     O  -0.867
O42     21.093040646   26.480640817   -1.000857926 XXX  47     oy6     O  -0.792
SI5     23.818372310   27.685084773   -2.703195191 XXX  48     sy1     Si  1.100
SI6     23.885985912   33.734351290   -2.704393006 XXX  48     sy2     Si  1.100
H3      24.144002975   30.202156437   -1.194726563 XXX  48     hoy     H   0.200
O13     24.132701696   35.225481642   -3.356805421 XXX  48     oy1     O  -0.550
O14     24.974606217   28.752496255   -3.147977448 XXX  48     oy2     O  -0.550
O15     24.997917593   32.722834242   -3.364583588 XXX  48     oy3     O  -0.550
O16     23.672606827   27.557969046   -1.065681077 XXX  48     oy4     O  -0.867
O17     24.062611164   33.793851984   -1.066678620 XXX  48     oy5     O  -0.758
O18     23.688940586   30.988290680   -1.000857926 XXX  48     oy6     O  -0.683
SI13    21.222472371   32.192734850   -2.703195191 XXX  48     sy1     Si  1.100
SI14    21.290085972   29.226701153   -2.704393006 XXX  48     sy2     Si  1.100
H7      21.548102916   34.709806574   -1.194726563 XXX  48     hoy     H   0.200
O37     21.536801756   30.717831744   -3.356805421 XXX  48     oy1     O  -0.550
O38     22.378706247   33.260146273   -3.147977448 XXX  48     oy2     O  -0.550
O39     22.402017654   28.215184463   -3.364583588 XXX  48     oy3     O  -0.550
O40     21.076706828   32.065619124   -1.065681077 XXX  48     oy4     O  -0.758
O41     21.466711105   29.286202086   -1.066678620 XXX  48     oy5     O  -0.867
O42     21.093040646   35.495940817   -1.000857926 XXX  48     oy6     O  -0.683
SI5     29.010172310    0.639184773   -2.703195191 XXX  49     sy1     Si  1.100
SI6     29.077785912    6.688451290   -2.704393006 XXX  49     sy2     Si  1.100
H3      29.335802975    3.156256437   -1.194726563 XXX  49     hoy     H   0.200
O13     29.324501696    8.179581642   -3.356805421 XXX  49     oy1     O  -0.550
O14     30.166406217    1.706596255   -3.147977448 XXX  49     oy2     O  -0.550
O15     30.189717593    5.676934242   -3.364583588 XXX  49     oy3     O  -0.550
O16     28.864406827    0.512069046   -1.065681077 XXX  49     oy4     O  -0.758
O17     29.254411164    6.747951984   -1.066678620 XXX  49     oy5     O  -0.758
O18     28.880740586    3.942390680   -1.000857926 XXX  49     oy6     O  -0.683
SI13    26.414272371    5.146834850   -2.703195191 XXX  49     sy1     Si  1.100
SI14    26.481885972    2.180801153   -2.704393006 XXX  49     sy2     Si  1.100
H7      26.739902916    7.663906574   -1.194726563 XXX  49     hoy     H   0.200
O37     26.728601756    3.671931744   -3.356805421 XXX  49     oy1     O  -0.550
O38     27.570506247    6.214246273   -3.147977448 XXX  49     oy2     O  -0.550
O39     27.593817654    1.169284463   -3.364583588 XXX  49     oy3     O  -0.550
O40     26.268506828    5.019719124   -1.065681077 XXX  49     oy4     O  -0.758
O41     26.658511105    2.240302086   -1.066678620 XXX  49     oy5     O  -0.758
O42     26.284840646    8.450040817   -1.000857926 XXX  49     oy6     O  -0.683
SI5     29.010172310    9.654484773   -2.703195191 XXX  50     sy1     Si  1.100
SI6     29.077785912   15.703751290   -2.704393006 XXX  50     sy2     Si  1.100
H3      29.335802975   12.171556437   -1.194726563 XXX  50     hoy     H   0.200
O13     29.324501696   17.194881642   -3.356805421 XXX  50     oy1     O  -0.550
O14     30.166406217   10.721896255   -3.147977448 XXX  50     oy2     O  -0.550
O15     30.189717593   14.692234242   -3.364583588 XXX  50     oy3     O  -0.550
O16     28.864406827    9.527369046   -1.065681077 XXX  50     oy4     O  -0.758
O17     29.254411164   15.763251984   -1.066678620 XXX  50     oy5     O  -0.758
O18     28.880740586   12.957690680   -1.000857926 XXX  50     oy6     O  -0.683
SI13    26.414272371   14.162134850   -2.703195191 XXX  50     sy1     Si  1.100
SI14    26.481885972   11.196101153   -2.704393006 XXX  50     sy2     Si  1.100
H7      26.739902916   16.679206574   -1.194726563 XXX  50     hoy     H   0.200
O37     26.728601756   12.687231744   -3.356805421 XXX  50     oy1     O  -0.550
O38     27.570506247   15.229546273   -3.147977448 XXX  50     oy2     O  -0.550
O39     27.593817654   10.184584463   -3.364583588 XXX  50     oy3     O  -0.550
O40     26.268506828   14.035019124   -1.065681077 XXX  50     oy4     O  -0.867
O41     26.658511105   11.255602086   -1.066678620 XXX  50     oy5     O  -0.758
O42     26.284840646   17.465340817   -1.000857926 XXX  50     oy6     O  -0.683
SI5     29.010172310   18.669784773   -2.703195191 XXX  51     sy1     Si  1.100
SI6     29.077785912   24.719051290   -2.704393006 XXX  51     sy2     Si  1.100
H3      29.335802975   21.186856437   -1.194726563 XXX  51     hoy     H   0.200
O13     29.324501696   26.210181642   -3.356805421 XXX  51     oy1     O  -0.550
O14     30.166406217   19.737196255   -3.147977448 XXX  51     oy2     O  -0.550
O15     30.189717593   23.707534242   -3.364583588 XXX  51     oy3     O  -0.550
O16     28.864406827   18.542669046   -1.065681077 XXX  51     oy4     O  -0.758
O17     29.254411164   24.778551984   -1.066678620 XXX  51     oy5     O  -0.758
O18     28.880740586   21.972990680   -1.000857926 XXX  51     oy6     O  -0.683
SI13    26.414272371   23.177434850   -2.703195191 XXX  51     sy1     Si  1.100
SI14    26.481885972   20.211401153   -2.704393006 XXX  51     sy2     Si  1.100
H7      26.739902916   25.694506574   -1.194726563 XXX  51     hoy     H   0.200
O37     26.728601756   21.702531744   -3.356805421 XXX  51     oy1     O  -0.550
O38     27.570506247   24.244846273   -3.147977448 XXX  51     oy2     O  -0.550
O39     27.593817654   19.199884463   -3.364583588 XXX  51     oy3     O  -0.550
O40     26.268506828   23.050319124   -1.065681077 XXX  51     oy4     O  -0.758
O41     26.658511105   20.270902086   -1.066678620 XXX  51     oy5     O  -0.758
O42     26.284840646   26.480640817   -1.000857926 XXX  51     oy6     O  -0.683
SI5     29.010172310   27.685084773   -2.703195191 XXX  52     sy1     Si  1.100
SI6     29.077785912   33.734351290   -2.704393006 XXX  52     sy2     Si  1.100
H3      29.335802975   30.202156437   -1.194726563 XXX  52     hoy     H   0.200
O13     29.324501696   35.225481642   -3.356805421 XXX  52     oy1     O  -0.550
O14     30.166406217   28.752496255   -3.147977448 XXX  52     oy2     O  -0.550
O15     30.189717593   32.722834242   -3.364583588 XXX  52     oy3     O  -0.550
O16     28.864406827   27.557969046   -1.065681077 XXX  52     oy4     O  -0.758
O17     29.254411164   33.793851984   -1.066678620 XXX  52     oy5     O  -0.867
O18     28.880740586   30.988290680   -1.000857926 XXX  52     oy6     O  -0.792
SI13    26.414272371   32.192734850   -2.703195191 XXX  52     sy1     Si  1.100
SI14    26.481885972   29.226701153   -2.704393006 XXX  52     sy2     Si  1.100
H7      26.739902916   34.709806574   -1.194726563 XXX  52     hoy     H   0.200
O37     26.728601756   30.717831744   -3.356805421 XXX  52     oy1     O  -0.550
O38     27.570506247   33.260146273   -3.147977448 XXX  52     oy2     O  -0.550
O39     27.593817654   28.215184463   -3.364583588 XXX  52     oy3     O  -0.550
O40     26.268506828   32.065619124   -1.065681077 XXX  52     oy4     O  -0.758
O41     26.658511105   29.286202086   -1.066678620 XXX  52     oy5     O  -0.758
O42     26.284840646   35.495940817   -1.000857926 XXX  52     oy6     O  -0.683
SI5     34.201972310    0.639184773   -2.703195191 XXX  53     sy1     Si  1.100
SI6     34.269585912    6.688451290   -2.704393006 XXX  53     sy2     Si  1.100
H3      34.527602975    3.156256437   -1.194726563 XXX  53     hoy     H   0.200
O13     34.516301696    8.179581642   -3.356805421 XXX  53     oy1     O  -0.550
O14     35.358206217    1.706596255   -3.147977448 XXX  53     oy2     O  -0.550
O15     35.381517593    5.676934242   -3.364583588 XXX  53     oy3     O  -0.550
O16     34.056206827    0.512069046   -1.065681077 XXX  53     oy4     O  -0.758
O17     34.446211164    6.747951984   -1.066678620 XXX  53     oy5     O  -0.758
O18     34.072540586    3.942390680   -1.000857926 XXX  53     oy6     O  -0.792
SI13    31.606072371    5.146834850   -2.703195191 XXX  53     sy1     Si  1.100
SI14    31.673685972    2.180801153   -2.704393006 XXX  53     sy2     Si  1.100
H7      31.931702916    7.663906574   -1.194726563 XXX  53     hoy     H   0.200
O37     31.920401756    3.671931744   -3.356805421 XXX  53     oy1     O  -0.550
O38     32.762306247    6.214246273   -3.147977448 XXX  53     oy2     O  -0.550
O39     32.785617654    1.169284463   -3.364583588 XXX  53     oy3     O  -0.550
O40     31.460306828    5.019719124   -1.065681077 XXX  53     oy4     O  -0.867
O41     31.850311105    2.240302086   -1.066678620 XXX  53     oy5     O  -0.867
O42     31.476640646    8.450040817   -1.000857926 XXX  53     oy6     O  -0.683
SI5     34.201972310    9.654484773   -2.703195191 XXX  54     sy1     Si  1.100
SI6     34.269585912   15.703751290   -2.704393006 XXX  54     sy2     Si  1.100
H3      34.527602975   12.171556437   -1.194726563 XXX  54     hoy     H   0.200
O13     34.516301696   17.194881642   -3.356805421 XXX  54     oy1     O  -0.550
O14     35.358206217   10.721896255   -3.147977448 XXX  54     oy2     O  -0.550
O15     35.381517593   14.692234242   -3.364583588 XXX  54     oy3     O  -0.550
O16     34.056206827    9.527369046   -1.065681077 XXX  54     oy4     O  -0.758
O17     34.446211164   15.763251984   -1.066678620 XXX  54     oy5     O  -0.867
O18     34.072540586   12.957690680   -1.000857926 XXX  54     oy6     O  -0.792
SI13    31.606072371   14.162134850   -2.703195191 XXX  54     sy1     Si  1.100
SI14    31.673685972   11.196101153   -2.704393006 XXX  54     sy2     Si  1.100
H7      31.931702916   16.679206574   -1.194726563 XXX  54     hoy     H   0.200
O37     31.920401756   12.687231744   -3.356805421 XXX  54     oy1     O  -0.550
O38     32.762306247   15.229546273   -3.147977448 XXX  54     oy2     O  -0.550
O39     32.785617654   10.184584463   -3.364583588 XXX  54     oy3     O  -0.550
O40     31.460306828   14.035019124   -1.065681077 XXX  54     oy4     O  -0.758
O41     31.850311105   11.255602086   -1.066678620 XXX  54     oy5     O  -0.758
O42     31.476640646   17.465340817   -1.000857926 XXX  54     oy6     O  -0.683
SI5     34.201972310   18.669784773   -2.703195191 XXX  55     sy1     Si  1.100
SI6     34.269585912   24.719051290   -2.704393006 XXX  55     sy2     Si  1.100
H3      34.527602975   21.186856437   -1.194726563 XXX  55     hoy     H   0.200
O13     34.516301696   26.210181642   -3.356805421 XXX  55     oy1     O  -0.550
O14     35.358206217   19.737196255   -3.147977448 XXX  55     oy2     O  -0.550
O15     35.381517593   23.707534242   -3.364583588 XXX  55     oy3     O  -0.550
O16     34.056206827   18.542669046   -1.065681077 XXX  55     oy4     O  -0.758
O17     34.446211164   24.778551984   -1.066678620 XXX  55     oy5     O  -0.758
O18     34.072540586   21.972990680   -1.000857926 XXX  55     oy6     O  -0.792
SI13    31.606072371   23.177434850   -2.703195191 XXX  55     sy1     Si  1.100
SI14    31.673685972   20.211401153   -2.704393006 XXX  55     sy2     Si  1.100
H7      31.931702916   25.694506574   -1.194726563 XXX  55     hoy     H   0.200
O37     31.920401756   21.702531744   -3.356805421 XXX  55     oy1     O  -0.550
O38     32.762306247   24.244846273   -3.147977448 XXX  55     oy2     O  -0.550
O39     32.785617654   19.199884463   -3.364583588 XXX  55     oy3     O  -0.550
O40     31.460306828   23.050319124   -1.065681077 XXX  55     oy4     O  -0.867
O41     31.850311105   20.270902086   -1.066678620 XXX  55     oy5     O  -0.867
O42     31.476640646   26.480640817   -1.000857926 XXX  55     oy6     O  -0.683
SI5     34.201972310   27.685084773   -2.703195191 XXX  56     sy1     Si  1.100
SI6     34.269585912   33.734351290   -2.704393006 XXX  56     sy2     Si  1.100
H3      34.527602975   30.202156437   -1.194726563 XXX  56     hoy     H   0.200
O13     34.516301696   35.225481642   -3.356805421 XXX  56     oy1     O  -0.550
O14     35.358206217   28.752496255   -3.147977448 XXX  56     oy2     O  -0.550
O15     35.381517593   32.722834242   -3.364583588 XXX  56     oy3     O  -0.550
O16     34.056206827   27.557969046   -1.065681077 XXX  56     oy4     O  -0.758
O17     34.446211164   33.793851984   -1.066678620 XXX  56     oy5     O  -0.758
O18     34.072540586   30.988290680   -1.000857926 XXX  56     oy6     O  -0.683
SI13    31.606072371   32.192734850   -2.703195191 XXX  56     sy1     Si  1.100
SI14    31.673685972   29.226701153   -2.704393006 XXX  56     sy2     Si  1.100
H7      31.931702916   34.709806574   -1.194726563 XXX  56     hoy     H   0.200
O37     31.920401756   30.717831744   -3.356805421 XXX  56     oy1     O  -0.550
O38     32.762306247   33.260146273   -3.147977448 XXX  56     oy2     O  -0.550
O39     32.785617654   28.215184463   -3.364583588 XXX  56     oy3     O  -0.550
O40     31.460306828   32.065619124   -1.065681077 XXX  56     oy4     O  -0.867
O41     31.850311105   29.286202086   -1.066678620 XXX  56     oy5     O  -0.758
O42     31.476640646   35.495940817   -1.000857926 XXX  56     oy6     O  -0.683
end
end
