!BIOSYM archive 3
PBC=ON
Materials Studio Generated CAR File
!DATE Sun May 18 16:27:12 2008
PBC   24.1500   26.0800   19.4800   90.0000  125.4000   90.0000 (P1)
O1     -10.295252535    4.772639956   15.211784512 XXXX 1      oe1     O  -0.400
C1     -11.531934107    4.081519916   15.434086142 XXXX 1      ce1     C   0.094
C2      -0.155323049    3.260000000    0.841570531 XXXX 1      ce1     C   0.094
O2       0.173719148    4.107599969    1.953078858 XXXX 1      oe1     O  -0.400
C3       0.576792610    3.351279991    3.096344331 XXXX 1      ce1     C   0.094
C4       0.706093879    4.290159950    4.319003768 XXXX 1      ce1     C   0.094
O3      -0.579031667    4.785680177    4.700092141 XXXX 1      oe1     O  -0.400
C5      -0.493070503    5.711519916    5.779842846 XXXX 1      ce1     C   0.094
C6      -1.879539848    6.324400187    6.065659363 XXXX 1      ce1     C   0.094
O4      -2.728600055    5.372480006    6.716685767 XXXX 1      oe1     O  -0.400
C7      -4.108168567    5.646319978    6.494384137 XXXX 1      ce1     C   0.094
C8      -4.967003980    4.629199860    7.272439841 XXXX 1      ce1     C   0.094
O5      -4.509377466    4.524880037    8.622128105 XXXX 1      oe1     O  -0.400
C9      -5.284478952    3.586000078    9.384305797 XXXX 1      ce1     C   0.094
C10     -4.992812106    3.768560059   10.876902319 XXXX 1      ce1     C   0.094
O6      -5.941634926    4.681359966   11.464413836 XXXX 1      oe1     O  -0.400
C11     -5.620858374    4.981279991   12.814102100 XXXX 1      ce1     C   0.094
C12     -6.654996898    5.959279835   13.385735132 XXXX 1      ce1     C   0.094
O7      -7.965493435    5.385519838   13.338098731 XXXX 1      oe1     O  -0.400
C13     -8.972175677    6.272240081   13.814459907 XXXX 1      ce1     C   0.094
C14    -10.303803781    5.515920103   13.989125135 XXXX 1      ce1     C   0.094
H1     -12.328956104    4.811759841   15.513479602 XXXX 1      he1     H   0.053
H2     -11.730811056    3.429520149   14.592515611 XXXX 1      he1     H   0.053
H3      -1.119885797    2.790560020    1.032114777 XXXX 1      he1     H   0.053
H4       0.607917731    2.490639995    0.730419717 XXXX 1      he1     H   0.053
H5      -0.184939008    2.594960012    3.318646198 XXXX 1      he1     H   0.053
H6       1.525255403    2.868799984    2.905800145 XXXX 1      he1     H   0.053
H7       1.141655411    3.742480006    5.144695400 XXXX 1      he1     H   0.053
H8       1.345494354    5.124720087    4.064944695 XXXX 1      he1     H   0.053
H9      -0.142896853    5.189920025    6.669049365 XXXX 1      he1     H   0.053
H10      0.210729863    6.506960168    5.525783773 XXXX 1      he1     H   0.053
H11     -1.759365565    7.198079820    6.700806809 XXXX 1      he1     H   0.053
H12     -2.329475872    6.624320211    5.112937957 XXXX 1      he1     H   0.053
H13     -4.332275148    6.650399876    6.843715067 XXXX 1      he1     H   0.053
H14     -4.326163928    5.568079820    5.430511917 XXXX 1      he1     H   0.053
H15     -6.002219368    4.955199938    7.256560883 XXXX 1      he1     H   0.053
H16     -4.894122056    3.651200016    6.796079138 XXXX 1      he1     H   0.053
H17     -6.340465956    3.755519838    9.193761137 XXXX 1      he1     H   0.053
H18     -5.013725480    2.581919986    9.082610796 XXXX 1      he1     H   0.053
H19     -5.080212802    2.803600047   11.385020465 XXXX 1      he1     H   0.053
H20     -3.991521763    4.159760075   11.019810577 XXXX 1      he1     H   0.053
H21     -5.627831085    4.068480084   13.401613617 XXXX 1      he1     H   0.053
H22     -4.624311874    5.437679944   12.861738501 XXXX 1      he1     H   0.053
H23     -6.417666873    6.193999922   14.433728394 XXXX 1      he1     H   0.053
H24     -6.648024187    6.885119963   12.798223615 XXXX 1      he1     H   0.053
H25     -8.670373762    6.676480317   14.783059797 XXXX 1      he1     H   0.053
H26     -9.100327582    7.080719776   13.099918616 XXXX 1      he1     H   0.053
H27    -10.454380987    4.837839894   13.147555017 XXXX 1      he1     H   0.053
H28    -11.123322894    6.233119807   14.020883051 XXXX 1      he1     H   0.053
O22     -6.270252535    1.747360044   15.211784512 XXXX 1      oe1     O  -0.400
C43     -7.506934107    2.438480084   15.434086142 XXXX 1      ce1     C   0.094
C44      3.869676951    3.260000000    0.841570531 XXXX 1      ce1     C   0.094
O23      4.198719148    2.412400031    1.953078858 XXXX 1      oe1     O  -0.400
C45      4.601792610    3.168720009    3.096344331 XXXX 1      ce1     C   0.094
C46      4.731093879    2.229840050    4.319003768 XXXX 1      ce1     C   0.094
O24      3.445968333    1.734319823    4.700092141 XXXX 1      oe1     O  -0.400
C47      3.531929497    0.808480084    5.779842846 XXXX 1      ce1     C   0.094
C48      2.145460152    0.195599813    6.065659363 XXXX 1      ce1     C   0.094
O25      1.296399945    1.147519994    6.716685767 XXXX 1      oe1     O  -0.400
C49     -0.083168567    0.873680022    6.494384137 XXXX 1      ce1     C   0.094
C50     -0.942003980    1.890800140    7.272439841 XXXX 1      ce1     C   0.094
O26     -0.484377466    1.995119963    8.622128105 XXXX 1      oe1     O  -0.400
C51     -1.259478952    2.933999922    9.384305797 XXXX 1      ce1     C   0.094
C52     -0.967812106    2.751439941   10.876902319 XXXX 1      ce1     C   0.094
O27     -1.916634926    1.838640034   11.464413836 XXXX 1      oe1     O  -0.400
C53     -1.595858374    1.538720009   12.814102100 XXXX 1      ce1     C   0.094
C54     -2.629996898    0.560720165   13.385735132 XXXX 1      ce1     C   0.094
O28     -3.940493435    1.134480162   13.338098731 XXXX 1      oe1     O  -0.400
C55     -4.947175677    0.247759919   13.814459907 XXXX 1      ce1     C   0.094
C56     -6.278803781    1.004079897   13.989125135 XXXX 1      ce1     C   0.094
H85     -8.303956104    1.708240159   15.513479602 XXXX 1      he1     H   0.053
H86     -7.705811056    3.090479851   14.592515611 XXXX 1      he1     H   0.053
H87      2.905114203    3.729439980    1.032114777 XXXX 1      he1     H   0.053
H88      4.632917731    4.029360005    0.730419717 XXXX 1      he1     H   0.053
H89      3.840060992    3.925039988    3.318646198 XXXX 1      he1     H   0.053
H90      5.550255403    3.651200016    2.905800145 XXXX 1      he1     H   0.053
H91      5.166655411    2.777519994    5.144695400 XXXX 1      he1     H   0.053
H92      5.370494354    1.395279913    4.064944695 XXXX 1      he1     H   0.053
H93      3.882103147    1.330079975    6.669049365 XXXX 1      he1     H   0.053
H94      4.235729863    0.013039832    5.525783773 XXXX 1      he1     H   0.053
H95      2.265634435   -0.678079820    6.700806809 XXXX 1      he1     H   0.053
H96      1.695524128   -0.104320211    5.112937957 XXXX 1      he1     H   0.053
H97     -0.307275148   -0.130399876    6.843715067 XXXX 1      he1     H   0.053
H98     -0.301163928    0.951920180    5.430511917 XXXX 1      he1     H   0.053
H99     -1.977219368    1.564800062    7.256560883 XXXX 1      he1     H   0.053
H100    -0.869122056    2.868799984    6.796079138 XXXX 1      he1     H   0.053
H101    -2.315465956    2.764480162    9.193761137 XXXX 1      he1     H   0.053
H102    -0.988725480    3.938080014    9.082610796 XXXX 1      he1     H   0.053
H103    -1.055212802    3.716399953   11.385020465 XXXX 1      he1     H   0.053
H104     0.033478237    2.360239925   11.019810577 XXXX 1      he1     H   0.053
H105    -1.602831085    2.451519916   13.401613617 XXXX 1      he1     H   0.053
H106    -0.599311874    1.082320056   12.861738501 XXXX 1      he1     H   0.053
H107    -2.392666873    0.326000078   14.433728394 XXXX 1      he1     H   0.053
H108    -2.623024187   -0.365119963   12.798223615 XXXX 1      he1     H   0.053
H109    -4.645373762   -0.156480317   14.783059797 XXXX 1      he1     H   0.053
H110    -5.075327582   -0.560719776   13.099918616 XXXX 1      he1     H   0.053
H111    -6.429380987    1.682160106   13.147555017 XXXX 1      he1     H   0.053
H112    -7.098322894    0.286880193   14.020883051 XXXX 1      he1     H   0.053
end
O1     -10.295252535   17.812639956   15.211784512 XXXX 1      oe1     O  -0.400
C1     -11.531934107   17.121519916   15.434086142 XXXX 1      ce1     C   0.094
C2      -0.155323049   16.300000000    0.841570531 XXXX 1      ce1     C   0.094
O2       0.173719148   17.147599969    1.953078858 XXXX 1      oe1     O  -0.400
C3       0.576792610   16.391279991    3.096344331 XXXX 1      ce1     C   0.094
C4       0.706093879   17.330159950    4.319003768 XXXX 1      ce1     C   0.094
O3      -0.579031667   17.825680177    4.700092141 XXXX 1      oe1     O  -0.400
C5      -0.493070503   18.751519916    5.779842846 XXXX 1      ce1     C   0.094
C6      -1.879539848   19.364400187    6.065659363 XXXX 1      ce1     C   0.094
O4      -2.728600055   18.412480006    6.716685767 XXXX 1      oe1     O  -0.400
C7      -4.108168567   18.686319978    6.494384137 XXXX 1      ce1     C   0.094
C8      -4.967003980   17.669199860    7.272439841 XXXX 1      ce1     C   0.094
O5      -4.509377466   17.564880037    8.622128105 XXXX 1      oe1     O  -0.400
C9      -5.284478952   16.626000078    9.384305797 XXXX 1      ce1     C   0.094
C10     -4.992812106   16.808560059   10.876902319 XXXX 1      ce1     C   0.094
O6      -5.941634926   17.721359966   11.464413836 XXXX 1      oe1     O  -0.400
C11     -5.620858374   18.021279991   12.814102100 XXXX 1      ce1     C   0.094
C12     -6.654996898   18.999279835   13.385735132 XXXX 1      ce1     C   0.094
O7      -7.965493435   18.425519838   13.338098731 XXXX 1      oe1     O  -0.400
C13     -8.972175677   19.312240081   13.814459907 XXXX 1      ce1     C   0.094
C14    -10.303803781   18.555920103   13.989125135 XXXX 1      ce1     C   0.094
H1     -12.328956104   17.851759841   15.513479602 XXXX 1      he1     H   0.053
H2     -11.730811056   16.469520149   14.592515611 XXXX 1      he1     H   0.053
H3      -1.119885797   15.830560020    1.032114777 XXXX 1      he1     H   0.053
H4       0.607917731   15.530639995    0.730419717 XXXX 1      he1     H   0.053
H5      -0.184939008   15.634960012    3.318646198 XXXX 1      he1     H   0.053
H6       1.525255403   15.908799984    2.905800145 XXXX 1      he1     H   0.053
H7       1.141655411   16.782480006    5.144695400 XXXX 1      he1     H   0.053
H8       1.345494354   18.164720087    4.064944695 XXXX 1      he1     H   0.053
H9      -0.142896853   18.229920025    6.669049365 XXXX 1      he1     H   0.053
H10      0.210729863   19.546960168    5.525783773 XXXX 1      he1     H   0.053
H11     -1.759365565   20.238079820    6.700806809 XXXX 1      he1     H   0.053
H12     -2.329475872   19.664320211    5.112937957 XXXX 1      he1     H   0.053
H13     -4.332275148   19.690399876    6.843715067 XXXX 1      he1     H   0.053
H14     -4.326163928   18.608079820    5.430511917 XXXX 1      he1     H   0.053
H15     -6.002219368   17.995199938    7.256560883 XXXX 1      he1     H   0.053
H16     -4.894122056   16.691200016    6.796079138 XXXX 1      he1     H   0.053
H17     -6.340465956   16.795519838    9.193761137 XXXX 1      he1     H   0.053
H18     -5.013725480   15.621919986    9.082610796 XXXX 1      he1     H   0.053
H19     -5.080212802   15.843600047   11.385020465 XXXX 1      he1     H   0.053
H20     -3.991521763   17.199760075   11.019810577 XXXX 1      he1     H   0.053
H21     -5.627831085   17.108480084   13.401613617 XXXX 1      he1     H   0.053
H22     -4.624311874   18.477679944   12.861738501 XXXX 1      he1     H   0.053
H23     -6.417666873   19.233999922   14.433728394 XXXX 1      he1     H   0.053
H24     -6.648024187   19.925119963   12.798223615 XXXX 1      he1     H   0.053
H25     -8.670373762   19.716480317   14.783059797 XXXX 1      he1     H   0.053
H26     -9.100327582   20.120719776   13.099918616 XXXX 1      he1     H   0.053
H27    -10.454380987   17.877839894   13.147555017 XXXX 1      he1     H   0.053
H28    -11.123322894   19.273119807   14.020883051 XXXX 1      he1     H   0.053
O22     -6.270252535   14.787360044   15.211784512 XXXX 1      oe1     O  -0.400
C43     -7.506934107   15.478480084   15.434086142 XXXX 1      ce1     C   0.094
C44      3.869676951   16.300000000    0.841570531 XXXX 1      ce1     C   0.094
O23      4.198719148   15.452400031    1.953078858 XXXX 1      oe1     O  -0.400
C45      4.601792610   16.208720009    3.096344331 XXXX 1      ce1     C   0.094
C46      4.731093879   15.269840050    4.319003768 XXXX 1      ce1     C   0.094
O24      3.445968333   14.774319823    4.700092141 XXXX 1      oe1     O  -0.400
C47      3.531929497   13.848480084    5.779842846 XXXX 1      ce1     C   0.094
C48      2.145460152   13.235599813    6.065659363 XXXX 1      ce1     C   0.094
O25      1.296399945   14.187519994    6.716685767 XXXX 1      oe1     O  -0.400
C49     -0.083168567   13.913680022    6.494384137 XXXX 1      ce1     C   0.094
C50     -0.942003980   14.930800140    7.272439841 XXXX 1      ce1     C   0.094
O26     -0.484377466   15.035119963    8.622128105 XXXX 1      oe1     O  -0.400
C51     -1.259478952   15.973999922    9.384305797 XXXX 1      ce1     C   0.094
C52     -0.967812106   15.791439941   10.876902319 XXXX 1      ce1     C   0.094
O27     -1.916634926   14.878640034   11.464413836 XXXX 1      oe1     O  -0.400
C53     -1.595858374   14.578720009   12.814102100 XXXX 1      ce1     C   0.094
C54     -2.629996898   13.600720165   13.385735132 XXXX 1      ce1     C   0.094
O28     -3.940493435   14.174480162   13.338098731 XXXX 1      oe1     O  -0.400
C55     -4.947175677   13.287759919   13.814459907 XXXX 1      ce1     C   0.094
C56     -6.278803781   14.044079897   13.989125135 XXXX 1      ce1     C   0.094
H85     -8.303956104   14.748240159   15.513479602 XXXX 1      he1     H   0.053
H86     -7.705811056   16.130479851   14.592515611 XXXX 1      he1     H   0.053
H87      2.905114203   16.769439980    1.032114777 XXXX 1      he1     H   0.053
H88      4.632917731   17.069360005    0.730419717 XXXX 1      he1     H   0.053
H89      3.840060992   16.965039988    3.318646198 XXXX 1      he1     H   0.053
H90      5.550255403   16.691200016    2.905800145 XXXX 1      he1     H   0.053
H91      5.166655411   15.817519994    5.144695400 XXXX 1      he1     H   0.053
H92      5.370494354   14.435279913    4.064944695 XXXX 1      he1     H   0.053
H93      3.882103147   14.370079975    6.669049365 XXXX 1      he1     H   0.053
H94      4.235729863   13.053039832    5.525783773 XXXX 1      he1     H   0.053
H95      2.265634435   12.361920180    6.700806809 XXXX 1      he1     H   0.053
H96      1.695524128   12.935679789    5.112937957 XXXX 1      he1     H   0.053
H97     -0.307275148   12.909600124    6.843715067 XXXX 1      he1     H   0.053
H98     -0.301163928   13.991920180    5.430511917 XXXX 1      he1     H   0.053
H99     -1.977219368   14.604800062    7.256560883 XXXX 1      he1     H   0.053
H100    -0.869122056   15.908799984    6.796079138 XXXX 1      he1     H   0.053
H101    -2.315465956   15.804480162    9.193761137 XXXX 1      he1     H   0.053
H102    -0.988725480   16.978080014    9.082610796 XXXX 1      he1     H   0.053
H103    -1.055212802   16.756399953   11.385020465 XXXX 1      he1     H   0.053
H104     0.033478237   15.400239925   11.019810577 XXXX 1      he1     H   0.053
H105    -1.602831085   15.491519916   13.401613617 XXXX 1      he1     H   0.053
H106    -0.599311874   14.122320056   12.861738501 XXXX 1      he1     H   0.053
H107    -2.392666873   13.366000078   14.433728394 XXXX 1      he1     H   0.053
H108    -2.623024187   12.674880037   12.798223615 XXXX 1      he1     H   0.053
H109    -4.645373762   12.883519683   14.783059797 XXXX 1      he1     H   0.053
H110    -5.075327582   12.479280224   13.099918616 XXXX 1      he1     H   0.053
H111    -6.429380987   14.722160106   13.147555017 XXXX 1      he1     H   0.053
H112    -7.098322894   13.326880193   14.020883051 XXXX 1      he1     H   0.053
end
O1      -2.245252535    4.772639956   15.211784512 XXXX 1      oe1     O  -0.400
C1      -3.481934107    4.081519916   15.434086142 XXXX 1      ce1     C   0.094
C2       7.894676951    3.260000000    0.841570531 XXXX 1      ce1     C   0.094
O2       8.223719148    4.107599969    1.953078858 XXXX 1      oe1     O  -0.400
C3       8.626792610    3.351279991    3.096344331 XXXX 1      ce1     C   0.094
C4       8.756093879    4.290159950    4.319003768 XXXX 1      ce1     C   0.094
O3       7.470968333    4.785680177    4.700092141 XXXX 1      oe1     O  -0.400
C5       7.556929497    5.711519916    5.779842846 XXXX 1      ce1     C   0.094
C6       6.170460152    6.324400187    6.065659363 XXXX 1      ce1     C   0.094
O4       5.321399945    5.372480006    6.716685767 XXXX 1      oe1     O  -0.400
C7       3.941831433    5.646319978    6.494384137 XXXX 1      ce1     C   0.094
C8       3.082996020    4.629199860    7.272439841 XXXX 1      ce1     C   0.094
O5       3.540622534    4.524880037    8.622128105 XXXX 1      oe1     O  -0.400
C9       2.765521048    3.586000078    9.384305797 XXXX 1      ce1     C   0.094
C10      3.057187894    3.768560059   10.876902319 XXXX 1      ce1     C   0.094
O6       2.108365074    4.681359966   11.464413836 XXXX 1      oe1     O  -0.400
C11      2.429141626    4.981279991   12.814102100 XXXX 1      ce1     C   0.094
C12      1.395003102    5.959279835   13.385735132 XXXX 1      ce1     C   0.094
O7       0.084506565    5.385519838   13.338098731 XXXX 1      oe1     O  -0.400
C13     -0.922175677    6.272240081   13.814459907 XXXX 1      ce1     C   0.094
C14     -2.253803781    5.515920103   13.989125135 XXXX 1      ce1     C   0.094
H1      -4.278956104    4.811759841   15.513479602 XXXX 1      he1     H   0.053
H2      -3.680811056    3.429520149   14.592515611 XXXX 1      he1     H   0.053
H3       6.930114203    2.790560020    1.032114777 XXXX 1      he1     H   0.053
H4       8.657917731    2.490639995    0.730419717 XXXX 1      he1     H   0.053
H5       7.865060992    2.594960012    3.318646198 XXXX 1      he1     H   0.053
H6       9.575255403    2.868799984    2.905800145 XXXX 1      he1     H   0.053
H7       9.191655411    3.742480006    5.144695400 XXXX 1      he1     H   0.053
H8       9.395494354    5.124720087    4.064944695 XXXX 1      he1     H   0.053
H9       7.907103147    5.189920025    6.669049365 XXXX 1      he1     H   0.053
H10      8.260729863    6.506960168    5.525783773 XXXX 1      he1     H   0.053
H11      6.290634435    7.198079820    6.700806809 XXXX 1      he1     H   0.053
H12      5.720524128    6.624320211    5.112937957 XXXX 1      he1     H   0.053
H13      3.717724852    6.650399876    6.843715067 XXXX 1      he1     H   0.053
H14      3.723836072    5.568079820    5.430511917 XXXX 1      he1     H   0.053
H15      2.047780632    4.955199938    7.256560883 XXXX 1      he1     H   0.053
H16      3.155877944    3.651200016    6.796079138 XXXX 1      he1     H   0.053
H17      1.709534044    3.755519838    9.193761137 XXXX 1      he1     H   0.053
H18      3.036274520    2.581919986    9.082610796 XXXX 1      he1     H   0.053
H19      2.969787198    2.803600047   11.385020465 XXXX 1      he1     H   0.053
H20      4.058478237    4.159760075   11.019810577 XXXX 1      he1     H   0.053
H21      2.422168915    4.068480084   13.401613617 XXXX 1      he1     H   0.053
H22      3.425688126    5.437679944   12.861738501 XXXX 1      he1     H   0.053
H23      1.632333127    6.193999922   14.433728394 XXXX 1      he1     H   0.053
H24      1.401975813    6.885119963   12.798223615 XXXX 1      he1     H   0.053
H25     -0.620373762    6.676480317   14.783059797 XXXX 1      he1     H   0.053
H26     -1.050327582    7.080719776   13.099918616 XXXX 1      he1     H   0.053
H27     -2.404380987    4.837839894   13.147555017 XXXX 1      he1     H   0.053
H28     -3.073322894    6.233119807   14.020883051 XXXX 1      he1     H   0.053
O22      1.779747465    1.747360044   15.211784512 XXXX 1      oe1     O  -0.400
C43      0.543065893    2.438480084   15.434086142 XXXX 1      ce1     C   0.094
C44     11.919676951    3.260000000    0.841570531 XXXX 1      ce1     C   0.094
O23     12.248719148    2.412400031    1.953078858 XXXX 1      oe1     O  -0.400
C45     12.651792610    3.168720009    3.096344331 XXXX 1      ce1     C   0.094
C46     12.781093879    2.229840050    4.319003768 XXXX 1      ce1     C   0.094
O24     11.495968333    1.734319823    4.700092141 XXXX 1      oe1     O  -0.400
C47     11.581929497    0.808480084    5.779842846 XXXX 1      ce1     C   0.094
C48     10.195460152    0.195599813    6.065659363 XXXX 1      ce1     C   0.094
O25      9.346399945    1.147519994    6.716685767 XXXX 1      oe1     O  -0.400
C49      7.966831433    0.873680022    6.494384137 XXXX 1      ce1     C   0.094
C50      7.107996020    1.890800140    7.272439841 XXXX 1      ce1     C   0.094
O26      7.565622534    1.995119963    8.622128105 XXXX 1      oe1     O  -0.400
C51      6.790521048    2.933999922    9.384305797 XXXX 1      ce1     C   0.094
C52      7.082187894    2.751439941   10.876902319 XXXX 1      ce1     C   0.094
O27      6.133365074    1.838640034   11.464413836 XXXX 1      oe1     O  -0.400
C53      6.454141626    1.538720009   12.814102100 XXXX 1      ce1     C   0.094
C54      5.420003102    0.560720165   13.385735132 XXXX 1      ce1     C   0.094
O28      4.109506565    1.134480162   13.338098731 XXXX 1      oe1     O  -0.400
C55      3.102824323    0.247759919   13.814459907 XXXX 1      ce1     C   0.094
C56      1.771196219    1.004079897   13.989125135 XXXX 1      ce1     C   0.094
H85     -0.253956104    1.708240159   15.513479602 XXXX 1      he1     H   0.053
H86      0.344188944    3.090479851   14.592515611 XXXX 1      he1     H   0.053
H87     10.955114203    3.729439980    1.032114777 XXXX 1      he1     H   0.053
H88     12.682917731    4.029360005    0.730419717 XXXX 1      he1     H   0.053
H89     11.890060992    3.925039988    3.318646198 XXXX 1      he1     H   0.053
H90     13.600255403    3.651200016    2.905800145 XXXX 1      he1     H   0.053
H91     13.216655411    2.777519994    5.144695400 XXXX 1      he1     H   0.053
H92     13.420494354    1.395279913    4.064944695 XXXX 1      he1     H   0.053
H93     11.932103147    1.330079975    6.669049365 XXXX 1      he1     H   0.053
H94     12.285729863    0.013039832    5.525783773 XXXX 1      he1     H   0.053
H95     10.315634435   -0.678079820    6.700806809 XXXX 1      he1     H   0.053
H96      9.745524128   -0.104320211    5.112937957 XXXX 1      he1     H   0.053
H97      7.742724852   -0.130399876    6.843715067 XXXX 1      he1     H   0.053
H98      7.748836072    0.951920180    5.430511917 XXXX 1      he1     H   0.053
H99      6.072780632    1.564800062    7.256560883 XXXX 1      he1     H   0.053
H100     7.180877944    2.868799984    6.796079138 XXXX 1      he1     H   0.053
H101     5.734534044    2.764480162    9.193761137 XXXX 1      he1     H   0.053
H102     7.061274520    3.938080014    9.082610796 XXXX 1      he1     H   0.053
H103     6.994787198    3.716399953   11.385020465 XXXX 1      he1     H   0.053
H104     8.083478237    2.360239925   11.019810577 XXXX 1      he1     H   0.053
H105     6.447168915    2.451519916   13.401613617 XXXX 1      he1     H   0.053
H106     7.450688126    1.082320056   12.861738501 XXXX 1      he1     H   0.053
H107     5.657333127    0.326000078   14.433728394 XXXX 1      he1     H   0.053
H108     5.426975813   -0.365119963   12.798223615 XXXX 1      he1     H   0.053
H109     3.404626238   -0.156480317   14.783059797 XXXX 1      he1     H   0.053
H110     2.974672418   -0.560719776   13.099918616 XXXX 1      he1     H   0.053
H111     1.620619013    1.682160106   13.147555017 XXXX 1      he1     H   0.053
H112     0.951677106    0.286880193   14.020883051 XXXX 1      he1     H   0.053
end
O1      -2.245252535   17.812639956   15.211784512 XXXX 1      oe1     O  -0.400
C1      -3.481934107   17.121519916   15.434086142 XXXX 1      ce1     C   0.094
C2       7.894676951   16.300000000    0.841570531 XXXX 1      ce1     C   0.094
O2       8.223719148   17.147599969    1.953078858 XXXX 1      oe1     O  -0.400
C3       8.626792610   16.391279991    3.096344331 XXXX 1      ce1     C   0.094
C4       8.756093879   17.330159950    4.319003768 XXXX 1      ce1     C   0.094
O3       7.470968333   17.825680177    4.700092141 XXXX 1      oe1     O  -0.400
C5       7.556929497   18.751519916    5.779842846 XXXX 1      ce1     C   0.094
C6       6.170460152   19.364400187    6.065659363 XXXX 1      ce1     C   0.094
O4       5.321399945   18.412480006    6.716685767 XXXX 1      oe1     O  -0.400
C7       3.941831433   18.686319978    6.494384137 XXXX 1      ce1     C   0.094
C8       3.082996020   17.669199860    7.272439841 XXXX 1      ce1     C   0.094
O5       3.540622534   17.564880037    8.622128105 XXXX 1      oe1     O  -0.400
C9       2.765521048   16.626000078    9.384305797 XXXX 1      ce1     C   0.094
C10      3.057187894   16.808560059   10.876902319 XXXX 1      ce1     C   0.094
O6       2.108365074   17.721359966   11.464413836 XXXX 1      oe1     O  -0.400
C11      2.429141626   18.021279991   12.814102100 XXXX 1      ce1     C   0.094
C12      1.395003102   18.999279835   13.385735132 XXXX 1      ce1     C   0.094
O7       0.084506565   18.425519838   13.338098731 XXXX 1      oe1     O  -0.400
C13     -0.922175677   19.312240081   13.814459907 XXXX 1      ce1     C   0.094
C14     -2.253803781   18.555920103   13.989125135 XXXX 1      ce1     C   0.094
H1      -4.278956104   17.851759841   15.513479602 XXXX 1      he1     H   0.053
H2      -3.680811056   16.469520149   14.592515611 XXXX 1      he1     H   0.053
H3       6.930114203   15.830560020    1.032114777 XXXX 1      he1     H   0.053
H4       8.657917731   15.530639995    0.730419717 XXXX 1      he1     H   0.053
H5       7.865060992   15.634960012    3.318646198 XXXX 1      he1     H   0.053
H6       9.575255403   15.908799984    2.905800145 XXXX 1      he1     H   0.053
H7       9.191655411   16.782480006    5.144695400 XXXX 1      he1     H   0.053
H8       9.395494354   18.164720087    4.064944695 XXXX 1      he1     H   0.053
H9       7.907103147   18.229920025    6.669049365 XXXX 1      he1     H   0.053
H10      8.260729863   19.546960168    5.525783773 XXXX 1      he1     H   0.053
H11      6.290634435   20.238079820    6.700806809 XXXX 1      he1     H   0.053
H12      5.720524128   19.664320211    5.112937957 XXXX 1      he1     H   0.053
H13      3.717724852   19.690399876    6.843715067 XXXX 1      he1     H   0.053
H14      3.723836072   18.608079820    5.430511917 XXXX 1      he1     H   0.053
H15      2.047780632   17.995199938    7.256560883 XXXX 1      he1     H   0.053
H16      3.155877944   16.691200016    6.796079138 XXXX 1      he1     H   0.053
H17      1.709534044   16.795519838    9.193761137 XXXX 1      he1     H   0.053
H18      3.036274520   15.621919986    9.082610796 XXXX 1      he1     H   0.053
H19      2.969787198   15.843600047   11.385020465 XXXX 1      he1     H   0.053
H20      4.058478237   17.199760075   11.019810577 XXXX 1      he1     H   0.053
H21      2.422168915   17.108480084   13.401613617 XXXX 1      he1     H   0.053
H22      3.425688126   18.477679944   12.861738501 XXXX 1      he1     H   0.053
H23      1.632333127   19.233999922   14.433728394 XXXX 1      he1     H   0.053
H24      1.401975813   19.925119963   12.798223615 XXXX 1      he1     H   0.053
H25     -0.620373762   19.716480317   14.783059797 XXXX 1      he1     H   0.053
H26     -1.050327582   20.120719776   13.099918616 XXXX 1      he1     H   0.053
H27     -2.404380987   17.877839894   13.147555017 XXXX 1      he1     H   0.053
H28     -3.073322894   19.273119807   14.020883051 XXXX 1      he1     H   0.053
O22      1.779747465   14.787360044   15.211784512 XXXX 1      oe1     O  -0.400
C43      0.543065893   15.478480084   15.434086142 XXXX 1      ce1     C   0.094
C44     11.919676951   16.300000000    0.841570531 XXXX 1      ce1     C   0.094
O23     12.248719148   15.452400031    1.953078858 XXXX 1      oe1     O  -0.400
C45     12.651792610   16.208720009    3.096344331 XXXX 1      ce1     C   0.094
C46     12.781093879   15.269840050    4.319003768 XXXX 1      ce1     C   0.094
O24     11.495968333   14.774319823    4.700092141 XXXX 1      oe1     O  -0.400
C47     11.581929497   13.848480084    5.779842846 XXXX 1      ce1     C   0.094
C48     10.195460152   13.235599813    6.065659363 XXXX 1      ce1     C   0.094
O25      9.346399945   14.187519994    6.716685767 XXXX 1      oe1     O  -0.400
C49      7.966831433   13.913680022    6.494384137 XXXX 1      ce1     C   0.094
C50      7.107996020   14.930800140    7.272439841 XXXX 1      ce1     C   0.094
O26      7.565622534   15.035119963    8.622128105 XXXX 1      oe1     O  -0.400
C51      6.790521048   15.973999922    9.384305797 XXXX 1      ce1     C   0.094
C52      7.082187894   15.791439941   10.876902319 XXXX 1      ce1     C   0.094
O27      6.133365074   14.878640034   11.464413836 XXXX 1      oe1     O  -0.400
C53      6.454141626   14.578720009   12.814102100 XXXX 1      ce1     C   0.094
C54      5.420003102   13.600720165   13.385735132 XXXX 1      ce1     C   0.094
O28      4.109506565   14.174480162   13.338098731 XXXX 1      oe1     O  -0.400
C55      3.102824323   13.287759919   13.814459907 XXXX 1      ce1     C   0.094
C56      1.771196219   14.044079897   13.989125135 XXXX 1      ce1     C   0.094
H85     -0.253956104   14.748240159   15.513479602 XXXX 1      he1     H   0.053
H86      0.344188944   16.130479851   14.592515611 XXXX 1      he1     H   0.053
H87     10.955114203   16.769439980    1.032114777 XXXX 1      he1     H   0.053
H88     12.682917731   17.069360005    0.730419717 XXXX 1      he1     H   0.053
H89     11.890060992   16.965039988    3.318646198 XXXX 1      he1     H   0.053
H90     13.600255403   16.691200016    2.905800145 XXXX 1      he1     H   0.053
H91     13.216655411   15.817519994    5.144695400 XXXX 1      he1     H   0.053
H92     13.420494354   14.435279913    4.064944695 XXXX 1      he1     H   0.053
H93     11.932103147   14.370079975    6.669049365 XXXX 1      he1     H   0.053
H94     12.285729863   13.053039832    5.525783773 XXXX 1      he1     H   0.053
H95     10.315634435   12.361920180    6.700806809 XXXX 1      he1     H   0.053
H96      9.745524128   12.935679789    5.112937957 XXXX 1      he1     H   0.053
H97      7.742724852   12.909600124    6.843715067 XXXX 1      he1     H   0.053
H98      7.748836072   13.991920180    5.430511917 XXXX 1      he1     H   0.053
H99      6.072780632   14.604800062    7.256560883 XXXX 1      he1     H   0.053
H100     7.180877944   15.908799984    6.796079138 XXXX 1      he1     H   0.053
H101     5.734534044   15.804480162    9.193761137 XXXX 1      he1     H   0.053
H102     7.061274520   16.978080014    9.082610796 XXXX 1      he1     H   0.053
H103     6.994787198   16.756399953   11.385020465 XXXX 1      he1     H   0.053
H104     8.083478237   15.400239925   11.019810577 XXXX 1      he1     H   0.053
H105     6.447168915   15.491519916   13.401613617 XXXX 1      he1     H   0.053
H106     7.450688126   14.122320056   12.861738501 XXXX 1      he1     H   0.053
H107     5.657333127   13.366000078   14.433728394 XXXX 1      he1     H   0.053
H108     5.426975813   12.674880037   12.798223615 XXXX 1      he1     H   0.053
H109     3.404626238   12.883519683   14.783059797 XXXX 1      he1     H   0.053
H110     2.974672418   12.479280224   13.099918616 XXXX 1      he1     H   0.053
H111     1.620619013   14.722160106   13.147555017 XXXX 1      he1     H   0.053
H112     0.951677106   13.326880193   14.020883051 XXXX 1      he1     H   0.053
end
O1       5.804747465    4.772639956   15.211784512 XXXX 1      oe1     O  -0.400
C1       4.568065893    4.081519916   15.434086142 XXXX 1      ce1     C   0.094
C2      15.944676951    3.260000000    0.841570531 XXXX 1      ce1     C   0.094
O2      16.273719148    4.107599969    1.953078858 XXXX 1      oe1     O  -0.400
C3      16.676792610    3.351279991    3.096344331 XXXX 1      ce1     C   0.094
C4      16.806093879    4.290159950    4.319003768 XXXX 1      ce1     C   0.094
O3      15.520968333    4.785680177    4.700092141 XXXX 1      oe1     O  -0.400
C5      15.606929497    5.711519916    5.779842846 XXXX 1      ce1     C   0.094
C6      14.220460152    6.324400187    6.065659363 XXXX 1      ce1     C   0.094
O4      13.371399945    5.372480006    6.716685767 XXXX 1      oe1     O  -0.400
C7      11.991831433    5.646319978    6.494384137 XXXX 1      ce1     C   0.094
C8      11.132996020    4.629199860    7.272439841 XXXX 1      ce1     C   0.094
O5      11.590622534    4.524880037    8.622128105 XXXX 1      oe1     O  -0.400
C9      10.815521048    3.586000078    9.384305797 XXXX 1      ce1     C   0.094
C10     11.107187894    3.768560059   10.876902319 XXXX 1      ce1     C   0.094
O6      10.158365074    4.681359966   11.464413836 XXXX 1      oe1     O  -0.400
C11     10.479141626    4.981279991   12.814102100 XXXX 1      ce1     C   0.094
C12      9.445003102    5.959279835   13.385735132 XXXX 1      ce1     C   0.094
O7       8.134506565    5.385519838   13.338098731 XXXX 1      oe1     O  -0.400
C13      7.127824323    6.272240081   13.814459907 XXXX 1      ce1     C   0.094
C14      5.796196219    5.515920103   13.989125135 XXXX 1      ce1     C   0.094
H1       3.771043896    4.811759841   15.513479602 XXXX 1      he1     H   0.053
H2       4.369188944    3.429520149   14.592515611 XXXX 1      he1     H   0.053
H3      14.980114203    2.790560020    1.032114777 XXXX 1      he1     H   0.053
H4      16.707917731    2.490639995    0.730419717 XXXX 1      he1     H   0.053
H5      15.915060992    2.594960012    3.318646198 XXXX 1      he1     H   0.053
H6      17.625255403    2.868799984    2.905800145 XXXX 1      he1     H   0.053
H7      17.241655411    3.742480006    5.144695400 XXXX 1      he1     H   0.053
H8      17.445494354    5.124720087    4.064944695 XXXX 1      he1     H   0.053
H9      15.957103147    5.189920025    6.669049365 XXXX 1      he1     H   0.053
H10     16.310729863    6.506960168    5.525783773 XXXX 1      he1     H   0.053
H11     14.340634435    7.198079820    6.700806809 XXXX 1      he1     H   0.053
H12     13.770524128    6.624320211    5.112937957 XXXX 1      he1     H   0.053
H13     11.767724852    6.650399876    6.843715067 XXXX 1      he1     H   0.053
H14     11.773836072    5.568079820    5.430511917 XXXX 1      he1     H   0.053
H15     10.097780632    4.955199938    7.256560883 XXXX 1      he1     H   0.053
H16     11.205877944    3.651200016    6.796079138 XXXX 1      he1     H   0.053
H17      9.759534044    3.755519838    9.193761137 XXXX 1      he1     H   0.053
H18     11.086274520    2.581919986    9.082610796 XXXX 1      he1     H   0.053
H19     11.019787198    2.803600047   11.385020465 XXXX 1      he1     H   0.053
H20     12.108478237    4.159760075   11.019810577 XXXX 1      he1     H   0.053
H21     10.472168915    4.068480084   13.401613617 XXXX 1      he1     H   0.053
H22     11.475688126    5.437679944   12.861738501 XXXX 1      he1     H   0.053
H23      9.682333127    6.193999922   14.433728394 XXXX 1      he1     H   0.053
H24      9.451975813    6.885119963   12.798223615 XXXX 1      he1     H   0.053
H25      7.429626238    6.676480317   14.783059797 XXXX 1      he1     H   0.053
H26      6.999672418    7.080719776   13.099918616 XXXX 1      he1     H   0.053
H27      5.645619013    4.837839894   13.147555017 XXXX 1      he1     H   0.053
H28      4.976677106    6.233119807   14.020883051 XXXX 1      he1     H   0.053
O22      9.829747465    1.747360044   15.211784512 XXXX 1      oe1     O  -0.400
C43      8.593065893    2.438480084   15.434086142 XXXX 1      ce1     C   0.094
C44     19.969676951    3.260000000    0.841570531 XXXX 1      ce1     C   0.094
O23     20.298719148    2.412400031    1.953078858 XXXX 1      oe1     O  -0.400
C45     20.701792610    3.168720009    3.096344331 XXXX 1      ce1     C   0.094
C46     20.831093879    2.229840050    4.319003768 XXXX 1      ce1     C   0.094
O24     19.545968333    1.734319823    4.700092141 XXXX 1      oe1     O  -0.400
C47     19.631929497    0.808480084    5.779842846 XXXX 1      ce1     C   0.094
C48     18.245460152    0.195599813    6.065659363 XXXX 1      ce1     C   0.094
O25     17.396399945    1.147519994    6.716685767 XXXX 1      oe1     O  -0.400
C49     16.016831433    0.873680022    6.494384137 XXXX 1      ce1     C   0.094
C50     15.157996020    1.890800140    7.272439841 XXXX 1      ce1     C   0.094
O26     15.615622534    1.995119963    8.622128105 XXXX 1      oe1     O  -0.400
C51     14.840521048    2.933999922    9.384305797 XXXX 1      ce1     C   0.094
C52     15.132187894    2.751439941   10.876902319 XXXX 1      ce1     C   0.094
O27     14.183365074    1.838640034   11.464413836 XXXX 1      oe1     O  -0.400
C53     14.504141626    1.538720009   12.814102100 XXXX 1      ce1     C   0.094
C54     13.470003102    0.560720165   13.385735132 XXXX 1      ce1     C   0.094
O28     12.159506565    1.134480162   13.338098731 XXXX 1      oe1     O  -0.400
C55     11.152824323    0.247759919   13.814459907 XXXX 1      ce1     C   0.094
C56      9.821196219    1.004079897   13.989125135 XXXX 1      ce1     C   0.094
H85      7.796043896    1.708240159   15.513479602 XXXX 1      he1     H   0.053
H86      8.394188944    3.090479851   14.592515611 XXXX 1      he1     H   0.053
H87     19.005114203    3.729439980    1.032114777 XXXX 1      he1     H   0.053
H88     20.732917731    4.029360005    0.730419717 XXXX 1      he1     H   0.053
H89     19.940060992    3.925039988    3.318646198 XXXX 1      he1     H   0.053
H90     21.650255403    3.651200016    2.905800145 XXXX 1      he1     H   0.053
H91     21.266655411    2.777519994    5.144695400 XXXX 1      he1     H   0.053
H92     21.470494354    1.395279913    4.064944695 XXXX 1      he1     H   0.053
H93     19.982103147    1.330079975    6.669049365 XXXX 1      he1     H   0.053
H94     20.335729863    0.013039832    5.525783773 XXXX 1      he1     H   0.053
H95     18.365634435   -0.678079820    6.700806809 XXXX 1      he1     H   0.053
H96     17.795524128   -0.104320211    5.112937957 XXXX 1      he1     H   0.053
H97     15.792724852   -0.130399876    6.843715067 XXXX 1      he1     H   0.053
H98     15.798836072    0.951920180    5.430511917 XXXX 1      he1     H   0.053
H99     14.122780632    1.564800062    7.256560883 XXXX 1      he1     H   0.053
H100    15.230877944    2.868799984    6.796079138 XXXX 1      he1     H   0.053
H101    13.784534044    2.764480162    9.193761137 XXXX 1      he1     H   0.053
H102    15.111274520    3.938080014    9.082610796 XXXX 1      he1     H   0.053
H103    15.044787198    3.716399953   11.385020465 XXXX 1      he1     H   0.053
H104    16.133478237    2.360239925   11.019810577 XXXX 1      he1     H   0.053
H105    14.497168915    2.451519916   13.401613617 XXXX 1      he1     H   0.053
H106    15.500688126    1.082320056   12.861738501 XXXX 1      he1     H   0.053
H107    13.707333127    0.326000078   14.433728394 XXXX 1      he1     H   0.053
H108    13.476975813   -0.365119963   12.798223615 XXXX 1      he1     H   0.053
H109    11.454626238   -0.156480317   14.783059797 XXXX 1      he1     H   0.053
H110    11.024672418   -0.560719776   13.099918616 XXXX 1      he1     H   0.053
H111     9.670619013    1.682160106   13.147555017 XXXX 1      he1     H   0.053
H112     9.001677106    0.286880193   14.020883051 XXXX 1      he1     H   0.053
end
O1       5.804747465   17.812639956   15.211784512 XXXX 1      oe1     O  -0.400
C1       4.568065893   17.121519916   15.434086142 XXXX 1      ce1     C   0.094
C2      15.944676951   16.300000000    0.841570531 XXXX 1      ce1     C   0.094
O2      16.273719148   17.147599969    1.953078858 XXXX 1      oe1     O  -0.400
C3      16.676792610   16.391279991    3.096344331 XXXX 1      ce1     C   0.094
C4      16.806093879   17.330159950    4.319003768 XXXX 1      ce1     C   0.094
O3      15.520968333   17.825680177    4.700092141 XXXX 1      oe1     O  -0.400
C5      15.606929497   18.751519916    5.779842846 XXXX 1      ce1     C   0.094
C6      14.220460152   19.364400187    6.065659363 XXXX 1      ce1     C   0.094
O4      13.371399945   18.412480006    6.716685767 XXXX 1      oe1     O  -0.400
C7      11.991831433   18.686319978    6.494384137 XXXX 1      ce1     C   0.094
C8      11.132996020   17.669199860    7.272439841 XXXX 1      ce1     C   0.094
O5      11.590622534   17.564880037    8.622128105 XXXX 1      oe1     O  -0.400
C9      10.815521048   16.626000078    9.384305797 XXXX 1      ce1     C   0.094
C10     11.107187894   16.808560059   10.876902319 XXXX 1      ce1     C   0.094
O6      10.158365074   17.721359966   11.464413836 XXXX 1      oe1     O  -0.400
C11     10.479141626   18.021279991   12.814102100 XXXX 1      ce1     C   0.094
C12      9.445003102   18.999279835   13.385735132 XXXX 1      ce1     C   0.094
O7       8.134506565   18.425519838   13.338098731 XXXX 1      oe1     O  -0.400
C13      7.127824323   19.312240081   13.814459907 XXXX 1      ce1     C   0.094
C14      5.796196219   18.555920103   13.989125135 XXXX 1      ce1     C   0.094
H1       3.771043896   17.851759841   15.513479602 XXXX 1      he1     H   0.053
H2       4.369188944   16.469520149   14.592515611 XXXX 1      he1     H   0.053
H3      14.980114203   15.830560020    1.032114777 XXXX 1      he1     H   0.053
H4      16.707917731   15.530639995    0.730419717 XXXX 1      he1     H   0.053
H5      15.915060992   15.634960012    3.318646198 XXXX 1      he1     H   0.053
H6      17.625255403   15.908799984    2.905800145 XXXX 1      he1     H   0.053
H7      17.241655411   16.782480006    5.144695400 XXXX 1      he1     H   0.053
H8      17.445494354   18.164720087    4.064944695 XXXX 1      he1     H   0.053
H9      15.957103147   18.229920025    6.669049365 XXXX 1      he1     H   0.053
H10     16.310729863   19.546960168    5.525783773 XXXX 1      he1     H   0.053
H11     14.340634435   20.238079820    6.700806809 XXXX 1      he1     H   0.053
H12     13.770524128   19.664320211    5.112937957 XXXX 1      he1     H   0.053
H13     11.767724852   19.690399876    6.843715067 XXXX 1      he1     H   0.053
H14     11.773836072   18.608079820    5.430511917 XXXX 1      he1     H   0.053
H15     10.097780632   17.995199938    7.256560883 XXXX 1      he1     H   0.053
H16     11.205877944   16.691200016    6.796079138 XXXX 1      he1     H   0.053
H17      9.759534044   16.795519838    9.193761137 XXXX 1      he1     H   0.053
H18     11.086274520   15.621919986    9.082610796 XXXX 1      he1     H   0.053
H19     11.019787198   15.843600047   11.385020465 XXXX 1      he1     H   0.053
H20     12.108478237   17.199760075   11.019810577 XXXX 1      he1     H   0.053
H21     10.472168915   17.108480084   13.401613617 XXXX 1      he1     H   0.053
H22     11.475688126   18.477679944   12.861738501 XXXX 1      he1     H   0.053
H23      9.682333127   19.233999922   14.433728394 XXXX 1      he1     H   0.053
H24      9.451975813   19.925119963   12.798223615 XXXX 1      he1     H   0.053
H25      7.429626238   19.716480317   14.783059797 XXXX 1      he1     H   0.053
H26      6.999672418   20.120719776   13.099918616 XXXX 1      he1     H   0.053
H27      5.645619013   17.877839894   13.147555017 XXXX 1      he1     H   0.053
H28      4.976677106   19.273119807   14.020883051 XXXX 1      he1     H   0.053
O22      9.829747465   14.787360044   15.211784512 XXXX 1      oe1     O  -0.400
C43      8.593065893   15.478480084   15.434086142 XXXX 1      ce1     C   0.094
C44     19.969676951   16.300000000    0.841570531 XXXX 1      ce1     C   0.094
O23     20.298719148   15.452400031    1.953078858 XXXX 1      oe1     O  -0.400
C45     20.701792610   16.208720009    3.096344331 XXXX 1      ce1     C   0.094
C46     20.831093879   15.269840050    4.319003768 XXXX 1      ce1     C   0.094
O24     19.545968333   14.774319823    4.700092141 XXXX 1      oe1     O  -0.400
C47     19.631929497   13.848480084    5.779842846 XXXX 1      ce1     C   0.094
C48     18.245460152   13.235599813    6.065659363 XXXX 1      ce1     C   0.094
O25     17.396399945   14.187519994    6.716685767 XXXX 1      oe1     O  -0.400
C49     16.016831433   13.913680022    6.494384137 XXXX 1      ce1     C   0.094
C50     15.157996020   14.930800140    7.272439841 XXXX 1      ce1     C   0.094
O26     15.615622534   15.035119963    8.622128105 XXXX 1      oe1     O  -0.400
C51     14.840521048   15.973999922    9.384305797 XXXX 1      ce1     C   0.094
C52     15.132187894   15.791439941   10.876902319 XXXX 1      ce1     C   0.094
O27     14.183365074   14.878640034   11.464413836 XXXX 1      oe1     O  -0.400
C53     14.504141626   14.578720009   12.814102100 XXXX 1      ce1     C   0.094
C54     13.470003102   13.600720165   13.385735132 XXXX 1      ce1     C   0.094
O28     12.159506565   14.174480162   13.338098731 XXXX 1      oe1     O  -0.400
C55     11.152824323   13.287759919   13.814459907 XXXX 1      ce1     C   0.094
C56      9.821196219   14.044079897   13.989125135 XXXX 1      ce1     C   0.094
H85      7.796043896   14.748240159   15.513479602 XXXX 1      he1     H   0.053
H86      8.394188944   16.130479851   14.592515611 XXXX 1      he1     H   0.053
H87     19.005114203   16.769439980    1.032114777 XXXX 1      he1     H   0.053
H88     20.732917731   17.069360005    0.730419717 XXXX 1      he1     H   0.053
H89     19.940060992   16.965039988    3.318646198 XXXX 1      he1     H   0.053
H90     21.650255403   16.691200016    2.905800145 XXXX 1      he1     H   0.053
H91     21.266655411   15.817519994    5.144695400 XXXX 1      he1     H   0.053
H92     21.470494354   14.435279913    4.064944695 XXXX 1      he1     H   0.053
H93     19.982103147   14.370079975    6.669049365 XXXX 1      he1     H   0.053
H94     20.335729863   13.053039832    5.525783773 XXXX 1      he1     H   0.053
H95     18.365634435   12.361920180    6.700806809 XXXX 1      he1     H   0.053
H96     17.795524128   12.935679789    5.112937957 XXXX 1      he1     H   0.053
H97     15.792724852   12.909600124    6.843715067 XXXX 1      he1     H   0.053
H98     15.798836072   13.991920180    5.430511917 XXXX 1      he1     H   0.053
H99     14.122780632   14.604800062    7.256560883 XXXX 1      he1     H   0.053
H100    15.230877944   15.908799984    6.796079138 XXXX 1      he1     H   0.053
H101    13.784534044   15.804480162    9.193761137 XXXX 1      he1     H   0.053
H102    15.111274520   16.978080014    9.082610796 XXXX 1      he1     H   0.053
H103    15.044787198   16.756399953   11.385020465 XXXX 1      he1     H   0.053
H104    16.133478237   15.400239925   11.019810577 XXXX 1      he1     H   0.053
H105    14.497168915   15.491519916   13.401613617 XXXX 1      he1     H   0.053
H106    15.500688126   14.122320056   12.861738501 XXXX 1      he1     H   0.053
H107    13.707333127   13.366000078   14.433728394 XXXX 1      he1     H   0.053
H108    13.476975813   12.674880037   12.798223615 XXXX 1      he1     H   0.053
H109    11.454626238   12.883519683   14.783059797 XXXX 1      he1     H   0.053
H110    11.024672418   12.479280224   13.099918616 XXXX 1      he1     H   0.053
H111     9.670619013   14.722160106   13.147555017 XXXX 1      he1     H   0.053
H112     9.001677106   13.326880193   14.020883051 XXXX 1      he1     H   0.053
end
O8       3.035852535   11.292639956    0.666915487 XXXX 1      oe1     O  -0.400
C15      4.272534107   10.601519916    0.444613858 XXXX 1      ce1     C   0.094
C16     -7.104076951    9.780000000   15.037129468 XXXX 1      ce1     C   0.094
O9      -7.433119148   10.627599969   13.925621142 XXXX 1      oe1     O  -0.400
C17     -7.836192610    9.871279991   12.782355669 XXXX 1      ce1     C   0.094
C18     -7.965493879   10.810159950   11.559696232 XXXX 1      ce1     C   0.094
O10     -6.680368333   11.305680177   11.178607859 XXXX 1      oe1     O  -0.400
C19     -6.766329497   12.231519916   10.098857153 XXXX 1      ce1     C   0.094
C20     -5.379860152   12.844400187    9.813040637 XXXX 1      ce1     C   0.094
O11     -4.530799945   11.892480006    9.162014233 XXXX 1      oe1     O  -0.400
C21     -3.151231433   12.166319978    9.384315863 XXXX 1      ce1     C   0.094
C22     -2.292396020   11.149199860    8.606260159 XXXX 1      ce1     C   0.094
O12     -2.750022534   11.044880037    7.256571895 XXXX 1      oe1     O  -0.400
C23     -1.974921049   10.106000078    6.494394203 XXXX 1      ce1     C   0.094
C24     -2.266587895   10.288560059    5.001797681 XXXX 1      ce1     C   0.094
O13     -1.317765074   11.201359966    4.414286164 XXXX 1      oe1     O  -0.400
C25     -1.638541626   11.501279991    3.064597900 XXXX 1      ce1     C   0.094
C26     -0.604403102   12.479279835    2.492964868 XXXX 1      ce1     C   0.094
O14      0.706093435   11.905519838    2.540601269 XXXX 1      oe1     O  -0.400
C27      1.712775676   12.792240081    2.064240093 XXXX 1      ce1     C   0.094
C28      3.044403781   12.035920103    1.889574865 XXXX 1      ce1     C   0.094
H29      5.069556104   11.331759841    0.365220397 XXXX 1      he1     H   0.053
H30      4.471411056    9.949520149    1.286184389 XXXX 1      he1     H   0.053
H31     -6.139514203    9.310560020   14.846585223 XXXX 1      he1     H   0.053
H32     -7.867317731    9.010639995   15.148280283 XXXX 1      he1     H   0.053
H33     -7.074460993    9.114960012   12.560053802 XXXX 1      he1     H   0.053
H34     -8.784655403    9.388799984   12.972899855 XXXX 1      he1     H   0.053
H35     -8.401055411   10.262480006   10.734004599 XXXX 1      he1     H   0.053
H36     -8.604894355   11.644720087   11.813755305 XXXX 1      he1     H   0.053
H37     -7.116503147   11.709920025    9.209650634 XXXX 1      he1     H   0.053
H38     -7.470129863   13.026960168   10.352916226 XXXX 1      he1     H   0.053
H39     -5.500034436   13.718079820    9.177893191 XXXX 1      he1     H   0.053
H40     -4.929924129   13.144320211   10.765762043 XXXX 1      he1     H   0.053
H41     -2.927124853   13.170399876    9.034984933 XXXX 1      he1     H   0.053
H42     -2.933236072   12.088079820   10.448188083 XXXX 1      he1     H   0.053
H43     -1.257180632   11.475199938    8.622139117 XXXX 1      he1     H   0.053
H44     -2.365277945   10.171200016    9.082620861 XXXX 1      he1     H   0.053
H45     -0.918934045   10.275519838    6.684938863 XXXX 1      he1     H   0.053
H46     -2.245674520    9.101919986    6.796089204 XXXX 1      he1     H   0.053
H47     -2.179187199    9.323600047    4.493679535 XXXX 1      he1     H   0.053
H48     -3.267878238   10.679760075    4.858889423 XXXX 1      he1     H   0.053
H49     -1.631568915   10.588480084    2.477086383 XXXX 1      he1     H   0.053
H50     -2.635088127   11.957679944    3.016961499 XXXX 1      he1     H   0.053
H51     -0.841733128   12.713999922    1.444971606 XXXX 1      he1     H   0.053
H52     -0.611375813   13.405119963    3.080476385 XXXX 1      he1     H   0.053
H53      1.410973762   13.196480317    1.095640203 XXXX 1      he1     H   0.053
H54      1.840927582   13.600719776    2.778781384 XXXX 1      he1     H   0.053
H55      3.194980987   11.357839894    2.731144982 XXXX 1      he1     H   0.053
H56      3.863922893   12.753119807    1.857816948 XXXX 1      he1     H   0.053
O15     15.110852535   21.307360044    0.666915487 XXXX 1      oe1     O  -0.400
C29     16.347534107   21.998480084    0.444613858 XXXX 1      ce1     C   0.094
C30      4.970923049   22.820000000   15.037129468 XXXX 1      ce1     C   0.094
O16      4.641880852   21.972400031   13.925621142 XXXX 1      oe1     O  -0.400
C31      4.238807390   22.728720009   12.782355669 XXXX 1      ce1     C   0.094
C32      4.109506121   21.789840050   11.559696232 XXXX 1      ce1     C   0.094
O17      5.394631667   21.294319823   11.178607859 XXXX 1      oe1     O  -0.400
C33      5.308670503   20.368480084   10.098857153 XXXX 1      ce1     C   0.094
C34      6.695139848   19.755599813    9.813040637 XXXX 1      ce1     C   0.094
O18      7.544200055   20.707519994    9.162014233 XXXX 1      oe1     O  -0.400
C35      8.923768567   20.433680022    9.384315863 XXXX 1      ce1     C   0.094
C36      9.782603980   21.450800140    8.606260159 XXXX 1      ce1     C   0.094
O19      9.324977466   21.555119963    7.256571895 XXXX 1      oe1     O  -0.400
C37     10.100078951   22.493999922    6.494394203 XXXX 1      ce1     C   0.094
C38      9.808412105   22.311439941    5.001797681 XXXX 1      ce1     C   0.094
O20     10.757234926   21.398640034    4.414286164 XXXX 1      oe1     O  -0.400
C39     10.436458374   21.098720009    3.064597900 XXXX 1      ce1     C   0.094
C40     11.470596898   20.120720165    2.492964868 XXXX 1      ce1     C   0.094
O21     12.781093435   20.694480162    2.540601269 XXXX 1      oe1     O  -0.400
C41     13.787775676   19.807759919    2.064240093 XXXX 1      ce1     C   0.094
C42     15.119403781   20.564079897    1.889574865 XXXX 1      ce1     C   0.094
H57     17.144556104   21.268240159    0.365220397 XXXX 1      he1     H   0.053
H58     16.546411056   22.650479851    1.286184389 XXXX 1      he1     H   0.053
H59      5.935485797   23.289439980   14.846585223 XXXX 1      he1     H   0.053
H60      4.207682269   23.589360005   15.148280283 XXXX 1      he1     H   0.053
H61      5.000539007   23.485039988   12.560053802 XXXX 1      he1     H   0.053
H62      3.290344597   23.211200016   12.972899855 XXXX 1      he1     H   0.053
H63      3.673944589   22.337519994   10.734004599 XXXX 1      he1     H   0.053
H64      3.470105645   20.955279913   11.813755305 XXXX 1      he1     H   0.053
H65      4.958496853   20.890079975    9.209650634 XXXX 1      he1     H   0.053
H66      4.604870137   19.573039832   10.352916226 XXXX 1      he1     H   0.053
H67      6.574965564   18.881920180    9.177893191 XXXX 1      he1     H   0.053
H68      7.145075871   19.455679789   10.765762043 XXXX 1      he1     H   0.053
H69      9.147875147   19.429600124    9.034984933 XXXX 1      he1     H   0.053
H70      9.141763928   20.511920180   10.448188083 XXXX 1      he1     H   0.053
H71     10.817819368   21.124800062    8.622139117 XXXX 1      he1     H   0.053
H72      9.709722055   22.428799984    9.082620861 XXXX 1      he1     H   0.053
H73     11.156065955   22.324480162    6.684938863 XXXX 1      he1     H   0.053
H74      9.829325480   23.498080014    6.796089204 XXXX 1      he1     H   0.053
H75      9.895812801   23.276399953    4.493679535 XXXX 1      he1     H   0.053
H76      8.807121762   21.920239925    4.858889423 XXXX 1      he1     H   0.053
H77     10.443431085   22.011519916    2.477086383 XXXX 1      he1     H   0.053
H78      9.439911873   20.642320056    3.016961499 XXXX 1      he1     H   0.053
H79     11.233266872   19.886000078    1.444971606 XXXX 1      he1     H   0.053
H80     11.463624187   19.194880037    3.080476385 XXXX 1      he1     H   0.053
H81     13.485973762   19.403519683    1.095640203 XXXX 1      he1     H   0.053
H82     13.915927582   18.999280224    2.778781384 XXXX 1      he1     H   0.053
H83     15.269980987   21.242160106    2.731144982 XXXX 1      he1     H   0.053
H84     15.938922893   19.846880193    1.857816948 XXXX 1      he1     H   0.053
end
O8       3.035852535   24.332639956    0.666915487 XXXX 1      oe1     O  -0.400
C15      4.272534107   23.641519916    0.444613858 XXXX 1      ce1     C   0.094
C16     -7.104076951   22.820000000   15.037129468 XXXX 1      ce1     C   0.094
O9      -7.433119148   23.667599969   13.925621142 XXXX 1      oe1     O  -0.400
C17     -7.836192610   22.911279991   12.782355669 XXXX 1      ce1     C   0.094
C18     -7.965493879   23.850159950   11.559696232 XXXX 1      ce1     C   0.094
O10     -6.680368333   24.345680177   11.178607859 XXXX 1      oe1     O  -0.400
C19     -6.766329497   25.271519916   10.098857153 XXXX 1      ce1     C   0.094
C20     -5.379860152   25.884400187    9.813040637 XXXX 1      ce1     C   0.094
O11     -4.530799945   24.932480006    9.162014233 XXXX 1      oe1     O  -0.400
C21     -3.151231433   25.206319978    9.384315863 XXXX 1      ce1     C   0.094
C22     -2.292396020   24.189199860    8.606260159 XXXX 1      ce1     C   0.094
O12     -2.750022534   24.084880037    7.256571895 XXXX 1      oe1     O  -0.400
C23     -1.974921049   23.146000078    6.494394203 XXXX 1      ce1     C   0.094
C24     -2.266587895   23.328560059    5.001797681 XXXX 1      ce1     C   0.094
O13     -1.317765074   24.241359966    4.414286164 XXXX 1      oe1     O  -0.400
C25     -1.638541626   24.541279991    3.064597900 XXXX 1      ce1     C   0.094
C26     -0.604403102   25.519279835    2.492964868 XXXX 1      ce1     C   0.094
O14      0.706093435   24.945519838    2.540601269 XXXX 1      oe1     O  -0.400
C27      1.712775676   25.832240081    2.064240093 XXXX 1      ce1     C   0.094
C28      3.044403781   25.075920103    1.889574865 XXXX 1      ce1     C   0.094
H29      5.069556104   24.371759841    0.365220397 XXXX 1      he1     H   0.053
H30      4.471411056   22.989520149    1.286184389 XXXX 1      he1     H   0.053
H31     -6.139514203   22.350560020   14.846585223 XXXX 1      he1     H   0.053
H32     -7.867317731   22.050639995   15.148280283 XXXX 1      he1     H   0.053
H33     -7.074460993   22.154960012   12.560053802 XXXX 1      he1     H   0.053
H34     -8.784655403   22.428799984   12.972899855 XXXX 1      he1     H   0.053
H35     -8.401055411   23.302480006   10.734004599 XXXX 1      he1     H   0.053
H36     -8.604894355   24.684720087   11.813755305 XXXX 1      he1     H   0.053
H37     -7.116503147   24.749920025    9.209650634 XXXX 1      he1     H   0.053
H38     -7.470129863   26.066960168   10.352916226 XXXX 1      he1     H   0.053
H39     -5.500034436   26.758079820    9.177893191 XXXX 1      he1     H   0.053
H40     -4.929924129   26.184320211   10.765762043 XXXX 1      he1     H   0.053
H41     -2.927124853   26.210399876    9.034984933 XXXX 1      he1     H   0.053
H42     -2.933236072   25.128079820   10.448188083 XXXX 1      he1     H   0.053
H43     -1.257180632   24.515199938    8.622139117 XXXX 1      he1     H   0.053
H44     -2.365277945   23.211200016    9.082620861 XXXX 1      he1     H   0.053
H45     -0.918934045   23.315519838    6.684938863 XXXX 1      he1     H   0.053
H46     -2.245674520   22.141919986    6.796089204 XXXX 1      he1     H   0.053
H47     -2.179187199   22.363600047    4.493679535 XXXX 1      he1     H   0.053
H48     -3.267878238   23.719760075    4.858889423 XXXX 1      he1     H   0.053
H49     -1.631568915   23.628480084    2.477086383 XXXX 1      he1     H   0.053
H50     -2.635088127   24.997679944    3.016961499 XXXX 1      he1     H   0.053
H51     -0.841733128   25.753999922    1.444971606 XXXX 1      he1     H   0.053
H52     -0.611375813   26.445119963    3.080476385 XXXX 1      he1     H   0.053
H53      1.410973762   26.236480317    1.095640203 XXXX 1      he1     H   0.053
H54      1.840927582   26.640719776    2.778781384 XXXX 1      he1     H   0.053
H55      3.194980987   24.397839894    2.731144982 XXXX 1      he1     H   0.053
H56      3.863922893   25.793119807    1.857816948 XXXX 1      he1     H   0.053
end
O8      11.085852535   11.292639956    0.666915487 XXXX 1      oe1     O  -0.400
C15     12.322534107   10.601519916    0.444613858 XXXX 1      ce1     C   0.094
C16      0.945923049    9.780000000   15.037129468 XXXX 1      ce1     C   0.094
O9       0.616880852   10.627599969   13.925621142 XXXX 1      oe1     O  -0.400
C17      0.213807390    9.871279991   12.782355669 XXXX 1      ce1     C   0.094
C18      0.084506121   10.810159950   11.559696232 XXXX 1      ce1     C   0.094
O10      1.369631667   11.305680177   11.178607859 XXXX 1      oe1     O  -0.400
C19      1.283670503   12.231519916   10.098857153 XXXX 1      ce1     C   0.094
C20      2.670139848   12.844400187    9.813040637 XXXX 1      ce1     C   0.094
O11      3.519200055   11.892480006    9.162014233 XXXX 1      oe1     O  -0.400
C21      4.898768567   12.166319978    9.384315863 XXXX 1      ce1     C   0.094
C22      5.757603980   11.149199860    8.606260159 XXXX 1      ce1     C   0.094
O12      5.299977466   11.044880037    7.256571895 XXXX 1      oe1     O  -0.400
C23      6.075078951   10.106000078    6.494394203 XXXX 1      ce1     C   0.094
C24      5.783412105   10.288560059    5.001797681 XXXX 1      ce1     C   0.094
O13      6.732234926   11.201359966    4.414286164 XXXX 1      oe1     O  -0.400
C25      6.411458374   11.501279991    3.064597900 XXXX 1      ce1     C   0.094
C26      7.445596898   12.479279835    2.492964868 XXXX 1      ce1     C   0.094
O14      8.756093435   11.905519838    2.540601269 XXXX 1      oe1     O  -0.400
C27      9.762775676   12.792240081    2.064240093 XXXX 1      ce1     C   0.094
C28     11.094403781   12.035920103    1.889574865 XXXX 1      ce1     C   0.094
H29     13.119556104   11.331759841    0.365220397 XXXX 1      he1     H   0.053
H30     12.521411056    9.949520149    1.286184389 XXXX 1      he1     H   0.053
H31      1.910485797    9.310560020   14.846585223 XXXX 1      he1     H   0.053
H32      0.182682269    9.010639995   15.148280283 XXXX 1      he1     H   0.053
H33      0.975539007    9.114960012   12.560053802 XXXX 1      he1     H   0.053
H34     -0.734655403    9.388799984   12.972899855 XXXX 1      he1     H   0.053
H35     -0.351055411   10.262480006   10.734004599 XXXX 1      he1     H   0.053
H36     -0.554894355   11.644720087   11.813755305 XXXX 1      he1     H   0.053
H37      0.933496853   11.709920025    9.209650634 XXXX 1      he1     H   0.053
H38      0.579870137   13.026960168   10.352916226 XXXX 1      he1     H   0.053
H39      2.549965564   13.718079820    9.177893191 XXXX 1      he1     H   0.053
H40      3.120075871   13.144320211   10.765762043 XXXX 1      he1     H   0.053
H41      5.122875147   13.170399876    9.034984933 XXXX 1      he1     H   0.053
H42      5.116763928   12.088079820   10.448188083 XXXX 1      he1     H   0.053
H43      6.792819368   11.475199938    8.622139117 XXXX 1      he1     H   0.053
H44      5.684722055   10.171200016    9.082620861 XXXX 1      he1     H   0.053
H45      7.131065955   10.275519838    6.684938863 XXXX 1      he1     H   0.053
H46      5.804325480    9.101919986    6.796089204 XXXX 1      he1     H   0.053
H47      5.870812801    9.323600047    4.493679535 XXXX 1      he1     H   0.053
H48      4.782121762   10.679760075    4.858889423 XXXX 1      he1     H   0.053
H49      6.418431085   10.588480084    2.477086383 XXXX 1      he1     H   0.053
H50      5.414911873   11.957679944    3.016961499 XXXX 1      he1     H   0.053
H51      7.208266872   12.713999922    1.444971606 XXXX 1      he1     H   0.053
H52      7.438624187   13.405119963    3.080476385 XXXX 1      he1     H   0.053
H53      9.460973762   13.196480317    1.095640203 XXXX 1      he1     H   0.053
H54      9.890927582   13.600719776    2.778781384 XXXX 1      he1     H   0.053
H55     11.244980987   11.357839894    2.731144982 XXXX 1      he1     H   0.053
H56     11.913922893   12.753119807    1.857816948 XXXX 1      he1     H   0.053
O15     23.160852535   21.307360044    0.666915487 XXXX 1      oe1     O  -0.400
C29     24.397534107   21.998480084    0.444613858 XXXX 1      ce1     C   0.094
C30     13.020923049   22.820000000   15.037129468 XXXX 1      ce1     C   0.094
O16     12.691880852   21.972400031   13.925621142 XXXX 1      oe1     O  -0.400
C31     12.288807390   22.728720009   12.782355669 XXXX 1      ce1     C   0.094
C32     12.159506121   21.789840050   11.559696232 XXXX 1      ce1     C   0.094
O17     13.444631667   21.294319823   11.178607859 XXXX 1      oe1     O  -0.400
C33     13.358670503   20.368480084   10.098857153 XXXX 1      ce1     C   0.094
C34     14.745139848   19.755599813    9.813040637 XXXX 1      ce1     C   0.094
O18     15.594200055   20.707519994    9.162014233 XXXX 1      oe1     O  -0.400
C35     16.973768567   20.433680022    9.384315863 XXXX 1      ce1     C   0.094
C36     17.832603980   21.450800140    8.606260159 XXXX 1      ce1     C   0.094
O19     17.374977466   21.555119963    7.256571895 XXXX 1      oe1     O  -0.400
C37     18.150078951   22.493999922    6.494394203 XXXX 1      ce1     C   0.094
C38     17.858412105   22.311439941    5.001797681 XXXX 1      ce1     C   0.094
O20     18.807234926   21.398640034    4.414286164 XXXX 1      oe1     O  -0.400
C39     18.486458374   21.098720009    3.064597900 XXXX 1      ce1     C   0.094
C40     19.520596898   20.120720165    2.492964868 XXXX 1      ce1     C   0.094
O21     20.831093435   20.694480162    2.540601269 XXXX 1      oe1     O  -0.400
C41     21.837775676   19.807759919    2.064240093 XXXX 1      ce1     C   0.094
C42     23.169403781   20.564079897    1.889574865 XXXX 1      ce1     C   0.094
H57     25.194556104   21.268240159    0.365220397 XXXX 1      he1     H   0.053
H58     24.596411056   22.650479851    1.286184389 XXXX 1      he1     H   0.053
H59     13.985485797   23.289439980   14.846585223 XXXX 1      he1     H   0.053
H60     12.257682269   23.589360005   15.148280283 XXXX 1      he1     H   0.053
H61     13.050539007   23.485039988   12.560053802 XXXX 1      he1     H   0.053
H62     11.340344597   23.211200016   12.972899855 XXXX 1      he1     H   0.053
H63     11.723944589   22.337519994   10.734004599 XXXX 1      he1     H   0.053
H64     11.520105645   20.955279913   11.813755305 XXXX 1      he1     H   0.053
H65     13.008496853   20.890079975    9.209650634 XXXX 1      he1     H   0.053
H66     12.654870137   19.573039832   10.352916226 XXXX 1      he1     H   0.053
H67     14.624965564   18.881920180    9.177893191 XXXX 1      he1     H   0.053
H68     15.195075871   19.455679789   10.765762043 XXXX 1      he1     H   0.053
H69     17.197875147   19.429600124    9.034984933 XXXX 1      he1     H   0.053
H70     17.191763928   20.511920180   10.448188083 XXXX 1      he1     H   0.053
H71     18.867819368   21.124800062    8.622139117 XXXX 1      he1     H   0.053
H72     17.759722055   22.428799984    9.082620861 XXXX 1      he1     H   0.053
H73     19.206065955   22.324480162    6.684938863 XXXX 1      he1     H   0.053
H74     17.879325480   23.498080014    6.796089204 XXXX 1      he1     H   0.053
H75     17.945812801   23.276399953    4.493679535 XXXX 1      he1     H   0.053
H76     16.857121762   21.920239925    4.858889423 XXXX 1      he1     H   0.053
H77     18.493431085   22.011519916    2.477086383 XXXX 1      he1     H   0.053
H78     17.489911873   20.642320056    3.016961499 XXXX 1      he1     H   0.053
H79     19.283266872   19.886000078    1.444971606 XXXX 1      he1     H   0.053
H80     19.513624187   19.194880037    3.080476385 XXXX 1      he1     H   0.053
H81     21.535973762   19.403519683    1.095640203 XXXX 1      he1     H   0.053
H82     21.965927582   18.999280224    2.778781384 XXXX 1      he1     H   0.053
H83     23.319980987   21.242160106    2.731144982 XXXX 1      he1     H   0.053
H84     23.988922893   19.846880193    1.857816948 XXXX 1      he1     H   0.053
end
O8      11.085852535   24.332639956    0.666915487 XXXX 1      oe1     O  -0.400
C15     12.322534107   23.641519916    0.444613858 XXXX 1      ce1     C   0.094
C16      0.945923049   22.820000000   15.037129468 XXXX 1      ce1     C   0.094
O9       0.616880852   23.667599969   13.925621142 XXXX 1      oe1     O  -0.400
C17      0.213807390   22.911279991   12.782355669 XXXX 1      ce1     C   0.094
C18      0.084506121   23.850159950   11.559696232 XXXX 1      ce1     C   0.094
O10      1.369631667   24.345680177   11.178607859 XXXX 1      oe1     O  -0.400
C19      1.283670503   25.271519916   10.098857153 XXXX 1      ce1     C   0.094
C20      2.670139848   25.884400187    9.813040637 XXXX 1      ce1     C   0.094
O11      3.519200055   24.932480006    9.162014233 XXXX 1      oe1     O  -0.400
C21      4.898768567   25.206319978    9.384315863 XXXX 1      ce1     C   0.094
C22      5.757603980   24.189199860    8.606260159 XXXX 1      ce1     C   0.094
O12      5.299977466   24.084880037    7.256571895 XXXX 1      oe1     O  -0.400
C23      6.075078951   23.146000078    6.494394203 XXXX 1      ce1     C   0.094
C24      5.783412105   23.328560059    5.001797681 XXXX 1      ce1     C   0.094
O13      6.732234926   24.241359966    4.414286164 XXXX 1      oe1     O  -0.400
C25      6.411458374   24.541279991    3.064597900 XXXX 1      ce1     C   0.094
C26      7.445596898   25.519279835    2.492964868 XXXX 1      ce1     C   0.094
O14      8.756093435   24.945519838    2.540601269 XXXX 1      oe1     O  -0.400
C27      9.762775676   25.832240081    2.064240093 XXXX 1      ce1     C   0.094
C28     11.094403781   25.075920103    1.889574865 XXXX 1      ce1     C   0.094
H29     13.119556104   24.371759841    0.365220397 XXXX 1      he1     H   0.053
H30     12.521411056   22.989520149    1.286184389 XXXX 1      he1     H   0.053
H31      1.910485797   22.350560020   14.846585223 XXXX 1      he1     H   0.053
H32      0.182682269   22.050639995   15.148280283 XXXX 1      he1     H   0.053
H33      0.975539007   22.154960012   12.560053802 XXXX 1      he1     H   0.053
H34     -0.734655403   22.428799984   12.972899855 XXXX 1      he1     H   0.053
H35     -0.351055411   23.302480006   10.734004599 XXXX 1      he1     H   0.053
H36     -0.554894355   24.684720087   11.813755305 XXXX 1      he1     H   0.053
H37      0.933496853   24.749920025    9.209650634 XXXX 1      he1     H   0.053
H38      0.579870137   26.066960168   10.352916226 XXXX 1      he1     H   0.053
H39      2.549965564   26.758079820    9.177893191 XXXX 1      he1     H   0.053
H40      3.120075871   26.184320211   10.765762043 XXXX 1      he1     H   0.053
H41      5.122875147   26.210399876    9.034984933 XXXX 1      he1     H   0.053
H42      5.116763928   25.128079820   10.448188083 XXXX 1      he1     H   0.053
H43      6.792819368   24.515199938    8.622139117 XXXX 1      he1     H   0.053
H44      5.684722055   23.211200016    9.082620861 XXXX 1      he1     H   0.053
H45      7.131065955   23.315519838    6.684938863 XXXX 1      he1     H   0.053
H46      5.804325480   22.141919986    6.796089204 XXXX 1      he1     H   0.053
H47      5.870812801   22.363600047    4.493679535 XXXX 1      he1     H   0.053
H48      4.782121762   23.719760075    4.858889423 XXXX 1      he1     H   0.053
H49      6.418431085   23.628480084    2.477086383 XXXX 1      he1     H   0.053
H50      5.414911873   24.997679944    3.016961499 XXXX 1      he1     H   0.053
H51      7.208266872   25.753999922    1.444971606 XXXX 1      he1     H   0.053
H52      7.438624187   26.445119963    3.080476385 XXXX 1      he1     H   0.053
H53      9.460973762   26.236480317    1.095640203 XXXX 1      he1     H   0.053
H54      9.890927582   26.640719776    2.778781384 XXXX 1      he1     H   0.053
H55     11.244980987   24.397839894    2.731144982 XXXX 1      he1     H   0.053
H56     11.913922893   25.793119807    1.857816948 XXXX 1      he1     H   0.053
end
O8      19.135852535   11.292639956    0.666915487 XXXX 1      oe1     O  -0.400
C15     20.372534107   10.601519916    0.444613858 XXXX 1      ce1     C   0.094
C16      8.995923049    9.780000000   15.037129468 XXXX 1      ce1     C   0.094
O9       8.666880852   10.627599969   13.925621142 XXXX 1      oe1     O  -0.400
C17      8.263807390    9.871279991   12.782355669 XXXX 1      ce1     C   0.094
C18      8.134506121   10.810159950   11.559696232 XXXX 1      ce1     C   0.094
O10      9.419631667   11.305680177   11.178607859 XXXX 1      oe1     O  -0.400
C19      9.333670503   12.231519916   10.098857153 XXXX 1      ce1     C   0.094
C20     10.720139848   12.844400187    9.813040637 XXXX 1      ce1     C   0.094
O11     11.569200055   11.892480006    9.162014233 XXXX 1      oe1     O  -0.400
C21     12.948768567   12.166319978    9.384315863 XXXX 1      ce1     C   0.094
C22     13.807603980   11.149199860    8.606260159 XXXX 1      ce1     C   0.094
O12     13.349977466   11.044880037    7.256571895 XXXX 1      oe1     O  -0.400
C23     14.125078951   10.106000078    6.494394203 XXXX 1      ce1     C   0.094
C24     13.833412105   10.288560059    5.001797681 XXXX 1      ce1     C   0.094
O13     14.782234926   11.201359966    4.414286164 XXXX 1      oe1     O  -0.400
C25     14.461458374   11.501279991    3.064597900 XXXX 1      ce1     C   0.094
C26     15.495596898   12.479279835    2.492964868 XXXX 1      ce1     C   0.094
O14     16.806093435   11.905519838    2.540601269 XXXX 1      oe1     O  -0.400
C27     17.812775676   12.792240081    2.064240093 XXXX 1      ce1     C   0.094
C28     19.144403781   12.035920103    1.889574865 XXXX 1      ce1     C   0.094
H29     21.169556104   11.331759841    0.365220397 XXXX 1      he1     H   0.053
H30     20.571411056    9.949520149    1.286184389 XXXX 1      he1     H   0.053
H31      9.960485797    9.310560020   14.846585223 XXXX 1      he1     H   0.053
H32      8.232682269    9.010639995   15.148280283 XXXX 1      he1     H   0.053
H33      9.025539007    9.114960012   12.560053802 XXXX 1      he1     H   0.053
H34      7.315344597    9.388799984   12.972899855 XXXX 1      he1     H   0.053
H35      7.698944589   10.262480006   10.734004599 XXXX 1      he1     H   0.053
H36      7.495105645   11.644720087   11.813755305 XXXX 1      he1     H   0.053
H37      8.983496853   11.709920025    9.209650634 XXXX 1      he1     H   0.053
H38      8.629870137   13.026960168   10.352916226 XXXX 1      he1     H   0.053
H39     10.599965564   13.718079820    9.177893191 XXXX 1      he1     H   0.053
H40     11.170075871   13.144320211   10.765762043 XXXX 1      he1     H   0.053
H41     13.172875147   13.170399876    9.034984933 XXXX 1      he1     H   0.053
H42     13.166763928   12.088079820   10.448188083 XXXX 1      he1     H   0.053
H43     14.842819368   11.475199938    8.622139117 XXXX 1      he1     H   0.053
H44     13.734722055   10.171200016    9.082620861 XXXX 1      he1     H   0.053
H45     15.181065955   10.275519838    6.684938863 XXXX 1      he1     H   0.053
H46     13.854325480    9.101919986    6.796089204 XXXX 1      he1     H   0.053
H47     13.920812801    9.323600047    4.493679535 XXXX 1      he1     H   0.053
H48     12.832121762   10.679760075    4.858889423 XXXX 1      he1     H   0.053
H49     14.468431085   10.588480084    2.477086383 XXXX 1      he1     H   0.053
H50     13.464911873   11.957679944    3.016961499 XXXX 1      he1     H   0.053
H51     15.258266872   12.713999922    1.444971606 XXXX 1      he1     H   0.053
H52     15.488624187   13.405119963    3.080476385 XXXX 1      he1     H   0.053
H53     17.510973762   13.196480317    1.095640203 XXXX 1      he1     H   0.053
H54     17.940927582   13.600719776    2.778781384 XXXX 1      he1     H   0.053
H55     19.294980987   11.357839894    2.731144982 XXXX 1      he1     H   0.053
H56     19.963922893   12.753119807    1.857816948 XXXX 1      he1     H   0.053
end
O8      19.135852535   24.332639956    0.666915487 XXXX 1      oe1     O  -0.400
C15     20.372534107   23.641519916    0.444613858 XXXX 1      ce1     C   0.094
C16      8.995923049   22.820000000   15.037129468 XXXX 1      ce1     C   0.094
O9       8.666880852   23.667599969   13.925621142 XXXX 1      oe1     O  -0.400
C17      8.263807390   22.911279991   12.782355669 XXXX 1      ce1     C   0.094
C18      8.134506121   23.850159950   11.559696232 XXXX 1      ce1     C   0.094
O10      9.419631667   24.345680177   11.178607859 XXXX 1      oe1     O  -0.400
C19      9.333670503   25.271519916   10.098857153 XXXX 1      ce1     C   0.094
C20     10.720139848   25.884400187    9.813040637 XXXX 1      ce1     C   0.094
O11     11.569200055   24.932480006    9.162014233 XXXX 1      oe1     O  -0.400
C21     12.948768567   25.206319978    9.384315863 XXXX 1      ce1     C   0.094
C22     13.807603980   24.189199860    8.606260159 XXXX 1      ce1     C   0.094
O12     13.349977466   24.084880037    7.256571895 XXXX 1      oe1     O  -0.400
C23     14.125078951   23.146000078    6.494394203 XXXX 1      ce1     C   0.094
C24     13.833412105   23.328560059    5.001797681 XXXX 1      ce1     C   0.094
O13     14.782234926   24.241359966    4.414286164 XXXX 1      oe1     O  -0.400
C25     14.461458374   24.541279991    3.064597900 XXXX 1      ce1     C   0.094
C26     15.495596898   25.519279835    2.492964868 XXXX 1      ce1     C   0.094
O14     16.806093435   24.945519838    2.540601269 XXXX 1      oe1     O  -0.400
C27     17.812775676   25.832240081    2.064240093 XXXX 1      ce1     C   0.094
C28     19.144403781   25.075920103    1.889574865 XXXX 1      ce1     C   0.094
H29     21.169556104   24.371759841    0.365220397 XXXX 1      he1     H   0.053
H30     20.571411056   22.989520149    1.286184389 XXXX 1      he1     H   0.053
H31      9.960485797   22.350560020   14.846585223 XXXX 1      he1     H   0.053
H32      8.232682269   22.050639995   15.148280283 XXXX 1      he1     H   0.053
H33      9.025539007   22.154960012   12.560053802 XXXX 1      he1     H   0.053
H34      7.315344597   22.428799984   12.972899855 XXXX 1      he1     H   0.053
H35      7.698944589   23.302480006   10.734004599 XXXX 1      he1     H   0.053
H36      7.495105645   24.684720087   11.813755305 XXXX 1      he1     H   0.053
H37      8.983496853   24.749920025    9.209650634 XXXX 1      he1     H   0.053
H38      8.629870137   26.066960168   10.352916226 XXXX 1      he1     H   0.053
H39     10.599965564   26.758079820    9.177893191 XXXX 1      he1     H   0.053
H40     11.170075871   26.184320211   10.765762043 XXXX 1      he1     H   0.053
H41     13.172875147   26.210399876    9.034984933 XXXX 1      he1     H   0.053
H42     13.166763928   25.128079820   10.448188083 XXXX 1      he1     H   0.053
H43     14.842819368   24.515199938    8.622139117 XXXX 1      he1     H   0.053
H44     13.734722055   23.211200016    9.082620861 XXXX 1      he1     H   0.053
H45     15.181065955   23.315519838    6.684938863 XXXX 1      he1     H   0.053
H46     13.854325480   22.141919986    6.796089204 XXXX 1      he1     H   0.053
H47     13.920812801   22.363600047    4.493679535 XXXX 1      he1     H   0.053
H48     12.832121762   23.719760075    4.858889423 XXXX 1      he1     H   0.053
H49     14.468431085   23.628480084    2.477086383 XXXX 1      he1     H   0.053
H50     13.464911873   24.997679944    3.016961499 XXXX 1      he1     H   0.053
H51     15.258266872   25.753999922    1.444971606 XXXX 1      he1     H   0.053
H52     15.488624187   26.445119963    3.080476385 XXXX 1      he1     H   0.053
H53     17.510973762   26.236480317    1.095640203 XXXX 1      he1     H   0.053
H54     17.940927582   26.640719776    2.778781384 XXXX 1      he1     H   0.053
H55     19.294980987   24.397839894    2.731144982 XXXX 1      he1     H   0.053
H56     19.963922893   25.793119807    1.857816948 XXXX 1      he1     H   0.053
end
O15      7.060852535    8.267360044    0.666915487 XXXX 1      oe1     O  -0.400
C29      8.297534107    8.958480084    0.444613858 XXXX 1      ce1     C   0.094
C30     -3.079076951    9.780000000   15.037129468 XXXX 1      ce1     C   0.094
O16     -3.408119148    8.932400031   13.925621142 XXXX 1      oe1     O  -0.400
C31     -3.811192610    9.688720009   12.782355669 XXXX 1      ce1     C   0.094
C32     -3.940493879    8.749840050   11.559696232 XXXX 1      ce1     C   0.094
O17     -2.655368333    8.254319823   11.178607859 XXXX 1      oe1     O  -0.400
C33     -2.741329497    7.328480084   10.098857153 XXXX 1      ce1     C   0.094
C34     -1.354860152    6.715599813    9.813040637 XXXX 1      ce1     C   0.094
O18     -0.505799945    7.667519994    9.162014233 XXXX 1      oe1     O  -0.400
C35      0.873768567    7.393680022    9.384315863 XXXX 1      ce1     C   0.094
C36      1.732603980    8.410800140    8.606260159 XXXX 1      ce1     C   0.094
O19      1.274977466    8.515119963    7.256571895 XXXX 1      oe1     O  -0.400
C37      2.050078951    9.453999922    6.494394203 XXXX 1      ce1     C   0.094
C38      1.758412105    9.271439941    5.001797681 XXXX 1      ce1     C   0.094
O20      2.707234926    8.358640034    4.414286164 XXXX 1      oe1     O  -0.400
C39      2.386458374    8.058720009    3.064597900 XXXX 1      ce1     C   0.094
C40      3.420596898    7.080720165    2.492964868 XXXX 1      ce1     C   0.094
O21      4.731093435    7.654480162    2.540601269 XXXX 1      oe1     O  -0.400
C41      5.737775676    6.767759919    2.064240093 XXXX 1      ce1     C   0.094
C42      7.069403781    7.524079897    1.889574865 XXXX 1      ce1     C   0.094
H57      9.094556104    8.228240159    0.365220397 XXXX 1      he1     H   0.053
H58      8.496411056    9.610479851    1.286184389 XXXX 1      he1     H   0.053
H59     -2.114514203   10.249439980   14.846585223 XXXX 1      he1     H   0.053
H60     -3.842317731   10.549360005   15.148280283 XXXX 1      he1     H   0.053
H61     -3.049460993   10.445039988   12.560053802 XXXX 1      he1     H   0.053
H62     -4.759655403   10.171200016   12.972899855 XXXX 1      he1     H   0.053
H63     -4.376055411    9.297519994   10.734004599 XXXX 1      he1     H   0.053
H64     -4.579894355    7.915279913   11.813755305 XXXX 1      he1     H   0.053
H65     -3.091503147    7.850079975    9.209650634 XXXX 1      he1     H   0.053
H66     -3.445129863    6.533039832   10.352916226 XXXX 1      he1     H   0.053
H67     -1.475034436    5.841920180    9.177893191 XXXX 1      he1     H   0.053
H68     -0.904924129    6.415679789   10.765762043 XXXX 1      he1     H   0.053
H69      1.097875147    6.389600124    9.034984933 XXXX 1      he1     H   0.053
H70      1.091763928    7.471920180   10.448188083 XXXX 1      he1     H   0.053
H71      2.767819368    8.084800062    8.622139117 XXXX 1      he1     H   0.053
H72      1.659722055    9.388799984    9.082620861 XXXX 1      he1     H   0.053
H73      3.106065955    9.284480162    6.684938863 XXXX 1      he1     H   0.053
H74      1.779325480   10.458080014    6.796089204 XXXX 1      he1     H   0.053
H75      1.845812801   10.236399953    4.493679535 XXXX 1      he1     H   0.053
H76      0.757121762    8.880239925    4.858889423 XXXX 1      he1     H   0.053
H77      2.393431085    8.971519916    2.477086383 XXXX 1      he1     H   0.053
H78      1.389911873    7.602320056    3.016961499 XXXX 1      he1     H   0.053
H79      3.183266872    6.846000078    1.444971606 XXXX 1      he1     H   0.053
H80      3.413624187    6.154880037    3.080476385 XXXX 1      he1     H   0.053
H81      5.435973762    6.363519683    1.095640203 XXXX 1      he1     H   0.053
H82      5.865927582    5.959280224    2.778781384 XXXX 1      he1     H   0.053
H83      7.219980987    8.202160106    2.731144982 XXXX 1      he1     H   0.053
H84      7.888922893    6.806880193    1.857816948 XXXX 1      he1     H   0.053
end
O15      7.060852535   21.307360044    0.666915487 XXXX 1      oe1     O  -0.400
C29      8.297534107   21.998480084    0.444613858 XXXX 1      ce1     C   0.094
C30     -3.079076951   22.820000000   15.037129468 XXXX 1      ce1     C   0.094
O16     -3.408119148   21.972400031   13.925621142 XXXX 1      oe1     O  -0.400
C31     -3.811192610   22.728720009   12.782355669 XXXX 1      ce1     C   0.094
C32     -3.940493879   21.789840050   11.559696232 XXXX 1      ce1     C   0.094
O17     -2.655368333   21.294319823   11.178607859 XXXX 1      oe1     O  -0.400
C33     -2.741329497   20.368480084   10.098857153 XXXX 1      ce1     C   0.094
C34     -1.354860152   19.755599813    9.813040637 XXXX 1      ce1     C   0.094
O18     -0.505799945   20.707519994    9.162014233 XXXX 1      oe1     O  -0.400
C35      0.873768567   20.433680022    9.384315863 XXXX 1      ce1     C   0.094
C36      1.732603980   21.450800140    8.606260159 XXXX 1      ce1     C   0.094
O19      1.274977466   21.555119963    7.256571895 XXXX 1      oe1     O  -0.400
C37      2.050078951   22.493999922    6.494394203 XXXX 1      ce1     C   0.094
C38      1.758412105   22.311439941    5.001797681 XXXX 1      ce1     C   0.094
O20      2.707234926   21.398640034    4.414286164 XXXX 1      oe1     O  -0.400
C39      2.386458374   21.098720009    3.064597900 XXXX 1      ce1     C   0.094
C40      3.420596898   20.120720165    2.492964868 XXXX 1      ce1     C   0.094
O21      4.731093435   20.694480162    2.540601269 XXXX 1      oe1     O  -0.400
C41      5.737775676   19.807759919    2.064240093 XXXX 1      ce1     C   0.094
C42      7.069403781   20.564079897    1.889574865 XXXX 1      ce1     C   0.094
H57      9.094556104   21.268240159    0.365220397 XXXX 1      he1     H   0.053
H58      8.496411056   22.650479851    1.286184389 XXXX 1      he1     H   0.053
H59     -2.114514203   23.289439980   14.846585223 XXXX 1      he1     H   0.053
H60     -3.842317731   23.589360005   15.148280283 XXXX 1      he1     H   0.053
H61     -3.049460993   23.485039988   12.560053802 XXXX 1      he1     H   0.053
H62     -4.759655403   23.211200016   12.972899855 XXXX 1      he1     H   0.053
H63     -4.376055411   22.337519994   10.734004599 XXXX 1      he1     H   0.053
H64     -4.579894355   20.955279913   11.813755305 XXXX 1      he1     H   0.053
H65     -3.091503147   20.890079975    9.209650634 XXXX 1      he1     H   0.053
H66     -3.445129863   19.573039832   10.352916226 XXXX 1      he1     H   0.053
H67     -1.475034436   18.881920180    9.177893191 XXXX 1      he1     H   0.053
H68     -0.904924129   19.455679789   10.765762043 XXXX 1      he1     H   0.053
H69      1.097875147   19.429600124    9.034984933 XXXX 1      he1     H   0.053
H70      1.091763928   20.511920180   10.448188083 XXXX 1      he1     H   0.053
H71      2.767819368   21.124800062    8.622139117 XXXX 1      he1     H   0.053
H72      1.659722055   22.428799984    9.082620861 XXXX 1      he1     H   0.053
H73      3.106065955   22.324480162    6.684938863 XXXX 1      he1     H   0.053
H74      1.779325480   23.498080014    6.796089204 XXXX 1      he1     H   0.053
H75      1.845812801   23.276399953    4.493679535 XXXX 1      he1     H   0.053
H76      0.757121762   21.920239925    4.858889423 XXXX 1      he1     H   0.053
H77      2.393431085   22.011519916    2.477086383 XXXX 1      he1     H   0.053
H78      1.389911873   20.642320056    3.016961499 XXXX 1      he1     H   0.053
H79      3.183266872   19.886000078    1.444971606 XXXX 1      he1     H   0.053
H80      3.413624187   19.194880037    3.080476385 XXXX 1      he1     H   0.053
H81      5.435973762   19.403519683    1.095640203 XXXX 1      he1     H   0.053
H82      5.865927582   18.999280224    2.778781384 XXXX 1      he1     H   0.053
H83      7.219980987   21.242160106    2.731144982 XXXX 1      he1     H   0.053
H84      7.888922893   19.846880193    1.857816948 XXXX 1      he1     H   0.053
end
O15     15.110852535    8.267360044    0.666915487 XXXX 1      oe1     O  -0.400
C29     16.347534107    8.958480084    0.444613858 XXXX 1      ce1     C   0.094
C30      4.970923049    9.780000000   15.037129468 XXXX 1      ce1     C   0.094
O16      4.641880852    8.932400031   13.925621142 XXXX 1      oe1     O  -0.400
C31      4.238807390    9.688720009   12.782355669 XXXX 1      ce1     C   0.094
C32      4.109506121    8.749840050   11.559696232 XXXX 1      ce1     C   0.094
O17      5.394631667    8.254319823   11.178607859 XXXX 1      oe1     O  -0.400
C33      5.308670503    7.328480084   10.098857153 XXXX 1      ce1     C   0.094
C34      6.695139848    6.715599813    9.813040637 XXXX 1      ce1     C   0.094
O18      7.544200055    7.667519994    9.162014233 XXXX 1      oe1     O  -0.400
C35      8.923768567    7.393680022    9.384315863 XXXX 1      ce1     C   0.094
C36      9.782603980    8.410800140    8.606260159 XXXX 1      ce1     C   0.094
O19      9.324977466    8.515119963    7.256571895 XXXX 1      oe1     O  -0.400
C37     10.100078951    9.453999922    6.494394203 XXXX 1      ce1     C   0.094
C38      9.808412105    9.271439941    5.001797681 XXXX 1      ce1     C   0.094
O20     10.757234926    8.358640034    4.414286164 XXXX 1      oe1     O  -0.400
C39     10.436458374    8.058720009    3.064597900 XXXX 1      ce1     C   0.094
C40     11.470596898    7.080720165    2.492964868 XXXX 1      ce1     C   0.094
O21     12.781093435    7.654480162    2.540601269 XXXX 1      oe1     O  -0.400
C41     13.787775676    6.767759919    2.064240093 XXXX 1      ce1     C   0.094
C42     15.119403781    7.524079897    1.889574865 XXXX 1      ce1     C   0.094
H57     17.144556104    8.228240159    0.365220397 XXXX 1      he1     H   0.053
H58     16.546411056    9.610479851    1.286184389 XXXX 1      he1     H   0.053
H59      5.935485797   10.249439980   14.846585223 XXXX 1      he1     H   0.053
H60      4.207682269   10.549360005   15.148280283 XXXX 1      he1     H   0.053
H61      5.000539007   10.445039988   12.560053802 XXXX 1      he1     H   0.053
H62      3.290344597   10.171200016   12.972899855 XXXX 1      he1     H   0.053
H63      3.673944589    9.297519994   10.734004599 XXXX 1      he1     H   0.053
H64      3.470105645    7.915279913   11.813755305 XXXX 1      he1     H   0.053
H65      4.958496853    7.850079975    9.209650634 XXXX 1      he1     H   0.053
H66      4.604870137    6.533039832   10.352916226 XXXX 1      he1     H   0.053
H67      6.574965564    5.841920180    9.177893191 XXXX 1      he1     H   0.053
H68      7.145075871    6.415679789   10.765762043 XXXX 1      he1     H   0.053
H69      9.147875147    6.389600124    9.034984933 XXXX 1      he1     H   0.053
H70      9.141763928    7.471920180   10.448188083 XXXX 1      he1     H   0.053
H71     10.817819368    8.084800062    8.622139117 XXXX 1      he1     H   0.053
H72      9.709722055    9.388799984    9.082620861 XXXX 1      he1     H   0.053
H73     11.156065955    9.284480162    6.684938863 XXXX 1      he1     H   0.053
H74      9.829325480   10.458080014    6.796089204 XXXX 1      he1     H   0.053
H75      9.895812801   10.236399953    4.493679535 XXXX 1      he1     H   0.053
H76      8.807121762    8.880239925    4.858889423 XXXX 1      he1     H   0.053
H77     10.443431085    8.971519916    2.477086383 XXXX 1      he1     H   0.053
H78      9.439911873    7.602320056    3.016961499 XXXX 1      he1     H   0.053
H79     11.233266872    6.846000078    1.444971606 XXXX 1      he1     H   0.053
H80     11.463624187    6.154880037    3.080476385 XXXX 1      he1     H   0.053
H81     13.485973762    6.363519683    1.095640203 XXXX 1      he1     H   0.053
H82     13.915927582    5.959280224    2.778781384 XXXX 1      he1     H   0.053
H83     15.269980987    8.202160106    2.731144982 XXXX 1      he1     H   0.053
H84     15.938922893    6.806880193    1.857816948 XXXX 1      he1     H   0.053
end
O15     23.160852535    8.267360044    0.666915487 XXXX 1      oe1     O  -0.400
C29     24.397534107    8.958480084    0.444613858 XXXX 1      ce1     C   0.094
C30     13.020923049    9.780000000   15.037129468 XXXX 1      ce1     C   0.094
O16     12.691880852    8.932400031   13.925621142 XXXX 1      oe1     O  -0.400
C31     12.288807390    9.688720009   12.782355669 XXXX 1      ce1     C   0.094
C32     12.159506121    8.749840050   11.559696232 XXXX 1      ce1     C   0.094
O17     13.444631667    8.254319823   11.178607859 XXXX 1      oe1     O  -0.400
C33     13.358670503    7.328480084   10.098857153 XXXX 1      ce1     C   0.094
C34     14.745139848    6.715599813    9.813040637 XXXX 1      ce1     C   0.094
O18     15.594200055    7.667519994    9.162014233 XXXX 1      oe1     O  -0.400
C35     16.973768567    7.393680022    9.384315863 XXXX 1      ce1     C   0.094
C36     17.832603980    8.410800140    8.606260159 XXXX 1      ce1     C   0.094
O19     17.374977466    8.515119963    7.256571895 XXXX 1      oe1     O  -0.400
C37     18.150078951    9.453999922    6.494394203 XXXX 1      ce1     C   0.094
C38     17.858412105    9.271439941    5.001797681 XXXX 1      ce1     C   0.094
O20     18.807234926    8.358640034    4.414286164 XXXX 1      oe1     O  -0.400
C39     18.486458374    8.058720009    3.064597900 XXXX 1      ce1     C   0.094
C40     19.520596898    7.080720165    2.492964868 XXXX 1      ce1     C   0.094
O21     20.831093435    7.654480162    2.540601269 XXXX 1      oe1     O  -0.400
C41     21.837775676    6.767759919    2.064240093 XXXX 1      ce1     C   0.094
C42     23.169403781    7.524079897    1.889574865 XXXX 1      ce1     C   0.094
H57     25.194556104    8.228240159    0.365220397 XXXX 1      he1     H   0.053
H58     24.596411056    9.610479851    1.286184389 XXXX 1      he1     H   0.053
H59     13.985485797   10.249439980   14.846585223 XXXX 1      he1     H   0.053
H60     12.257682269   10.549360005   15.148280283 XXXX 1      he1     H   0.053
H61     13.050539007   10.445039988   12.560053802 XXXX 1      he1     H   0.053
H62     11.340344597   10.171200016   12.972899855 XXXX 1      he1     H   0.053
H63     11.723944589    9.297519994   10.734004599 XXXX 1      he1     H   0.053
H64     11.520105645    7.915279913   11.813755305 XXXX 1      he1     H   0.053
H65     13.008496853    7.850079975    9.209650634 XXXX 1      he1     H   0.053
H66     12.654870137    6.533039832   10.352916226 XXXX 1      he1     H   0.053
H67     14.624965564    5.841920180    9.177893191 XXXX 1      he1     H   0.053
H68     15.195075871    6.415679789   10.765762043 XXXX 1      he1     H   0.053
H69     17.197875147    6.389600124    9.034984933 XXXX 1      he1     H   0.053
H70     17.191763928    7.471920180   10.448188083 XXXX 1      he1     H   0.053
H71     18.867819368    8.084800062    8.622139117 XXXX 1      he1     H   0.053
H72     17.759722055    9.388799984    9.082620861 XXXX 1      he1     H   0.053
H73     19.206065955    9.284480162    6.684938863 XXXX 1      he1     H   0.053
H74     17.879325480   10.458080014    6.796089204 XXXX 1      he1     H   0.053
H75     17.945812801   10.236399953    4.493679535 XXXX 1      he1     H   0.053
H76     16.857121762    8.880239925    4.858889423 XXXX 1      he1     H   0.053
H77     18.493431085    8.971519916    2.477086383 XXXX 1      he1     H   0.053
H78     17.489911873    7.602320056    3.016961499 XXXX 1      he1     H   0.053
H79     19.283266872    6.846000078    1.444971606 XXXX 1      he1     H   0.053
H80     19.513624187    6.154880037    3.080476385 XXXX 1      he1     H   0.053
H81     21.535973762    6.363519683    1.095640203 XXXX 1      he1     H   0.053
H82     21.965927582    5.959280224    2.778781384 XXXX 1      he1     H   0.053
H83     23.319980987    8.202160106    2.731144982 XXXX 1      he1     H   0.053
H84     23.988922893    6.806880193    1.857816948 XXXX 1      he1     H   0.053
end
end
