!BIOSYM archive 3
PBC=ON
Materials Studio Generated CAR File
!DATE Mon Mar 23 21:32:03 2015
PBC   34.9787   32.6214  133.3161   90.0000   90.0000   90.0000 (P1)
O1       6.479194926    2.938255424    3.660726724 XXXX 1      oap1    O  -0.800
O2       6.957493763    7.173918997    4.382400328 XXXX 1      oap1    O  -0.800
O3       2.610245121    7.116343903    2.138752744 XXXX 1      oap1    O  -0.650
O4       6.756383743    5.397904747    8.542891770 XXXX 1      oap1    O  -0.800
O6       9.810565260    2.081512300   10.796952727 XXXX 1      oap1    O  -0.800
O7       5.257228645    5.199457450   10.552501451 XXXX 1      oap1    O  -0.800
O9       8.005967887    2.203146913   12.391556959 XXXX 1      oap1    O  -0.800
O10      5.358185745    2.035409960    5.608087181 XXXX 1      oap1    O  -0.800
O11      5.424486682    7.273232497    6.360119031 XXXX 1      oap1    O  -0.800
O12      2.050977406    5.810211621    4.128415851 XXXX 1      oap1    O  -0.750
Ca1      9.924835471    2.843169202    5.592183268 XXXX 1      ca+h    Ca  1.500
Ca2      3.698085815    5.754352866    5.863132037 XXXX 1      ca+h    Ca  1.500
Ca3      1.739585616    5.556253241    8.560495647 XXXX 1      ca+h    Ca  1.500
Ca4      7.590687563    2.990070446    8.368380659 XXXX 1      ca+h    Ca  1.500
P1       6.244501486    3.160145393    5.187717681 XXXX 1      pap     P   1.000
O13      5.690779695    4.595137765    5.381687703 XXXX 1      oap1    O  -0.800
O14      7.538842787    2.973116230    5.988895403 XXXX 1      oap1    O  -0.800
Ca6      7.632103182    5.935566107    6.251973095 XXXX 1      ca+h    Ca  1.500
P2       5.649485636    7.835866292    4.906371018 XXXX 1      pap     P   1.000
O15      4.542896478    7.175238153    4.123410598 XXXX 1      oap1    O  -0.800
O16      5.598327645    9.372342143    4.864564893 XXXX 1      oap1    O  -0.800
P3       2.334068158    5.724829461    2.621753150 XXXX 1      pap     P   1.000
O17      3.545198090    4.788330021    2.416829224 XXXX 1      oap1    O  -0.750
O18      1.045433795    5.079149467    1.981921601 XXXX 1      oap1    O  -0.750
Ca8      7.605924113    6.175968307   10.617457697 XXXX 1      ca+h    Ca  1.500
P4       5.362851903    4.945742767    9.020023172 XXXX 1      pap     P   1.000
O19      5.266684456    3.413008800    8.829632017 XXXX 1      oap1    O  -0.800
O20      4.269316111    5.660399602    8.255813054 XXXX 1      oap1    O  -0.800
Ca9      3.704584568    2.198704008    7.652608982 XXXX 1      ca+h    Ca  1.500
P6       8.882623872    3.045837618   11.468289286 XXXX 1      pap     P   1.000
O23      7.883559101    3.770220676   10.532898032 XXXX 1      oap1    O  -0.800
O24      9.816656012    3.946571493   12.349081620 XXXX 1      oap1    O  -0.800
H        2.886025399    7.623102239    2.875729864 XXXX 1      hop     H   0.400
end
O1       2.309187129    3.069244894    9.314276800 XXXX 1      oap1    O  -0.800
O2       3.024681321    7.683349376   10.222384088 XXXX 1      oap1    O  -0.800
O4       2.533087800    5.448470925   14.012346543 XXXX 1      oap1    O  -0.800
O6       5.455354208    2.052318925   16.283571726 XXXX 1      oap1    O  -0.800
O7       1.084822026    5.216751077   16.165385904 XXXX 1      oap1    O  -0.800
O9       3.729328242    2.253851859   18.038858767 XXXX 1      oap1    O  -0.800
O10      0.748848506    2.715549467   11.257433620 XXXX 1      oap1    O  -0.800
O11      1.451793560    7.590067843   12.081787313 XXXX 1      oap1    O  -0.800
Ca1      5.750523672    2.872177679   11.357759509 XXXX 1      ca+h    Ca  1.500
Ca4      3.473971759    2.899900405   14.037002988 XXXX 1      ca+h    Ca  1.500
P1       2.035509902    3.405051794   10.767385260 XXXX 1      pap     P   1.000
O13      1.826767695    4.916333088   10.818901131 XXXX 1      oap1    O  -0.800
O14      3.259989367    3.018086355   11.657997102 XXXX 1      oap1    O  -0.800
Ca6      3.474632452    6.072060157   12.036664196 XXXX 1      ca+h    Ca  1.500
P2       1.623787049    8.108716482   10.672556657 XXXX 1      pap     P   1.000
O15      0.567967294    7.386798582    9.798788264 XXXX 1      oap1    O  -0.800
O16      1.516475387    9.630966402   10.571588491 XXXX 1      oap1    O  -0.800
Ca8      3.603303025    6.375333252   16.242546878 XXXX 1      ca+h    Ca  1.500
P4       1.179604726    4.985342615   14.618517323 XXXX 1      pap     P   1.000
O19      1.196646523    3.477124568   14.339910188 XXXX 1      oap1    O  -0.800
O20      0.021621451    5.731807141   13.855200345 XXXX 1      oap1    O  -0.800
P6       4.671931565    3.115722737   17.088572598 XXXX 1      pap     P   1.000
O23      3.780763457    3.998286376   16.182697285 XXXX 1      oap1    O  -0.800
O24      5.628077860    4.001718945   17.980684734 XXXX 1      oap1    O  -0.800
end
O1       2.107878080   10.909866740    1.032643142 XXXX 1      oap1    O  -0.650
O2       4.073959419   16.313139603    2.371987173 XXXX 1      oap1    O  -0.750
O3       2.577211895   14.244459358    5.797062864 XXXX 1      oap1    O  -0.800
O4       1.808451822    9.074593821    5.018677636 XXXX 1      oap1    O  -0.800
O5       5.919261320   10.203272562    8.120661587 XXXX 1      oap1    O  -0.800
O6       1.430534855   13.340232181    7.722951820 XXXX 1      oap1    O  -0.800
O7       0.700116941    9.331790769    7.183946880 XXXX 1      oap1    O  -0.800
O8       4.137091922   10.538243482    9.826127308 XXXX 1      oap1    O  -0.800
O9       0.913038051   11.809029369    3.081074795 XXXX 1      oap1    O  -0.750
O10      1.981194712   15.519243691    3.474403002 XXXX 1      oap1    O  -0.750
Ca1      3.710492331   10.820322900    4.998475161 XXXX 1      ca+h    Ca  1.500
P1       2.072032535   12.054496992    2.081124419 XXXX 1      pap     P   1.000
O11      1.661762147   13.339498589    1.396145145 XXXX 1      oap1    O  -0.750
O12      3.352745410   12.372627516    3.016235117 XXXX 1      oap1    O  -0.750
Ca2      4.169370578   14.418483413    3.809857156 XXXX 1      ca+h    Ca  1.500
P2       2.544596569   16.313500492    2.284263053 XXXX 1      pap     P   1.000
O13      2.111529841   15.600575962    1.035905052 XXXX 1      oap1    O  -0.650
O14      2.169651105   17.757283525    2.313379040 XXXX 1      oap1    O  -0.750
Ca3      3.825091225   14.362645306    7.833265902 XXXX 1      ca+h    Ca  1.500
P3       1.528155476   13.236590513    6.203762276 XXXX 1      pap     P   1.000
O15      1.865348872   11.832707535    5.863562849 XXXX 1      oap1    O  -0.800
O16      0.168209455   13.694142052    5.678279802 XXXX 1      oap1    O  -0.800
P4       1.919330506    8.693253568    6.515316385 XXXX 1      pap     P   1.000
O17      3.159290336    9.361130828    7.159099840 XXXX 1      oap1    O  -0.800
O18      1.877445435    7.170409992    6.780665908 XXXX 1      oap1    O  -0.800
Ca4      4.753932088    8.183790901    8.539816251 XXXX 1      ca+h    Ca  1.500
P5       5.100749231   11.273591928    8.854186608 XXXX 1      pap     P   1.000
O19      4.196883144   12.062591146    7.952968551 XXXX 1      oap1    O  -0.800
O20      6.113944080   12.122227415    9.664363649 XXXX 1      oap1    O  -0.800
H1       1.942578221   11.366887234    0.187230440 XXXX 1      hop     H   0.400
H2       1.984261050   14.638066663    1.130232095 XXXX 1      hop     H   0.400
end
O1      18.114265040    2.823669732    3.878330696 XXXX 1      oap1    O  -0.800
O2      18.981002229    7.551460331    4.603592159 XXXX 1      oap1    O  -0.800
O3      16.312496210    6.024073735    1.886681151 XXXX 1      oap1    O  -0.750
O4      18.312848563    5.234815767    8.384233009 XXXX 1      oap1    O  -0.800
O6      21.181497912    2.256095657   10.684995101 XXXX 1      oap1    O  -0.800
O7      16.945802680    5.457469865   10.441000970 XXXX 1      oap1    O  -0.800
O9      19.473963993    2.507597407   12.546495127 XXXX 1      oap1    O  -0.800
O10     16.687145418    2.871667881    5.796072692 XXXX 1      oap1    O  -0.800
O11     17.330630583    7.242610204    6.537200579 XXXX 1      oap1    O  -0.800
O12     14.190840955    4.755800097    1.324712305 XXXX 1      oap1    O  -0.750
Ca1     21.561617453    2.809014225    5.835401230 XXXX 1      ca+h    Ca  1.500
Ca2     15.806077445    5.415196909    5.729925858 XXXX 1      ca+h    Ca  1.500
Ca3     13.476008389    5.746110255    8.391010192 XXXX 1      ca+h    Ca  1.500
Ca4     19.276267938    2.796223241    8.514990768 XXXX 1      ca+h    Ca  1.500
Ca5     15.859697241    1.976751692    3.716657373 XXXX 1      ca+h    Ca  1.500
P1      18.044921630    3.297927929    5.308073616 XXXX 1      pap     P   1.000
O13     18.173660791    4.820747586    5.326287217 XXXX 1      oap1    O  -0.800
O14     19.199747126    2.612341113    6.069078996 XXXX 1      oap1    O  -0.800
Ca6     19.613618307    6.218719809    6.643331399 XXXX 1      ca+h    Ca  1.500
P2      17.576983594    7.872897935    5.150759650 XXXX 1      pap     P   1.000
O15     16.494843143    7.231101659    4.282649093 XXXX 1      oap1    O  -0.800
O16     17.407118352    9.380313146    5.205712911 XXXX 1      oap1    O  -0.800
P3      15.592583098    4.711326000    1.991767593 XXXX 1      pap     P   1.000
O17     15.365024867    4.498484712    3.493599894 XXXX 1      oap1    O  -0.750
O18     16.323124979    3.525871027    1.455377025 XXXX 1      oap1    O  -0.650
Ca8     19.181912791    6.397848962   10.640324749 XXXX 1      ca+h    Ca  1.500
P4      16.974154140    4.931570510    9.003378263 XXXX 1      pap     P   1.000
O19     16.969267288    3.431560614    9.069379274 XXXX 1      oap1    O  -0.800
O20     15.803283110    5.505534509    8.203844469 XXXX 1      oap1    O  -0.800
Ca9     15.345025582    2.267770755    7.799761819 XXXX 1      ca+h    Ca  1.500
P6      20.378047766    3.249034468   11.532131356 XXXX 1      pap     P   1.000
O23     19.382333905    3.969239949   10.643514233 XXXX 1      oap1    O  -0.800
O24     21.361577916    4.122788652   12.398608024 XXXX 1      oap1    O  -0.800
H       15.638647232    3.058217161    1.040059488 XXXX 1      hop     H   0.400
end
O1      13.782095642    2.627823330    9.466643823 XXXX 1      oap1    O  -0.800
O2      14.645165156    7.487677247    9.903602125 XXXX 1      oap1    O  -0.800
O3      11.088870617    6.192368246    7.113070677 XXXX 1      oap1    O  -0.800
O4      14.353874530    5.219378164   13.932333381 XXXX 1      oap1    O  -0.800
O6      16.925528759    2.129338696   16.349116099 XXXX 1      oap1    O  -0.800
O7      12.816185405    5.508689163   15.925332714 XXXX 1      oap1    O  -0.800
O9      15.292008541    2.322691741   18.154826884 XXXX 1      oap1    O  -0.800
O10     12.298032134    3.231139436   11.516771336 XXXX 1      oap1    O  -0.800
O11     13.473822852    7.692432579   11.968774399 XXXX 1      oap1    O  -0.800
O12      9.444449303    6.405144200    9.153635509 XXXX 1      oap1    O  -0.800
Ca1     17.217175850    2.924730982   11.342952336 XXXX 1      ca+h    Ca  1.500
Ca2     11.521372316    5.548980242   11.254795786 XXXX 1      ca+h    Ca  1.500
Ca3      9.301762576    5.517340163   14.099225016 XXXX 1      ca+h    Ca  1.500
Ca4     15.110797700    2.956824007   14.072693161 XXXX 1      ca+h    Ca  1.500
Ca5     11.411386361    2.224560015    9.100795720 XXXX 1      ca+h    Ca  1.500
P1      13.681033420    3.340887095   10.801868332 XXXX 1      pap     P   1.000
O13     13.847309303    4.859928749   10.541872341 XXXX 1      oap1    O  -0.800
O14     14.795427437    2.814463309   11.770140441 XXXX 1      oap1    O  -0.800
Ca6     15.344194329    6.230871380   12.014115971 XXXX 1      ca+h    Ca  1.500
P2      13.393124103    8.039812774   10.496803830 XXXX 1      pap     P   1.000
O15     12.255923676    7.319205415    9.770092205 XXXX 1      oap1    O  -0.800
O16     13.339554749    9.564962116   10.329012795 XXXX 1      oap1    O  -0.800
Ca7     10.424854725    8.385656281    8.323381817 XXXX 1      ca+h    Ca  1.500
P3      10.200873468    5.432483693    8.174555092 XXXX 1      pap     P   1.000
O17     11.255450831    4.642661905    9.057190155 XXXX 1      oap1    O  -0.800
O18      9.245573887    4.462508992    7.475524708 XXXX 1      oap1    O  -0.800
Ca8     15.127323203    6.270183669   16.264009817 XXXX 1      ca+h    Ca  1.500
P4      12.893852390    5.055647095   14.460190860 XXXX 1      pap     P   1.000
O19     12.738873569    3.554516436   14.536082271 XXXX 1      oap1    O  -0.800
O20     11.795967620    5.788560983   13.558760548 XXXX 1      oap1    O  -0.800
Ca9     11.176125314    2.166423191   13.411926675 XXXX 1      ca+h    Ca  1.500
P6      16.216129649    3.155091290   17.236233249 XXXX 1      pap     P   1.000
O23     15.151674990    3.917480532   16.401817442 XXXX 1      oap1    O  -0.800
O24     17.093039827    4.171606905   18.079396575 XXXX 1      oap1    O  -0.800
end
O1       9.590994282    2.819331162   15.091774021 XXXX 1      oap1    O  -0.800
O2      10.545247351    7.489025379   15.464184698 XXXX 1      oap1    O  -0.800
O3       6.945889255    5.985676881   12.957974402 XXXX 1      oap1    O  -0.800
O4      10.151631975    5.233814143   19.475746647 XXXX 1      oap1    O  -0.800
O6      13.028854400    2.091221942   22.131010433 XXXX 1      oap1    O  -0.800
O7       8.845121398    5.534991608   21.622843771 XXXX 1      oap1    O  -0.800
O9      11.329441550    2.433369384   23.857636023 XXXX 1      oap1    O  -0.800
O10      8.234372426    2.965141652   17.150927492 XXXX 1      oap1    O  -0.800
O11      9.126074509    7.601522848   17.511378702 XXXX 1      oap1    O  -0.800
O12      5.550479511    5.993699497   15.027170298 XXXX 1      oap1    O  -0.800
Ca1     13.130444199    2.886478305   16.820358988 XXXX 1      ca+h    Ca  1.500
Ca2      7.242095850    5.428047769   16.854492830 XXXX 1      ca+h    Ca  1.500
Ca3      5.317659250    5.394162127   19.763511359 XXXX 1      ca+h    Ca  1.500
Ca4     11.089113642    3.047093536   19.692304572 XXXX 1      ca+h    Ca  1.500
Ca5      7.411564975    1.758932689   14.752624400 XXXX 1      ca+h    Ca  1.500
P1       9.595824788    3.322302043   16.526919055 XXXX 1      pap     P   1.000
O13      9.646108982    4.833679018   16.505646813 XXXX 1      oap1    O  -0.800
O14     10.743198201    2.720600229   17.360293356 XXXX 1      oap1    O  -0.800
Ca6     11.251808740    6.283920267   17.663289148 XXXX 1      ca+h    Ca  1.500
P2       9.182356115    8.018956035   16.058350161 XXXX 1      pap     P   1.000
O15      8.072997957    7.260495994   15.290649476 XXXX 1      oap1    O  -0.800
O16      8.941986525    9.550500486   16.031858668 XXXX 1      oap1    O  -0.800
Ca7      6.431264339    8.339325584   14.156642067 XXXX 1      ca+h    Ca  1.500
P3       6.167116784    5.111319323   13.904881133 XXXX 1      pap     P   1.000
O17      7.184204208    4.171151681   14.590091910 XXXX 1      oap1    O  -0.800
O18      5.161736427    4.260532189   13.146197764 XXXX 1      oap1    O  -0.800
Ca8     11.087108203    6.420620555   21.960859654 XXXX 1      ca+h    Ca  1.500
P4       8.784472727    4.911853473   20.191393110 XXXX 1      pap     P   1.000
O19      8.668037656    3.331785395   20.293863266 XXXX 1      oap1    O  -0.800
O20      7.638403988    5.554060231   19.340656163 XXXX 1      oap1    O  -0.800
Ca9      7.074820377    2.109014471   18.968437604 XXXX 1      ca+h    Ca  1.500
P6      12.247857743    3.186109752   22.886089293 XXXX 1      pap     P   1.000
O23     11.355772660    3.960617365   21.924651776 XXXX 1      oap1    O  -0.800
O24     13.230697066    4.091570860   23.678116148 XXXX 1      oap1    O  -0.800
end
O1       5.579155397    2.897960884   20.483040704 XXXX 1      oap1    O  -0.800
O2       6.480937946    7.504387062   21.261883233 XXXX 1      oap1    O  -0.800
O3       2.941783729    6.127232114   18.579923374 XXXX 1      oap1    O  -0.800
O4       6.027743159    5.319535861   25.076002395 XXXX 1      oap1    O  -0.800
O6       9.029275182    2.088212998   27.878502866 XXXX 1      oap1    O  -0.800
O7       4.686310789    5.518531569   27.141814700 XXXX 1      oap1    O  -0.800
O9       8.938545788    3.866024670   29.401048729 XXXX 1      oap1    O  -0.800
O10      4.047005363    2.935306708   22.519044484 XXXX 1      oap1    O  -0.800
O11      5.040455199    7.580292906   23.266391813 XXXX 1      oap1    O  -0.800
O12      1.469346417    6.146279700   20.670874624 XXXX 1      oap1    O  -0.800
Ca1      9.046870673    2.751180331   22.594458897 XXXX 1      ca+h    Ca  1.500
Ca2      3.158213952    5.542883769   22.536969967 XXXX 1      ca+h    Ca  1.500
Ca3      1.141540878    5.734302932   25.278709738 XXXX 1      ca+h    Ca  1.500
Ca4      6.866412305    2.861707902   25.220988181 XXXX 1      ca+h    Ca  1.500
Ca5      3.170024189    2.032705959   20.341587942 XXXX 1      ca+h    Ca  1.500
P1       5.406898903    3.298583020   21.984760680 XXXX 1      pap     P   1.000
O13      5.490564572    4.855162349   22.027253748 XXXX 1      oap1    O  -0.800
O14      6.489944048    2.583333845   22.867944590 XXXX 1      oap1    O  -0.800
Ca6      7.195307269    6.256975836   23.238563156 XXXX 1      ca+h    Ca  1.500
P2       5.132749577    7.987418221   21.800858995 XXXX 1      pap     P   1.000
O15      4.006579073    7.317280511   20.962305388 XXXX 1      oap1    O  -0.800
O16      4.979828147    9.509254211   21.631466935 XXXX 1      oap1    O  -0.800
Ca7      2.328070417    8.280550105   19.769143738 XXXX 1      ca+h    Ca  1.500
P3       2.111136839    5.255550418   19.537402743 XXXX 1      pap     P   1.000
O17      3.075340860    4.423444527   20.300043498 XXXX 1      oap1    O  -0.800
O18      1.040394495    4.420850091   18.821858911 XXXX 1      oap1    O  -0.800
Ca8      6.911582789    6.293462278   27.313535319 XXXX 1      ca+h    Ca  1.500
P4       4.628984634    5.018568761   25.643600290 XXXX 1      pap     P   1.000
O19      4.414992646    3.452460788   25.651733501 XXXX 1      oap1    O  -0.800
O20      3.556774316    5.736592250   24.869548773 XXXX 1      oap1    O  -0.800
Ca9      2.862529846    2.151259594   24.455987117 XXXX 1      ca+h    Ca  1.500
P6       8.019761985    3.059237297   28.403145504 XXXX 1      pap     P   1.000
O23      6.848292413    2.239790257   29.042626179 XXXX 1      oap1    O  -0.800
O24      7.481100866    3.920130357   27.230520964 XXXX 1      oap1    O  -0.800
end
O1       1.465726973    2.742995212   26.232293911 XXXX 1      oap1    O  -0.800
O2       2.392710061    7.716409492   26.885232313 XXXX 1      oap1    O  -0.800
O4       1.889656425    5.391654691   30.597744519 XXXX 1      oap1    O  -0.800
O6       5.224354840    1.642520290   33.350369330 XXXX 1      oap1    O  -0.750
O7       0.639547341    5.118308295   32.736043419 XXXX 1      oap1    O  -0.800
O9       3.795759817    2.319805521   35.280782558 XXXX 1      oap1    O  -0.650
O10     -0.031014189    3.284604876   27.986450866 XXXX 1      oap1    O  -0.800
O11      0.928612583    7.580880860   28.812389363 XXXX 1      oap1    O  -0.800
Ca1      4.567875298    2.596016119   28.087695655 XXXX 1      ca+h    Ca  1.500
Ca4      2.791424622    3.197374898   30.966481948 XXXX 1      ca+h    Ca  1.500
P1       1.427372741    3.245469219   27.635580649 XXXX 1      pap     P   1.000
O13      1.829486055    4.722893226   27.643703525 XXXX 1      oap1    O  -0.800
O14      2.204885096    2.434737492   28.627912147 XXXX 1      oap1    O  -0.800
Ca6      3.112449254    6.290479133   28.747960365 XXXX 1      ca+h    Ca  1.500
P2       1.019539870    8.124342521   27.361234315 XXXX 1      pap     P   1.000
O15      0.027045875    7.387342999   26.480264144 XXXX 1      oap1    O  -0.800
O16      0.819381689    9.633566558   27.293324292 XXXX 1      oap1    O  -0.800
P4       0.527795122    4.989942756   31.209336918 XXXX 1      pap     P   1.000
O19      0.352094317    3.454844013   31.046831521 XXXX 1      oap1    O  -0.800
O20     -0.639946130    5.765279518   30.546349601 XXXX 1      oap1    O  -0.800
P6       4.678170414    2.849553288   34.117616230 XXXX 1      pap     P   1.000
O23      3.867110812    3.722777112   33.108457850 XXXX 1      oap1    O  -0.750
O24      5.870524680    3.751425328   34.572934709 XXXX 1      oap1    O  -0.750
H        4.353611477    2.338650854   36.011909233 XXXX 1      hop     H   0.400
end
O1      15.525652754   12.057080406    3.187033629 XXXX 1      oap1    O  -0.750
O2      14.079307937   17.382684184    2.131530928 XXXX 1      oap1    O  -0.650
O3      14.144630492   14.415887711    5.928427343 XXXX 1      oap1    O  -0.800
O4      13.947079655    9.067682782    4.724673063 XXXX 1      oap1    O  -0.800
O5      17.325001295   10.703581839    7.400545088 XXXX 1      oap1    O  -0.800
O6      12.781162839   13.278862570    7.699644910 XXXX 1      oap1    O  -0.800
O7      12.225955649    8.680129287    6.442819426 XXXX 1      oap1    O  -0.800
O8      16.262606690   10.327477783    9.614967207 XXXX 1      oap1    O  -0.800
O9      14.339530586   12.421781081    1.005764255 XXXX 1      oap1    O  -0.650
O10     14.645224864   14.889789102    1.756809460 XXXX 1      oap1    O  -0.750
Ca1     11.660110269   13.590001511    2.709959843 XXXX 1      ca+h    Ca  1.500
Ca2      9.362650958   13.335554846    5.359898434 XXXX 1      ca+h    Ca  1.500
Ca3     15.699645871   10.885406362    5.469217221 XXXX 1      ca+h    Ca  1.500
P1      14.397154704   11.544429845    2.250789330 XXXX 1      pap     P   1.000
O11     13.049313292   11.682664855    3.068665399 XXXX 1      oap1    O  -0.750
O12     14.641570982   10.067558846    1.934290041 XXXX 1      oap1    O  -0.750
Ca4     15.635350573   14.270155561    3.850755122 XXXX 1      ca+h    Ca  1.500
P2      13.565244361   15.953429457    2.173172302 XXXX 1      pap     P   1.000
O13     12.183755752   15.828230246    1.389489373 XXXX 1      oap1    O  -0.750
O14     13.235900484   15.536558236    3.602079822 XXXX 1      oap1    O  -0.750
Ca5     15.582660219   14.552059176    7.818899209 XXXX 1      ca+h    Ca  1.500
P3      13.096661741   13.335801628    6.245602363 XXXX 1      pap     P   1.000
O15     13.679369483   11.938047998    5.969396354 XXXX 1      oap1    O  -0.800
O16     11.867370859   13.535572677    5.284884241 XXXX 1      oap1    O  -0.800
Ca6     11.980716737   10.677341430    4.922069924 XXXX 1      ca+h    Ca  1.500
P4      13.704659937    8.542869705    6.153701307 XXXX 1      pap     P   1.000
O17     14.546963749    9.392233909    7.156014281 XXXX 1      oap1    O  -0.800
O18     14.137976835    7.092130944    6.395207449 XXXX 1      oap1    O  -0.800
Ca7     16.205411489    8.262361536    8.399406177 XXXX 1      ca+h    Ca  1.500
P5      16.809956572   11.462416548    8.683742514 XXXX 1      pap     P   1.000
O19     15.608638568   12.322558892    8.260904617 XXXX 1      oap1    O  -0.800
O20     17.884517648   12.290331529    9.435120405 XXXX 1      oap1    O  -0.800
O21     12.923761961    6.599891076    3.344721717 XXXX 1      oap2    O  -1.100
H1      13.418325087    6.581631753    4.140023668 XXXX 1      hop     H   0.200
H2      13.570995264   17.863320369    1.491351186 XXXX 1      hop     H   0.400
H3      14.453597685   13.325568615    1.232972477 XXXX 1      hop     H   0.400
end
O1      10.173610521   11.336522637    6.659822031 XXXX 1      oap1    O  -0.800
O2      11.188472288   16.018711480    7.543543397 XXXX 1      oap1    O  -0.800
O3       7.208601561   14.173833372    4.636835805 XXXX 1      oap1    O  -0.800
O4      10.373618088   13.733736729   11.354363130 XXXX 1      oap1    O  -0.800
O5       9.732651069    9.066845237   10.601579123 XXXX 1      oap1    O  -0.800
O6      13.220405357   10.549578432   13.246381120 XXXX 1      oap1    O  -0.800
O7       8.927017515   13.278428570   13.336033321 XXXX 1      oap1    O  -0.800
O8       8.083982342    8.920026480   12.513462563 XXXX 1      oap1    O  -0.800
O9      12.038942663   10.262010300   15.412707201 XXXX 1      oap1    O  -0.800
O10      8.789042751   10.368454530    8.552357285 XXXX 1      oap1    O  -0.800
O11      9.444913902   15.759761674    9.210466875 XXXX 1      oap1    O  -0.800
O12      5.988858775   14.474091539    6.872607197 XXXX 1      oap1    O  -0.800
Ca1     13.542853587   11.222819608    8.617739228 XXXX 1      ca+h    Ca  1.500
Ca2      7.645398314   13.968484440    8.577941673 XXXX 1      ca+h    Ca  1.500
Ca3      5.524125331   13.747940163   11.366689187 XXXX 1      ca+h    Ca  1.500
Ca4     11.325555165   10.752249374   11.332266175 XXXX 1      ca+h    Ca  1.500
Ca5      7.429190168   10.135383688    6.410557149 XXXX 1      ca+h    Ca  1.500
P1       9.990335268   11.341533629    8.205700086 XXXX 1      pap     P   1.000
O13      9.680056068   12.790947340    8.645776183 XXXX 1      oap1    O  -0.800
O14     11.233559771   10.724531503    8.866168532 XXXX 1      oap1    O  -0.800
Ca6     11.517630069   14.431664815    9.306104869 XXXX 1      ca+h    Ca  1.500
P2       9.690059224   16.246189120    7.735198167 XXXX 1      pap     P   1.000
O15      8.860522722   15.303903036    6.872434337 XXXX 1      oap1    O  -0.800
O16      9.381800334   17.712167782    7.530518037 XXXX 1      oap1    O  -0.800
Ca7      6.964893243   16.506884686    5.818978947 XXXX 1      ca+h    Ca  1.500
P3       6.426834269   13.458635557    5.776602167 XXXX 1      pap     P   1.000
O17      7.482548074   12.516662402    6.495185750 XXXX 1      oap1    O  -0.800
O18      5.145583479   12.784277800    5.242502167 XXXX 1      oap1    O  -0.800
Ca8     11.262643651   14.311994371   13.504432205 XXXX 1      ca+h    Ca  1.500
P4       9.038282198   13.091199699   11.765621586 XXXX 1      pap     P   1.000
O19      9.110560264   11.560398981   11.602943060 XXXX 1      oap1    O  -0.800
O20      7.911115658   13.803336128   11.039317709 XXXX 1      oap1    O  -0.800
Ca9      7.360796639   10.223149319   10.532298422 XXXX 1      ca+h    Ca  1.500
P5       9.481291373    8.486606771   12.000953232 XXXX 1      pap     P   1.000
O21     10.478609064    9.103587699   12.903344694 XXXX 1      oap1    O  -0.800
O22      9.542086939    6.942097076   12.039208815 XXXX 1      oap1    O  -0.800
Ca10    12.390891997    8.127066409   14.031464656 XXXX 1      ca+h    Ca  1.500
P6      12.537114373   11.295200353   14.378969971 XXXX 1      pap     P   1.000
O23     11.332144804   11.990676293   13.783352847 XXXX 1      oap1    O  -0.800
O24     13.518226916   12.264964334   15.074478321 XXXX 1      oap1    O  -0.800
O25      6.182760125    8.066283127   10.428967683 XXXX 1      oap2    O  -1.100
O26      9.018455768    8.020102990    6.377042338 XXXX 1      oap2    O  -1.100
H1       5.365071285    7.832523412   10.836837340 XXXX 1      hop     H   0.200
H2       8.972415771    8.616720410    5.579116235 XXXX 1      hop     H   0.200
end
O1       5.737976212   10.620003152   12.442992290 XXXX 1      oap1    O  -0.800
O2       6.868927414   15.787707827   13.127566386 XXXX 1      oap1    O  -0.800
O3       3.009676638   14.385108711   10.150547514 XXXX 1      oap1    O  -0.800
O4       6.286082964   13.638370281   16.879630075 XXXX 1      oap1    O  -0.800
O5       5.365212931    8.854912133   16.336161381 XXXX 1      oap1    O  -0.800
O6       9.155264302   10.472174741   18.854413707 XXXX 1      oap1    O  -0.800
O7       4.714134657   13.593297390   18.931807038 XXXX 1      oap1    O  -0.800
O8       4.100171151    8.954665398   18.421877001 XXXX 1      oap1    O  -0.800
O9       7.924437141   10.211113049   21.055574258 XXXX 1      oap1    O  -0.800
O10      4.257333787   11.159089552   14.204207071 XXXX 1      oap1    O  -0.800
O11      5.146729896   15.427782011   14.820146026 XXXX 1      oap1    O  -0.800
O12      1.788459700   14.243350282   12.217904008 XXXX 1      oap1    O  -0.800
Ca1      9.104736226   10.975204081   14.084601355 XXXX 1      ca+h    Ca  1.500
Ca2      3.524346011   13.766617904   14.030561919 XXXX 1      ca+h    Ca  1.500
Ca3      1.556813516   13.637251652   16.929881096 XXXX 1      ca+h    Ca  1.500
Ca4      7.264624265   11.031112223   17.077032548 XXXX 1      ca+h    Ca  1.500
Ca5      3.407576153    9.952810984   12.137743446 XXXX 1      ca+h    Ca  1.500
P1       5.669830666   11.382542624   13.785194406 XXXX 1      pap     P   1.000
O13      5.918974441   12.807150093   13.589516240 XXXX 1      oap1    O  -0.800
O14      6.780157822   10.803934682   14.666231336 XXXX 1      oap1    O  -0.800
Ca6      7.398462860   14.201531594   14.842642054 XXXX 1      ca+h    Ca  1.500
P2       5.399922943   16.171430226   13.469325841 XXXX 1      pap     P   1.000
O15      4.456718234   15.512165660   12.452812135 XXXX 1      oap1    O  -0.800
O16      5.256274278   17.680566369   13.489523213 XXXX 1      oap1    O  -0.800
Ca7      2.506997799   16.654153838   11.237142735 XXXX 1      ca+h    Ca  1.500
P3       2.408490723   13.364409672   11.156184594 XXXX 1      pap     P   1.000
O17      3.477514713   12.487444241   11.796028247 XXXX 1      oap1    O  -0.800
O18      1.325847250   12.439325089   10.480263848 XXXX 1      oap1    O  -0.800
Ca8      7.375394477   14.463344382   19.078117287 XXXX 1      ca+h    Ca  1.500
P4       4.927155500   13.185912383   17.472432663 XXXX 1      pap     P   1.000
O19      4.838475046   11.684990376   17.402971877 XXXX 1      oap1    O  -0.800
O20      3.815870415   13.867134250   16.646392414 XXXX 1      oap1    O  -0.800
Ca9      3.247076115   10.310050798   16.149587253 XXXX 1      ca+h    Ca  1.500
P5       5.369209708    8.468838254   17.786412780 XXXX 1      pap     P   1.000
O21      6.520368795    9.229160355   18.388788770 XXXX 1      oap1    O  -0.800
O22      5.565054614    6.930080882   17.919456179 XXXX 1      oap1    O  -0.800
Ca10     8.175023514    8.081592520   19.660421209 XXXX 1      ca+h    Ca  1.500
P6       8.430955799   11.260085137   19.979301160 XXXX 1      pap     P   1.000
O23      7.227102820   11.995141062   19.290734436 XXXX 1      oap1    O  -0.800
O24      9.467607112   12.210390556   20.616744629 XXXX 1      oap1    O  -0.800
O25      2.003224591    8.116919088   16.253838726 XXXX 1      oap2    O  -1.100
O26      3.948594632    8.186384737   13.588936786 XXXX 1      oap2    O  -1.100
H1       1.377488543    8.148260289   16.978818368 XXXX 1      hop     H   0.200
H2       3.298120616    8.225707025   14.242434325 XXXX 1      hop     H   0.200
end
O1       1.766580342   11.082837111   17.793743830 XXXX 1      oap1    O  -0.800
O2       2.679120594   15.747100974   18.463742810 XXXX 1      oap1    O  -0.800
O4       2.202132477   13.694753950   22.553728044 XXXX 1      oap1    O  -0.800
O5       1.495473195    9.061522321   21.818002677 XXXX 1      oap1    O  -0.800
O6       4.799695629   10.505977599   24.369818416 XXXX 1      oap1    O  -0.800
O7       0.634353097   13.590109054   24.512555996 XXXX 1      oap1    O  -0.800
O8      -0.073527537    9.075275052   23.737151739 XXXX 1      oap1    O  -0.800
O9       3.595681676   10.365509373   26.473674650 XXXX 1      oap1    O  -0.800
O10      0.222635807   11.305047595   19.787092744 XXXX 1      oap1    O  -0.800
O11      1.094845656   15.753613262   20.458446390 XXXX 1      oap1    O  -0.800
Ca1      5.096665028   10.995693758   19.704161472 XXXX 1      ca+h    Ca  1.500
Ca4      3.125971397   10.913828232   22.537662834 XXXX 1      ca+h    Ca  1.500
P1       1.633879611   11.447683624   19.320632258 XXXX 1      pap     P   1.000
O13      1.829731103   12.994804164   19.363108086 XXXX 1      oap1    O  -0.800
O14      2.701603182   10.812775544   20.166206047 XXXX 1      oap1    O  -0.800
Ca6      3.315173710   14.357644229   20.576251011 XXXX 1      ca+h    Ca  1.500
P2       1.285881900   16.239964613   18.999978405 XXXX 1      pap     P   1.000
O15      0.194828845   15.448722796   18.234394694 XXXX 1      oap1    O  -0.800
O16      1.150928563   17.779302594   18.999314749 XXXX 1      oap1    O  -0.800
Ca8      3.180170090   14.524484747   24.679697055 XXXX 1      ca+h    Ca  1.500
P4       0.834273021   13.226915837   23.086647721 XXXX 1      pap     P   1.000
O19      0.745895444   11.693955010   23.018640380 XXXX 1      oap1    O  -0.800
O20     -0.296273002   13.931268514   22.220993496 XXXX 1      oap1    O  -0.800
P5       1.309099870    8.605220558   23.273689360 XXXX 1      pap     P   1.000
O21      2.260107182    9.400779959   24.137989846 XXXX 1      oap1    O  -0.800
O22      1.445533158    7.065906916   23.397290480 XXXX 1      oap1    O  -0.800
Ca10     4.090675879    8.222625061   25.403779754 XXXX 1      ca+h    Ca  1.500
P6       4.173150234   11.337766665   25.483420049 XXXX 1      pap     P   1.000
O23      3.107514362   12.221869895   24.821995197 XXXX 1      oap1    O  -0.800
O24      5.243354902   12.175734309   26.194404970 XXXX 1      oap1    O  -0.800
O26      0.015060379    8.163811123   18.939291141 XXXX 1      oap2    O  -1.100
H2      -0.473012219    8.205781267   19.751510283 XXXX 1      hop     H   0.200
end
O1       6.289620715   19.181423338    3.625426114 XXXX 1      oap1    O  -0.800
O2       6.504838418   24.675755731    5.754541485 XXXX 1      oap1    O  -0.800
O3       2.486074139   20.968167939    1.191958400 XXXX 1      oap1    O  -0.650
O4       6.735211612   21.809479960    8.280229666 XXXX 1      oap1    O  -0.800
O5       5.910429948   17.352066711    7.994214544 XXXX 1      oap1    O  -0.800
O6       9.480495572   18.433665809   10.747607770 XXXX 1      oap1    O  -0.800
O7       5.263372036   22.069216448   10.365078225 XXXX 1      oap1    O  -0.800
O8       4.442087759   17.175347753   10.019647497 XXXX 1      oap1    O  -0.800
O9       7.944564685   18.708324466   12.635973484 XXXX 1      oap1    O  -0.800
O10      5.071131853   19.502594493    5.655196842 XXXX 1      oap1    O  -0.800
O11      4.582080685   23.441133917    4.604338303 XXXX 1      oap1    O  -0.800
O12      2.117496939   22.577329685    3.146979754 XXXX 1      oap1    O  -0.750
Ca1     10.038535021   19.051489068    5.590861600 XXXX 1      ca+h    Ca  1.500
Ca2      3.539163069   21.570675778    5.686167861 XXXX 1      ca+h    Ca  1.500
Ca3      1.838336631   22.001844157    8.447027219 XXXX 1      ca+h    Ca  1.500
Ca4      7.577015261   19.105852856    8.357127819 XXXX 1      ca+h    Ca  1.500
Ca5      3.962598239   18.501080016    3.758251483 XXXX 1      ca+h    Ca  1.500
P1       6.449386453   19.766837235    5.016952223 XXXX 1      pap     P   1.000
O13      6.665952689   21.330036502    4.968806417 XXXX 1      oap1    O  -0.800
O14      7.523364963   18.917517081    5.728489819 XXXX 1      oap1    O  -0.800
Ca6      8.160845722   22.793775953    6.188783055 XXXX 1      ca+h    Ca  1.500
P2       5.563608818   24.634308947    4.565800714 XXXX 1      pap     P   1.000
O15      6.365480826   24.652074684    3.259633761 XXXX 1      oap1    O  -0.800
O16      4.798983660   25.973106601    4.460861490 XXXX 1      oap1    O  -0.800
Ca7      3.037537951   24.734241473    2.930310410 XXXX 1      ca+h    Ca  1.500
P3       3.107059032   21.801704175    2.273721223 XXXX 1      pap     P   1.000
O17      4.066155082   22.884431869    1.747585945 XXXX 1      oap1    O  -0.750
O18      3.956935546   20.896681639    3.180078821 XXXX 1      oap1    O  -0.750
Ca8      7.639418578   22.514073987   10.691463810 XXXX 1      ca+h    Ca  1.500
P4       5.349196381   21.456749433    8.893862077 XXXX 1      pap     P   1.000
O19      5.293265305   19.932548705    9.013763656 XXXX 1      oap1    O  -0.800
O20      4.254994100   22.015786171    7.939740548 XXXX 1      oap1    O  -0.800
Ca9      3.799857387   18.413986383    7.673676266 XXXX 1      ca+h    Ca  1.500
P5       5.802308554   16.763773197    9.416375899 XXXX 1      pap     P   1.000
O21      6.888110744   17.447235302   10.216497713 XXXX 1      oap1    O  -0.800
O22      5.912120815   15.212501285    9.402661606 XXXX 1      oap1    O  -0.800
Ca10     8.573811638   16.291313439   11.433693524 XXXX 1      ca+h    Ca  1.500
P6       8.705480058   19.470427367   11.550163605 XXXX 1      pap     P   1.000
O23      7.691519383   20.211054714   10.672223076 XXXX 1      oap1    O  -0.800
O24      9.733072424   20.456140261   12.180574129 XXXX 1      oap1    O  -0.800
O25      2.448524480   16.343902621    7.840154905 XXXX 1      oap2    O  -1.100
O26      4.693223804   16.447911815    5.006654178 XXXX 1      oap2    O  -1.100
H1       1.683438582   16.146352134    8.372929105 XXXX 1      hop     H   0.200
H2       3.815806197   16.518214339    5.369517620 XXXX 1      hop     H   0.200
H        2.556964332   20.036343203    1.314600279 XXXX 1      hop     H   0.400
end
O1       2.020093330   19.249276487    9.480523991 XXXX 1      oap1    O  -0.800
O2       2.812582768   23.750742724    9.740667353 XXXX 1      oap1    O  -0.800
O4       2.607197792   21.589590452   13.997121866 XXXX 1      oap1    O  -0.800
O5       1.669479304   17.284530734   13.469627995 XXXX 1      oap1    O  -0.800
O6       5.629533041   18.374696339   16.634589697 XXXX 1      oap1    O  -0.800
O7       1.259164091   21.943844002   16.032683163 XXXX 1      oap1    O  -0.800
O8       0.362093516   17.173324385   15.596727899 XXXX 1      oap1    O  -0.800
O9       3.676522010   18.667570338   18.170212909 XXXX 1      oap1    O  -0.800
O10      0.658262452   19.472230021   11.596987737 XXXX 1      oap1    O  -0.800
O11      1.628460256   23.737767554   12.006285460 XXXX 1      oap1    O  -0.800
Ca1      5.683039614   19.185141110   11.411315458 XXXX 1      ca+h    Ca  1.500
Ca4      3.437896486   19.190072249   14.076368902 XXXX 1      ca+h    Ca  1.500
P1       2.018261466   19.770904442   10.889952136 XXXX 1      pap     P   1.000
O13      2.098982216   21.297081616   10.818742261 XXXX 1      oap1    O  -0.800
O14      3.278580803   19.209022304   11.597966696 XXXX 1      oap1    O  -0.800
Ca6      3.770283122   22.440857383   12.147513857 XXXX 1      ca+h    Ca  1.500
P2       1.615397581   24.348978856   10.563936139 XXXX 1      pap     P   1.000
O15      0.405005227   23.775413853    9.823624894 XXXX 1      oap1    O  -0.800
O16      1.720647239   25.906871350   10.527294335 XXXX 1      oap1    O  -0.800
Ca8      3.452089844   22.615997435   16.266925723 XXXX 1      ca+h    Ca  1.500
P4       1.203685176   21.361204050   14.574479269 XXXX 1      pap     P   1.000
O19      1.072707021   19.844175654   14.624844427 XXXX 1      oap1    O  -0.800
O20      0.124106384   21.982276786   13.649527933 XXXX 1      oap1    O  -0.800
P5       1.690190910   16.736641934   14.918089805 XXXX 1      pap     P   1.000
O21      2.867950345   17.417702792   15.647278874 XXXX 1      oap1    O  -0.800
O22      1.866982799   15.179373616   14.893992826 XXXX 1      oap1    O  -0.800
Ca10     4.575790386   16.240750223   16.980523298 XXXX 1      ca+h    Ca  1.500
P6       4.682311156   19.421733447   17.281259647 XXXX 1      pap     P   1.000
O23      3.906530215   20.200568123   16.169804846 XXXX 1      oap1    O  -0.800
O24      5.597507148   20.369818855   18.102496092 XXXX 1      oap1    O  -0.800
O26      0.341462849   16.531412893   10.171777343 XXXX 1      oap2    O  -1.100
H2      -0.473816740   16.606873586   10.640875852 XXXX 1      hop     H   0.200
end
O1       3.749327960   26.983311982    2.359460361 XXXX 1      oap1    O  -0.750
O2       3.959566354   32.433985628    1.852777928 XXXX 1      oap1    O  -0.650
O3       2.810536243   29.898109052    5.694637840 XXXX 1      oap1    O  -0.800
O4       1.621939897   25.233301753    4.913511908 XXXX 1      oap1    O  -0.800
O5       5.554517485   26.828159735    7.463158961 XXXX 1      oap1    O  -0.800
O6       1.359059498   30.169462418    7.594576536 XXXX 1      oap1    O  -0.800
O7       0.815727698   25.313738899    7.217314396 XXXX 1      oap1    O  -0.800
O8       4.089816047   26.736133973    9.585862606 XXXX 1      oap1    O  -0.800
O9       2.837345289   28.624066997    0.683372766 XXXX 1      oap1    O  -0.650
O10      2.190201712   32.106684306    3.438367057 XXXX 1      oap1    O  -0.750
Ca1      6.145809584   27.023529724    2.735534024 XXXX 1      ca+h    Ca  1.500
Ca2      3.684371545   27.594832030    5.547142511 XXXX 1      ca+h    Ca  1.500
P1       3.533536455   28.448793838    2.007544101 XXXX 1      pap     P   1.000
O11      4.971850338   29.145884772    2.003203648 XXXX 1      oap1    O  -0.750
O12      2.733442025   29.084282804    3.156035709 XXXX 1      oap1    O  -0.750
Ca3      4.091882735   30.769500979    3.936016990 XXXX 1      ca+h    Ca  1.500
P2       2.436756758   32.328722862    1.981276424 XXXX 1      pap     P   1.000
O13      1.898222928   31.098621253    1.250779122 XXXX 1      oap1    O  -0.750
O14      1.753873715   33.651248578    1.581766556 XXXX 1      oap1    O  -0.750
Ca4      3.689284964   30.816870134    7.832068124 XXXX 1      ca+h    Ca  1.500
P3       1.373595873   29.596541110    6.178360052 XXXX 1      pap     P   1.000
O15      1.379913052   28.047923507    6.252989565 XXXX 1      oap1    O  -0.800
O16      0.308143218   30.187892893    5.233414164 XXXX 1      oap1    O  -0.800
P4       1.959469958   24.762661142    6.360593353 XXXX 1      pap     P   1.000
O17      3.137706196   25.567838111    6.992748878 XXXX 1      oap1    O  -0.800
O18      2.071997434   23.224554931    6.472591720 XXXX 1      oap1    O  -0.800
Ca5      4.723675399   24.619937629    8.502425104 XXXX 1      ca+h    Ca  1.500
P5       4.912027827   27.664392479    8.611605237 XXXX 1      pap     P   1.000
O19      3.865111146   28.525895954    7.871858313 XXXX 1      oap1    O  -0.800
O20      6.004881123   28.482278222    9.298189783 XXXX 1      oap1    O  -0.800
H1       2.810116338   29.535714156    0.492052814 XXXX 1      hop     H   0.400
H2       3.953417242   32.808606548    1.029720512 XXXX 1      hop     H   0.400
end
O1      29.468079898    2.972745588    3.918709025 XXXX 1      oap1    O  -0.800
O2      30.651712959    8.143887907    4.976123952 XXXX 1      oap1    O  -0.800
O3      26.413102452    5.856613966    1.543302746 XXXX 1      oap1    O  -0.650
O4      30.042870904    5.402126930    8.682738528 XXXX 1      oap1    O  -0.800
O6      32.921925003    2.221793124   10.460737645 XXXX 1      oap1    O  -0.800
O7      28.358080727    5.261042741   10.571332603 XXXX 1      oap1    O  -0.800
O9      31.672741557    2.065088100   12.576670437 XXXX 1      oap1    O  -0.800
O10     27.988524369    2.990057208    5.843932478 XXXX 1      oap1    O  -0.800
O11     28.683048089    7.480965777    6.220135469 XXXX 1      oap1    O  -0.800
O12     25.518904091    6.081931570    3.878023850 XXXX 1      oap1    O  -0.750
Ca1     32.673720651    3.012643495    5.458422284 XXXX 1      ca+h    Ca  1.500
Ca2     27.153492197    5.702162607    5.698067054 XXXX 1      ca+h    Ca  1.500
Ca3     24.952793529    5.714862646    8.569541773 XXXX 1      ca+h    Ca  1.500
Ca4     30.887372190    2.983512034    8.432162662 XXXX 1      ca+h    Ca  1.500
Ca5     26.988665386    2.078801769    3.622905818 XXXX 1      ca+h    Ca  1.500
P1      29.382976674    3.348905605    5.369947856 XXXX 1      pap     P   1.000
O13     29.529206732    4.836351251    5.421125560 XXXX 1      oap1    O  -0.800
O14     30.464445338    2.638475158    6.133426732 XXXX 1      oap1    O  -0.800
Ca6     30.868646863    6.304884787    6.599127126 XXXX 1      ca+h    Ca  1.500
P2      29.139980623    8.073439437    4.872772474 XXXX 1      pap     P   1.000
O15     28.681303505    7.155975306    3.716495211 XXXX 1      oap1    O  -0.800
O16     28.748747437    9.551620437    4.751406678 XXXX 1      oap1    O  -0.800
P3      26.044462666    5.106725074    2.826565570 XXXX 1      pap     P   1.000
O17     27.287612848    4.460243874    3.483101066 XXXX 1      oap1    O  -0.750
O18     24.967314758    4.094176343    2.559728105 XXXX 1      oap1    O  -0.750
Ca8     30.752379890    6.319203504   10.694589201 XXXX 1      ca+h    Ca  1.500
P4      28.629416737    5.034937339    9.053653805 XXXX 1      pap     P   1.000
O19     28.555613464    3.526348541    8.937044534 XXXX 1      oap1    O  -0.800
O20     27.521057920    5.791767917    8.229576056 XXXX 1      oap1    O  -0.800
Ca9     26.939316431    2.249312069    7.853999589 XXXX 1      ca+h    Ca  1.500
P6      32.183122675    3.089645618   11.468434199 XXXX 1      pap     P   1.000
O23     30.972875486    3.766885378   10.817216406 XXXX 1      oap1    O  -0.800
O24     33.179155821    4.122855325   12.121378496 XXXX 1      oap1    O  -0.800
H       25.681206276    6.397457607    1.330273059 XXXX 1      hop     H   0.400
end
O1      25.478384389    2.634617852    9.666067464 XXXX 1      oap1    O  -0.800
O2      26.204307226    7.595588771   10.087512674 XXXX 1      oap1    O  -0.800
O3      22.579076125    6.146479734    7.298588414 XXXX 1      oap1    O  -0.800
O4      25.822836936    5.543065637   14.089519020 XXXX 1      oap1    O  -0.800
O6      28.635463983    2.253205287   16.053049044 XXXX 1      oap1    O  -0.800
O7      24.425154185    5.520767670   16.130654950 XXXX 1      oap1    O  -0.800
O9      27.564034794    2.043409668   18.187702315 XXXX 1      oap1    O  -0.800
O10     23.893301316    3.196952515   11.617324450 XXXX 1      oap1    O  -0.800
O11     24.824692551    7.557208804   12.172377125 XXXX 1      oap1    O  -0.800
O12     21.214367559    6.091004652    9.289282737 XXXX 1      oap1    O  -0.800
Ca1     28.852699272    2.925989407   11.260742217 XXXX 1      ca+h    Ca  1.500
Ca2     23.022355361    5.546105717   11.355794928 XXXX 1      ca+h    Ca  1.500
Ca3     20.952861904    5.572492296   14.249974218 XXXX 1      ca+h    Ca  1.500
Ca4     26.872484871    2.876416162   14.341230845 XXXX 1      ca+h    Ca  1.500
Ca5     23.112765882    2.097495091    9.235891409 XXXX 1      ca+h    Ca  1.500
P1      25.345107486    3.360011421   11.036069467 XXXX 1      pap     P   1.000
O13     25.550801048    4.873008357   10.731604182 XXXX 1      oap1    O  -0.800
O14     26.465086397    2.820255658   11.986520198 XXXX 1      oap1    O  -0.800
Ca6     26.928190539    6.110253452   12.089611751 XXXX 1      ca+h    Ca  1.500
P2      24.889607449    8.052192335   10.731896868 XXXX 1      pap     P   1.000
O15     23.710490644    7.452400562   10.010439731 XXXX 1      oap1    O  -0.800
O16     24.854400486    9.597742804   10.756063169 XXXX 1      oap1    O  -0.800
Ca7     22.036452181    8.405066328    8.592873511 XXXX 1      ca+h    Ca  1.500
P3      21.977398889    5.190146808    8.368298132 XXXX 1      pap     P   1.000
O17     23.102722863    4.491511599    9.159437594 XXXX 1      oap1    O  -0.800
O18     21.093503231    4.089124932    7.752316687 XXXX 1      oap1    O  -0.800
Ca8     26.782205854    6.451424680   16.246178939 XXXX 1      ca+h    Ca  1.500
P4      24.535799555    5.037955013   14.674216621 XXXX 1      pap     P   1.000
O19     24.516312711    3.496543189   14.713260022 XXXX 1      oap1    O  -0.800
O20     23.310708307    5.601071488   14.025203110 XXXX 1      oap1    O  -0.800
Ca9     23.000971019    2.201321278   13.470953802 XXXX 1      ca+h    Ca  1.500
P6      28.073313336    3.057785968   17.188672490 XXXX 1      pap     P   1.000
O23     26.829856891    3.887896914   16.700868813 XXXX 1      oap1    O  -0.800
O24     29.133315532    3.963191901   17.850491453 XXXX 1      oap1    O  -0.800
end
O1      21.247875524    2.906890611   15.244758331 XXXX 1      oap1    O  -0.800
O2      22.115234530    7.538309318   15.731049418 XXXX 1      oap1    O  -0.800
O3      18.682200019    6.107743707   12.962264879 XXXX 1      oap1    O  -0.800
O4      21.722290623    5.237068763   19.688487718 XXXX 1      oap1    O  -0.800
O6      24.422904688    2.445566975   21.570870807 XXXX 1      oap1    O  -0.800
O7      20.275149921    5.307326247   21.780671277 XXXX 1      oap1    O  -0.800
O9      23.251595303    2.212084897   23.756808449 XXXX 1      oap1    O  -0.800
O10     19.724129897    3.144419211   17.157861710 XXXX 1      oap1    O  -0.800
O11     20.541476143    7.504137135   17.753847205 XXXX 1      oap1    O  -0.800
O12     16.935407589    6.244596320   14.732647625 XXXX 1      oap1    O  -0.800
Ca1     24.710155329    2.747454712   16.888167285 XXXX 1      ca+h    Ca  1.500
Ca2     18.913984039    5.626244319   17.064357941 XXXX 1      ca+h    Ca  1.500
Ca3     16.792846082    5.662386922   19.825558553 XXXX 1      ca+h    Ca  1.500
Ca4     22.852576887    2.855396894   19.828485016 XXXX 1      ca+h    Ca  1.500
Ca5     18.936993831    2.225555567   14.721567995 XXXX 1      ca+h    Ca  1.500
P1      21.104799868    3.494967596   16.656540517 XXXX 1      pap     P   1.000
O13     21.242131061    5.012610511   16.551077355 XXXX 1      oap1    O  -0.800
O14     22.323791369    2.945066612   17.520080957 XXXX 1      oap1    O  -0.800
Ca6     22.820090875    6.205542605   17.660607719 XXXX 1      ca+h    Ca  1.500
P2      20.713103447    8.068648758   16.292931858 XXXX 1      pap     P   1.000
O15     19.564937917    7.405139891   15.425681477 XXXX 1      oap1    O  -0.800
O16     20.620546001    9.610269079   16.290919289 XXXX 1      oap1    O  -0.800
Ca7     17.926648394    8.444734448   14.191572890 XXXX 1      ca+h    Ca  1.500
P3      17.836166867    5.331638847   13.894642135 XXXX 1      pap     P   1.000
O17     18.852657815    4.597069570   14.790053620 XXXX 1      oap1    O  -0.800
O18     16.923055685    4.308074621   13.170104868 XXXX 1      oap1    O  -0.800
Ca8     22.583814057    6.281073303   21.968596333 XXXX 1      ca+h    Ca  1.500
P4      20.324362347    4.982848350   20.245334377 XXXX 1      pap     P   1.000
O19     20.249239603    3.422622448   20.246039003 XXXX 1      oap1    O  -0.800
O20     19.133746041    5.548084512   19.441157844 XXXX 1      oap1    O  -0.800
Ca9     18.585718302    2.198099194   19.011179141 XXXX 1      ca+h    Ca  1.500
P6      23.866528680    3.195305080   22.803777433 XXXX 1      pap     P   1.000
O23     22.703713403    3.922351413   22.172883890 XXXX 1      oap1    O  -0.800
O24     24.843419446    4.211657467   23.485061995 XXXX 1      oap1    O  -0.800
end
O1      17.075162968    2.901715571   20.703458287 XXXX 1      oap1    O  -0.800
O2      18.050990347    7.734956346   21.315893087 XXXX 1      oap1    O  -0.800
O3      14.539667344    6.166806419   18.607066741 XXXX 1      oap1    O  -0.800
O4      17.654585632    5.597986479   25.359128945 XXXX 1      oap1    O  -0.800
O6      20.583782673    2.232396386   27.527335685 XXXX 1      oap1    O  -0.800
O7      16.256126404    5.180842877   27.367234990 XXXX 1      oap1    O  -0.800
O9      18.923000417    2.293643650   29.358463888 XXXX 1      oap1    O  -0.800
O10     15.674496310    3.162609879   22.736779416 XXXX 1      oap1    O  -0.800
O11     16.548699431    7.590509171   23.207443301 XXXX 1      oap1    O  -0.800
O12     12.825762315    6.240170404   20.417698913 XXXX 1      oap1    O  -0.800
Ca1     20.606760812    2.850297552   22.455984558 XXXX 1      ca+h    Ca  1.500
Ca2     15.017966450    5.508769164   22.720984525 XXXX 1      ca+h    Ca  1.500
Ca3     12.702112131    5.804756817   25.221981943 XXXX 1      ca+h    Ca  1.500
Ca4     18.702988748    2.692616625   25.390025954 XXXX 1      ca+h    Ca  1.500
Ca5     14.746503427    2.108269448   20.451618865 XXXX 1      ca+h    Ca  1.500
P1      17.047865517    3.442455086   22.164356221 XXXX 1      pap     P   1.000
O13     17.223977070    4.940885964   22.012125322 XXXX 1      oap1    O  -0.800
O14     18.158848881    2.724461976   23.006183771 XXXX 1      oap1    O  -0.800
Ca6     18.596881751    6.281584693   23.223348692 XXXX 1      ca+h    Ca  1.500
P2      16.631170994    8.079119081   21.800508945 XXXX 1      pap     P   1.000
O15     15.608304886    7.232706679   21.075035486 XXXX 1      oap1    O  -0.800
O16     16.335421168    9.605290217   21.719488243 XXXX 1      oap1    O  -0.800
Ca7     13.870988958    8.407971375   19.749600436 XXXX 1      ca+h    Ca  1.500
P3      13.666936226    5.300243750   19.558162849 XXXX 1      pap     P   1.000
O17     14.583715270    4.517968545   20.552797255 XXXX 1      oap1    O  -0.800
O18     12.761068202    4.404408015   18.741028159 XXXX 1      oap1    O  -0.800
Ca8     18.458140226    6.262394384   27.524297627 XXXX 1      ca+h    Ca  1.500
P4      16.310812015    4.951820957   25.839883798 XXXX 1      pap     P   1.000
O19     16.329394122    3.454850014   25.546846957 XXXX 1      oap1    O  -0.800
O20     15.144548221    5.694074810   25.210691591 XXXX 1      oap1    O  -0.800
Ca9     14.592734958    2.121481173   24.504783318 XXXX 1      ca+h    Ca  1.500
P6      19.751702165    3.148369626   28.417401990 XXXX 1      pap     P   1.000
O23     18.716948549    3.835795554   27.509135975 XXXX 1      oap1    O  -0.800
O24     20.586055747    4.125484776   29.289411717 XXXX 1      oap1    O  -0.800
end
O1      13.206273759    2.808462050   26.203531287 XXXX 1      oap1    O  -0.800
O2      13.983886480    7.813140687   27.060286446 XXXX 1      oap1    O  -0.800
O3      10.672249139    5.996805589   24.195239955 XXXX 1      oap1    O  -0.800
O4      13.429043434    5.206526874   30.787838647 XXXX 1      oap1    O  -0.800
O6      16.806480508    2.704615507   33.233443457 XXXX 1      oap1    O  -0.750
O7      12.073358727    5.172497357   32.786292663 XXXX 1      oap1    O  -0.800
O9      14.379349925    3.515078748   33.021218256 XXXX 1      oap1    O  -0.750
O10     11.630958398    2.974656789   28.059433250 XXXX 1      oap1    O  -0.800
O11     12.332009546    7.579719178   28.795804619 XXXX 1      oap1    O  -0.800
O12      8.757512653    6.304712345   25.766909400 XXXX 1      oap1    O  -0.800
Ca1     16.581626691    2.809488107   28.163010058 XXXX 1      ca+h    Ca  1.500
Ca2     10.677861417    5.628240978   28.211577644 XXXX 1      ca+h    Ca  1.500
Ca3      8.592578534    5.506623162   30.967778652 XXXX 1      ca+h    Ca  1.500
Ca4     14.481336905    2.949585428   30.805290885 XXXX 1      ca+h    Ca  1.500
Ca5     10.595223564    2.179443248   26.025273155 XXXX 1      ca+h    Ca  1.500
P1      13.048472603    3.384058965   27.575089694 XXXX 1      pap     P   1.000
O13     13.066481853    4.927821127   27.555798293 XXXX 1      oap1    O  -0.800
O14     14.096213035    2.780575620   28.535532187 XXXX 1      oap1    O  -0.800
Ca6     14.662316813    6.235891025   28.832692267 XXXX 1      ca+h    Ca  1.500
P2      12.578996298    8.204616481   27.406586120 XXXX 1      pap     P   1.000
O15     11.542926000    7.505581485   26.538242641 XXXX 1      oap1    O  -0.800
O16     12.398618577    9.702556212   27.543351104 XXXX 1      oap1    O  -0.800
Ca7      9.833444882    8.490586583   25.245393225 XXXX 1      ca+h    Ca  1.500
P3       9.600985048    5.271099166   25.051744885 XXXX 1      pap     P   1.000
O17     10.345035574    4.529019427   26.195621656 XXXX 1      oap1    O  -0.800
O18      8.710362765    4.337701175   24.216136399 XXXX 1      oap1    O  -0.800
Ca8     14.473334980    6.018620044   32.943320239 XXXX 1      ca+h    Ca  1.500
P4      12.029571064    4.945242328   31.263501917 XXXX 1      pap     P   1.000
O19     11.728312300    3.426199042   31.111121149 XXXX 1      oap1    O  -0.800
O20     10.977266782    5.836980758   30.559898776 XXXX 1      oap1    O  -0.800
Ca9     10.519388096    1.960613053   29.789413833 XXXX 1      ca+h    Ca  1.500
P6      15.559095411    3.237100447   33.993651251 XXXX 1      pap     P   1.000
O23     15.891570639    4.674376942   34.577701575 XXXX 1      oap1    O  -0.750
O24     15.081312671    2.271593354   35.044103873 XXXX 1      oap1    O  -0.650
H       15.571577854    1.478811662   35.062582031 XXXX 1      hop     H   0.400
end
O1       9.795093295    2.576163303   32.599793554 XXXX 1      oap1    O  -0.750
O2       9.678169817    7.228585095   32.337461585 XXXX 1      oap1    O  -0.750
O3       6.428105118    5.753358790   29.503052454 XXXX 1      oap1    O  -0.800
O4       8.119048846    2.597151072   34.524219061 XXXX 1      oap1    O  -0.650
O5       8.398548027    7.848231150   34.330156630 XXXX 1      oap1    O  -0.650
O6       4.832031112    6.288156904   31.347712848 XXXX 1      oap1    O  -0.800
Ca1     12.096100051    2.828126225   33.463813070 XXXX 1      ca+h    Ca  1.500
Ca2      5.706580450    5.790646761   33.455223923 XXXX 1      ca+h    Ca  1.500
Ca3      6.372734340    1.905390531   31.229410687 XXXX 1      ca+h    Ca  1.500
P1       9.157513477    3.450944837   33.721615709 XXXX 1      pap     P   1.000
O7       8.486456333    4.688126327   33.140858646 XXXX 1      oap1    O  -0.750
O8      10.335199099    3.949729475   34.653850865 XXXX 1      oap1    O  -0.750
Ca4     10.565545012    6.258917521   34.434092169 XXXX 1      ca+h    Ca  1.500
P2       8.439400187    7.920241825   32.817305221 XXXX 1      pap     P   1.000
O9       7.235172111    7.245031470   32.198956783 XXXX 1      oap1    O  -0.750
O10      8.463616557    9.354876517   32.341433440 XXXX 1      oap1    O  -0.750
Ca5      5.627222322    8.566559131   30.908467499 XXXX 1      ca+h    Ca  1.500
P3       5.460060370    5.159459267   30.509281502 XXXX 1      pap     P   1.000
O11      6.188475090    4.159212457   31.393079139 XXXX 1      oap1    O  -0.800
O12      4.436420340    4.377866274   29.726544726 XXXX 1      oap1    O  -0.800
H1       7.530316579    8.107719659   34.609416586 XXXX 1      hop     H   0.400
H2       7.267357170    3.138016494   34.424473217 XXXX 1      hop     H   0.400
end
O1      25.680763270   11.410992759    3.697287358 XXXX 1      oap1    O  -0.750
O2      26.712340440   16.095095420    1.898931671 XXXX 1      oap1    O  -0.750
O3      26.268682146   13.507678210    5.901907756 XXXX 1      oap1    O  -0.800
O4      24.400365828    8.714109855    5.222526647 XXXX 1      oap1    O  -0.800
O5      29.077551653   10.383285651    7.869725684 XXXX 1      oap1    O  -0.800
O6      24.897086433   13.669883357    7.869412011 XXXX 1      oap1    O  -0.800
O7      24.149515910    8.831894453    7.692652583 XXXX 1      oap1    O  -0.800
O8      27.483752530   10.236383075    9.721435553 XXXX 1      oap1    O  -0.800
O9      27.218117261   10.392376909    1.892915415 XXXX 1      oap1    O  -0.750
O10     25.079381920   15.793975966    3.556601018 XXXX 1      oap1    O  -0.750
Ca1     29.200997668   11.373369347    2.692709884 XXXX 1      ca+h    Ca  1.500
Ca2     21.498979748   13.854573171    5.746348168 XXXX 1      ca+h    Ca  1.500
Ca3     27.164904659   11.156936044    5.722386736 XXXX 1      ca+h    Ca  1.500
P1      26.241059027   11.548405540    2.210424729 XXXX 1      pap     P   1.000
O11     27.145349151   12.797328486    2.183587696 XXXX 1      oap1    O  -0.750
O12     25.124884639   11.767795357    1.227485865 XXXX 1      oap1    O  -0.650
P2      25.267532634   16.434302361    2.191449661 XXXX 1      pap     P   1.000
O13     24.248913476   15.839649669    1.256936998 XXXX 1      oap1    O  -0.650
O14     25.229061751   17.961067964    2.371350354 XXXX 1      oap1    O  -0.750
Ca4     27.080537210   14.541038731    8.121795440 XXXX 1      ca+h    Ca  1.500
P3      24.914999322   13.137443981    6.442938120 XXXX 1      pap     P   1.000
O15     24.813411410   11.636886124    6.428025993 XXXX 1      oap1    O  -0.800
O16     23.832401719   13.775471754    5.599503172 XXXX 1      oap1    O  -0.800
Ca5     23.498081054   10.935718446    4.789151363 XXXX 1      ca+h    Ca  1.500
P4      25.099974202    8.459305888    6.555922424 XXXX 1      pap     P   1.000
O17     26.366318939    9.292169785    6.906242445 XXXX 1      oap1    O  -0.800
O18     25.435428275    6.954715081    6.721856100 XXXX 1      oap1    O  -0.800
Ca6     27.875775867    8.179502805    8.425101995 XXXX 1      ca+h    Ca  1.500
P5      28.286446836   11.218124312    8.825129475 XXXX 1      pap     P   1.000
O19     27.219149520   12.083325870    8.101771282 XXXX 1      oap1    O  -0.800
O20     29.215218505   12.192301947    9.598929889 XXXX 1      oap1    O  -0.800
O21     20.817235088    8.395857274    6.583346529 XXXX 1      oap2    O  -1.100
H1      20.968416023    8.382484542    5.644158785 XXXX 1      hop     H   0.200
H2      23.421247147   16.096683608    1.573118194 XXXX 1      hop     H   0.400
H3      25.144991486   12.599675585    0.953206955 XXXX 1      hop     H   0.400
end
O1      21.996308501   11.382583259    6.612682122 XXXX 1      oap1    O  -0.800
O2      22.610077908   15.837420457    7.327798592 XXXX 1      oap1    O  -0.800
O3      18.242573732   14.515526274    4.237990198 XXXX 1      oap1    O  -0.800
O4      22.006637806   13.963671373   11.334093845 XXXX 1      oap1    O  -0.800
O5      21.507224743    9.146889036   10.871328460 XXXX 1      oap1    O  -0.800
O6      24.718625130   10.638097590   13.303214830 XXXX 1      oap1    O  -0.800
O7      20.444184205   13.586019542   13.302335841 XXXX 1      oap1    O  -0.800
O8      19.538458852    8.712389097   12.326529085 XXXX 1      oap1    O  -0.800
O9      23.339568873   10.537475698   15.318863827 XXXX 1      oap1    O  -0.800
O10     20.178490368   11.032344026    8.356920979 XXXX 1      oap1    O  -0.800
O11     20.792718267   15.754389883    9.068182458 XXXX 1      oap1    O  -0.800
O12     17.762671660   14.706220010    6.715775535 XXXX 1      oap1    O  -0.800
Ca1     25.182500831   10.831261070    8.770699576 XXXX 1      ca+h    Ca  1.500
Ca2     19.227632920   14.023021807    8.510302105 XXXX 1      ca+h    Ca  1.500
Ca3     17.335637887   13.722591204   11.253917098 XXXX 1      ca+h    Ca  1.500
Ca4     22.932430329   11.094907194   11.347964837 XXXX 1      ca+h    Ca  1.500
Ca5     19.536452865   10.355984849    6.080728241 XXXX 1      ca+h    Ca  1.500
P1      21.618268973   11.630516096    8.068221645 XXXX 1      pap     P   1.000
O13     21.572263487   13.211142860    8.171065251 XXXX 1      oap1    O  -0.800
O14     22.694348963   10.983474425    8.981671846 XXXX 1      oap1    O  -0.800
Ca6     23.238880783   14.405697285    9.295114270 XXXX 1      ca+h    Ca  1.500
P2      21.157330567   16.288567343    7.685449393 XXXX 1      pap     P   1.000
O15     20.180744480   15.611374640    6.667835734 XXXX 1      oap1    O  -0.800
O16     21.097615004   17.862054228    7.630909333 XXXX 1      oap1    O  -0.800
Ca7     18.326105714   16.844762769    5.579127214 XXXX 1      ca+h    Ca  1.500
P3      18.071898599   13.712066669    5.580483981 XXXX 1      pap     P   1.000
O17     19.313354556   12.818114196    5.932960659 XXXX 1      oap1    O  -0.800
O18     16.755205286   12.913482188    5.336669453 XXXX 1      oap1    O  -0.800
Ca8     23.017070603   14.634043289   13.505770518 XXXX 1      ca+h    Ca  1.500
P4      20.668113547   13.332988345   11.801173223 XXXX 1      pap     P   1.000
O19     20.734649202   11.819998782   11.510647227 XXXX 1      oap1    O  -0.800
O20     19.594047703   13.996778880   10.953340316 XXXX 1      oap1    O  -0.800
Ca9     19.111511661   10.365870463   10.408147722 XXXX 1      ca+h    Ca  1.500
P5      21.022455387    8.440110306   12.177337628 XXXX 1      pap     P   1.000
O21     21.873514059    9.067674041   13.335349144 XXXX 1      oap1    O  -0.800
O22     21.282375787    6.934589988   12.090005457 XXXX 1      oap1    O  -0.800
Ca10    23.810351815    8.182342644   14.251931203 XXXX 1      ca+h    Ca  1.500
P6      23.999969010   11.503405265   14.384926386 XXXX 1      pap     P   1.000
O23     22.910179674   12.300477387   13.689341803 XXXX 1      oap1    O  -0.800
O24     25.050171355   12.419808991   15.068306700 XXXX 1      oap1    O  -0.800
O25     16.623703861    8.286245230   12.184354933 XXXX 1      oap2    O  -1.100
O26     18.515723732    8.223059749    9.158202087 XXXX 1      oap2    O  -1.100
H1      17.325386875    8.235873348   11.524846034 XXXX 1      hop     H   0.200
H2      18.724624653    7.916916698    8.281352221 XXXX 1      hop     H   0.200
end
O1      17.741241001   11.394196349   12.233910043 XXXX 1      oap1    O  -0.800
O2      18.397494943   15.683919184   12.749217637 XXXX 1      oap1    O  -0.800
O3      14.535511228   14.265811008   10.029281712 XXXX 1      oap1    O  -0.800
O4      17.941845148   13.411101132   16.940837011 XXXX 1      oap1    O  -0.800
O5      17.406201278    9.067188684   16.422221717 XXXX 1      oap1    O  -0.800
O6      20.872538441   10.390405830   19.138388122 XXXX 1      oap1    O  -0.800
O7      16.520670896   13.522146300   19.032526229 XXXX 1      oap1    O  -0.800
O8      15.493424363    8.944027271   18.082171978 XXXX 1      oap1    O  -0.800
O9      19.444401967   10.348793985   21.101583846 XXXX 1      oap1    O  -0.800
O10     16.257780531   10.785405578   14.202085322 XXXX 1      oap1    O  -0.800
O11     16.752111155   15.721462569   14.594025571 XXXX 1      oap1    O  -0.800
O12     13.492292363   14.217320872   12.343220418 XXXX 1      oap1    O  -0.800
Ca1     20.913415561   11.162488533   14.053191224 XXXX 1      ca+h    Ca  1.500
Ca2     15.008790446   13.933599880   14.073191059 XXXX 1      ca+h    Ca  1.500
Ca3     13.158947276   13.645390379   16.959397795 XXXX 1      ca+h    Ca  1.500
Ca4     18.776587468   11.116306074   16.939398729 XXXX 1      ca+h    Ca  1.500
Ca5     15.209766003   10.241434131   11.810545572 XXXX 1      ca+h    Ca  1.500
P1      17.481554148   11.555817691   13.768004862 XXXX 1      pap     P   1.000
O13     17.283866828   13.060025001   14.082677679 XXXX 1      oap1    O  -0.800
O14     18.681877824   10.914449649   14.527970963 XXXX 1      oap1    O  -0.800
Ca6     18.966705878   14.415415810   14.915697953 XXXX 1      ca+h    Ca  1.500
P2      17.027928990   16.263567276   13.203958176 XXXX 1      pap     P   1.000
O15     15.920179314   15.645232413   12.316372706 XXXX 1      oap1    O  -0.800
O16     17.013644100   17.796344112   13.191880685 XXXX 1      oap1    O  -0.800
Ca7     14.217332602   16.651191116   11.140347435 XXXX 1      ca+h    Ca  1.500
P3      14.119014902   13.355934911   11.201619812 XXXX 1      pap     P   1.000
O17     15.332738684   12.622133939   11.806547430 XXXX 1      oap1    O  -0.800
O18     13.114507919   12.343070594   10.627994838 XXXX 1      oap1    O  -0.800
Ca8     18.876728301   14.390423143   19.065072106 XXXX 1      ca+h    Ca  1.500
P4      16.583912870   13.160206359   17.500761348 XXXX 1      pap     P   1.000
O19     16.393800772   11.635686773   17.487524871 XXXX 1      oap1    O  -0.800
O20     15.536236530   13.834534406   16.556691755 XXXX 1      oap1    O  -0.800
Ca9     14.901023912   10.398117870   16.127049449 XXXX 1      ca+h    Ca  1.500
P5      16.954295387    8.534011679   17.799663999 XXXX 1      pap     P   1.000
O21     17.860312090    9.251128330   18.803882055 XXXX 1      oap1    O  -0.800
O22     17.164162429    6.957861722   17.839857471 XXXX 1      oap1    O  -0.800
Ca10    19.787092672    8.224747199   19.888271135 XXXX 1      ca+h    Ca  1.500
P6      20.052838587   11.306893788   20.017436260 XXXX 1      pap     P   1.000
O23     18.966366118   11.922979484   19.152319489 XXXX 1      oap1    O  -0.800
O24     20.967246383   12.382506557   20.697293058 XXXX 1      oap1    O  -0.800
O25     12.379218959    8.363453915   17.887248615 XXXX 1      oap2    O  -1.100
O26     14.563753425    8.327226779   15.003920621 XXXX 1      oap2    O  -1.100
H1      13.284743054    8.206912799   17.657350248 XXXX 1      hop     H   0.200
H2      15.310443097    8.463935919   14.443382905 XXXX 1      hop     H   0.200
end
O1      13.293587673   11.213608680   17.699566821 XXXX 1      oap1    O  -0.800
O2      14.237854100   15.785691891   18.285748154 XXXX 1      oap1    O  -0.800
O3      10.381167580   14.582404100   15.733997181 XXXX 1      oap1    O  -0.800
O4      13.851523786   13.243994387   22.389069956 XXXX 1      oap1    O  -0.800
O5      13.127811812    9.201163127   21.833190825 XXXX 1      oap1    O  -0.800
O6      16.756250615   10.275184034   24.885221133 XXXX 1      oap1    O  -0.800
O7      12.373213100   13.698678944   24.348753904 XXXX 1      oap1    O  -0.800
O8      11.503318513    8.859028185   23.655536819 XXXX 1      oap1    O  -0.800
O9      14.989198086   10.538680136   26.615469427 XXXX 1      oap1    O  -0.800
O10     12.035994639   10.999304573   19.726599552 XXXX 1      oap1    O  -0.800
O11     12.807701289   15.628371721   20.308456741 XXXX 1      oap1    O  -0.800
O12      9.389709950   14.074292238   17.912947241 XXXX 1      oap1    O  -0.800
Ca1     16.741617561   11.060527976   19.714807674 XXXX 1      ca+h    Ca  1.500
Ca2     11.024957799   13.738530507   19.632927852 XXXX 1      ca+h    Ca  1.500
Ca3      8.942164054   13.695690177   22.530989803 XXXX 1      ca+h    Ca  1.500
Ca4     14.599699543   10.997066583   22.447666251 XXXX 1      ca+h    Ca  1.500
Ca5     10.997757571   10.205507265   17.449313912 XXXX 1      ca+h    Ca  1.500
P1      13.331600221   11.523742922   19.194582582 XXXX 1      pap     P   1.000
O13     13.393967418   13.107981258   19.291830496 XXXX 1      oap1    O  -0.800
O14     14.465883630   10.890826755   20.044422723 XXXX 1      oap1    O  -0.800
Ca6     14.932831356   14.273973423   20.429656672 XXXX 1      ca+h    Ca  1.500
P2      12.927469596   16.246857598   18.875661325 XXXX 1      pap     P   1.000
O15     11.864200916   15.500620536   18.029408070 XXXX 1      oap1    O  -0.800
O16     12.801406951   17.780406883   18.853247525 XXXX 1      oap1    O  -0.800
Ca7     10.172495352   16.643098182   16.785270892 XXXX 1      ca+h    Ca  1.500
P3       9.891251535   13.439803289   16.648522278 XXXX 1      pap     P   1.000
O17     11.070686672   12.563159100   17.041351155 XXXX 1      oap1    O  -0.800
O18      8.843473694   12.522030621   16.025669990 XXXX 1      oap1    O  -0.800
Ca8     14.735057778   14.325435122   24.654557326 XXXX 1      ca+h    Ca  1.500
P4      12.454174842   13.124311354   22.950445974 XXXX 1      pap     P   1.000
O19     12.175280264   11.604493531   23.022117263 XXXX 1      oap1    O  -0.800
O20     11.396401487   13.833400413   21.992630377 XXXX 1      oap1    O  -0.800
Ca9     10.815771053   10.236438913   21.693263415 XXXX 1      ca+h    Ca  1.500
P5      12.935962295    8.587244046   23.195505231 XXXX 1      pap     P   1.000
O21     13.910330129    9.270578342   24.177432166 XXXX 1      oap1    O  -0.800
O22     13.092671623    7.080362599   23.118350107 XXXX 1      oap1    O  -0.800
Ca10    15.704511956    8.085662121   25.372023396 XXXX 1      ca+h    Ca  1.500
P6      15.904905308   11.279244559   25.599246601 XXXX 1      pap     P   1.000
O23     14.887123459   11.936687955   24.662502071 XXXX 1      oap1    O  -0.800
O24     16.758211110   12.340980316   26.264935079 XXXX 1      oap1    O  -0.800
O25      8.551781942    8.337011689   23.221266689 XXXX 1      oap2    O  -1.100
O26     10.363982342    8.142154085   20.593668163 XXXX 1      oap2    O  -1.100
H1       8.787168790    8.594340966   22.305965629 XXXX 1      hop     H   0.200
H2      11.036469475    8.238387573   19.956366047 XXXX 1      hop     H   0.200
end
O1       9.253699467   11.229606241   23.409331451 XXXX 1      oap1    O  -0.800
O2      10.103227426   15.753121836   24.104732326 XXXX 1      oap1    O  -0.800
O3       6.639745110   14.167462651   21.350898542 XXXX 1      oap1    O  -0.800
O4       9.572440523   13.760150610   28.062679409 XXXX 1      oap1    O  -0.800
O5       8.982059554    9.030216809   27.345333907 XXXX 1      oap1    O  -0.800
O6      12.601290660   10.286416365   30.717063141 XXXX 1      oap1    O  -0.800
O7       8.224879543   13.613119104   30.013973928 XXXX 1      oap1    O  -0.800
O8       7.369725046    8.964137847   29.333831406 XXXX 1      oap1    O  -0.800
O9      10.854833466   10.743220788   32.475148069 XXXX 1      oap1    O  -0.800
O10      7.866151466   10.820025194   25.433412462 XXXX 1      oap1    O  -0.800
O11      8.534198678   15.788946884   25.994006435 XXXX 1      oap1    O  -0.800
O12      5.024411131   14.380562456   23.196561220 XXXX 1      oap1    O  -0.800
Ca1     12.671388510   11.212768420   25.446308736 XXXX 1      ca+h    Ca  1.500
Ca2      6.791497888   13.990666725   25.325173766 XXXX 1      ca+h    Ca  1.500
Ca3      4.795424413   13.691358219   28.044486348 XXXX 1      ca+h    Ca  1.500
Ca4     10.418741833   10.998529612   28.097580703 XXXX 1      ca+h    Ca  1.500
Ca5      7.035981468   10.260130365   23.157871776 XXXX 1      ca+h    Ca  1.500
P1       9.103403381   11.578017345   24.926142598 XXXX 1      pap     P   1.000
O13      9.001782975   13.141947952   24.969140074 XXXX 1      oap1    O  -0.800
O14     10.376029415   11.085664216   25.684744836 XXXX 1      oap1    O  -0.800
Ca6     10.695546126   14.422802043   25.996938148 XXXX 1      ca+h    Ca  1.500
P2       8.689570409   16.223611873   24.571555816 XXXX 1      pap     P   1.000
O15      7.678680351   15.490496583   23.716199166 XXXX 1      oap1    O  -0.800
O16      8.574203944   17.794199301   24.500948693 XXXX 1      oap1    O  -0.800
Ca7      5.913214686   16.661414732   22.419699247 XXXX 1      ca+h    Ca  1.500
P3       5.837530116   13.372463799   22.342148590 XXXX 1      pap     P   1.000
O17      6.823060456   12.617385292   23.266894040 XXXX 1      oap1    O  -0.800
O18      4.884550092   12.435360071   21.585295916 XXXX 1      oap1    O  -0.800
Ca8     10.484818710   14.329149959   30.195946985 XXXX 1      ca+h    Ca  1.500
P4       8.214126797   13.275349555   28.563497601 XXXX 1      pap     P   1.000
O19      8.145732096   11.712511151   28.442848107 XXXX 1      oap1    O  -0.800
O20      7.092521373   13.923606175   27.793021169 XXXX 1      oap1    O  -0.800
Ca9      6.593213409   10.378014550   27.364798355 XXXX 1      ca+h    Ca  1.500
P5       8.805690226    8.584329814   28.876996576 XXXX 1      pap     P   1.000
O21      9.861015573    9.363069314   29.743759345 XXXX 1      oap1    O  -0.800
O22      8.994713331    7.084579597   28.976163443 XXXX 1      oap1    O  -0.800
Ca10    11.386529493    8.250536471   31.039756168 XXXX 1      ca+h    Ca  1.500
P6      11.690888201   11.383704375   31.328236367 XXXX 1      pap     P   1.000
O23     10.721826862   12.007969769   30.263397492 XXXX 1      oap1    O  -0.800
O24     12.631131164   12.451845369   31.911224484 XXXX 1      oap1    O  -0.800
O25      4.390279623    8.355251708   28.851191859 XXXX 1      oap2    O  -1.100
O26      6.317777187    8.288044916   26.183330508 XXXX 1      oap2    O  -1.100
H1       4.867852676    8.379276677   28.038367380 XXXX 1      hop     H   0.200
H2       6.866787863    7.999139971   25.478603476 XXXX 1      hop     H   0.200
end
O1       5.059231437   11.306561794   28.793689183 XXXX 1      oap1    O  -0.800
O2       5.862006455   15.921723007   29.171569997 XXXX 1      oap1    O  -0.800
O3       2.497702247   14.358261249   27.048880315 XXXX 1      oap1    O  -0.800
O4       3.604283776   13.405396015   32.985130347 XXXX 1      oap1    O  -0.750
O5       4.756656566    8.962606019   33.170370839 XXXX 1      oap1    O  -0.750
O6       4.891818303   13.215363661   35.095298910 XXXX 1      oap1    O  -0.650
O7       6.040256762    7.740990239   34.836794922 XXXX 1      oap1    O  -0.750
O8       3.750389215   10.715125195   30.819581654 XXXX 1      oap1    O  -0.800
O9       5.169298028   15.860816740   31.579623484 XXXX 1      oap1    O  -0.800
O10      0.878512138   14.300746120   28.881980641 XXXX 1      oap1    O  -0.800
Ca1      8.570958904   11.256385336   30.861732424 XXXX 1      ca+h    Ca  1.500
Ca2      2.661901661   13.676558349   30.828663534 XXXX 1      ca+h    Ca  1.500
Ca3      0.474577927   13.546892069   33.679239051 XXXX 1      ca+h    Ca  1.500
Ca4      2.663759148   10.204082961   28.643691661 XXXX 1      ca+h    Ca  1.500
P1       4.968841032   11.472762769   30.260351368 XXXX 1      pap     P   1.000
O11      4.816561648   12.941365596   30.518951333 XXXX 1      oap1    O  -0.800
O12      6.246477626   10.979398397   30.945337026 XXXX 1      oap1    O  -0.800
Ca5      5.844460143   13.799104312   32.430107181 XXXX 1      ca+h    Ca  1.500
P2       4.764093276   16.265215537   30.121781350 XXXX 1      pap     P   1.000
O13      3.574988540   15.400797972   29.581612348 XXXX 1      oap1    O  -0.800
O14      4.494007831   17.809489817   30.018805346 XXXX 1      oap1    O  -0.800
Ca6      1.919143744   16.481710412   28.145924245 XXXX 1      ca+h    Ca  1.500
P3       1.673419664   13.408476907   27.902151743 XXXX 1      pap     P   1.000
O15      2.667214151   12.586521522   28.691752390 XXXX 1      oap1    O  -0.800
O16      0.697165627   12.491079020   27.105431593 XXXX 1      oap1    O  -0.800
P4       3.527108756   12.885790979   34.480819330 XXXX 1      pap     P   1.000
O17      3.230253849   11.339358176   34.477462754 XXXX 1      oap1    O  -0.750
O18      2.381200615   13.723322781   35.182253665 XXXX 1      oap1    O  -0.750
Ca7      2.564470401   10.033474718   32.802667260 XXXX 1      ca+h    Ca  1.500
P5       5.496874241    9.133443706   34.531917195 XXXX 1      pap     P   1.000
O19      4.510528071    9.576907509   35.583523439 XXXX 1      oap1    O  -0.650
O20      6.671425551   10.163117169   34.445779025 XXXX 1      oap1    O  -0.750
O21      0.999570163    8.103654557   33.025200109 XXXX 1      oap2    O  -1.100
H1       1.539584388    7.385820872   33.103038946 XXXX 1      hop     H   0.200
H2       4.723112155   13.477475937   36.015974936 XXXX 1      hop     H   0.400
H3       4.111714675   10.274387683   35.097089669 XXXX 1      hop     H   0.400
end
O1      17.803108686   19.244444631    3.820021598 XXXX 1      oap1    O  -0.800
O2      19.087601087   24.550042994    4.833608410 XXXX 1      oap1    O  -0.800
O3      15.563237020   23.049436508    2.230136518 XXXX 1      oap1    O  -0.650
O4      18.138138112   21.964074988    8.457698041 XXXX 1      oap1    O  -0.800
O5      17.563583614   17.343814992    7.910401136 XXXX 1      oap1    O  -0.800
O6      21.280752953   18.559947014   10.762604822 XXXX 1      oap1    O  -0.800
O7      16.866507921   21.732685731   10.562674092 XXXX 1      oap1    O  -0.800
O8      16.193202213   17.370509870    9.982366969 XXXX 1      oap1    O  -0.800
O9      19.366439244   18.721388694   12.317806794 XXXX 1      oap1    O  -0.800
O10     16.663428292   19.577330925    6.013068476 XXXX 1      oap1    O  -0.800
O11     17.334117855   23.781822339    6.405286324 XXXX 1      oap1    O  -0.800
O12     14.819925362   21.757882737    4.174351081 XXXX 1      oap1    O  -0.750
Ca1     21.599562742   19.358711203    5.827423075 XXXX 1      ca+h    Ca  1.500
Ca2     15.512380001   18.816043751    3.659078816 XXXX 1      ca+h    Ca  1.500
Ca3     13.413880191   21.987661522    8.456975474 XXXX 1      ca+h    Ca  1.500
Ca4     19.229013431   19.303653129    8.346613439 XXXX 1      ca+h    Ca  1.500
P1      18.043752754   19.769374239    5.230083476 XXXX 1      pap     P   1.000
O13     18.455980877   21.237803652    5.362875224 XXXX 1      oap1    O  -0.800
O14     19.099490789   18.972364516    5.999222097 XXXX 1      oap1    O  -0.800
Ca6     19.713512365   22.807177691    6.440175736 XXXX 1      ca+h    Ca  1.500
P2      17.625133600   24.646707827    5.158985910 XXXX 1      pap     P   1.000
O15     16.851133899   24.202476581    3.892545797 XXXX 1      oap1    O  -0.800
O16     17.394872012   26.117865557    5.470680620 XXXX 1      oap1    O  -0.800
Ca7     16.129050386   21.858260532    5.996588247 XXXX 1      ca+h    Ca  1.500
P3      14.597876045   21.957166459    2.661140324 XXXX 1      pap     P   1.000
O17     14.956700213   20.566391698    2.027462249 XXXX 1      oap1    O  -0.750
O18     13.054166514   22.206231036    2.483882377 XXXX 1      oap1    O  -0.750
Ca8     19.241422596   22.790129096   10.677957931 XXXX 1      ca+h    Ca  1.500
P4      16.844379612   21.437708747    9.066878446 XXXX 1      pap     P   1.000
O19     16.865065884   19.935132322    8.889051637 XXXX 1      oap1    O  -0.800
O20     15.688004872   22.125619780    8.383549594 XXXX 1      oap1    O  -0.800
Ca9     15.434499394   18.503869533    7.767878426 XXXX 1      ca+h    Ca  1.500
P5      17.477344924   16.863163642    9.349907988 XXXX 1      pap     P   1.000
O21     18.600603097   17.627223026   10.055920003 XXXX 1      oap1    O  -0.800
O22     17.478664493   15.306010821    9.399918341 XXXX 1      oap1    O  -0.800
Ca10    20.130189031   16.402016401   11.292387320 XXXX 1      ca+h    Ca  1.500
P6      20.389406525   19.558880536   11.527690991 XXXX 1      pap     P   1.000
O23     19.542798597   20.450236871   10.565964935 XXXX 1      oap1    O  -0.800
O24     21.193111498   20.517200462   12.416842946 XXXX 1      oap1    O  -0.800
O25     14.035810857   16.450021287    8.031424028 XXXX 1      oap2    O  -1.100
O26     16.078428838   16.613479659    4.652286710 XXXX 1      oap2    O  -1.100
H1      13.136865508   15.988562516    8.019718922 XXXX 1      hop     H   0.200
H2      15.247949322   17.080403483    4.864427168 XXXX 1      hop     H   0.200
H       16.018306930   23.417430422    3.016300678 XXXX 1      hop     H   0.400
end
O1      13.807841716   19.254900411    9.482949347 XXXX 1      oap1    O  -0.800
O2      14.560095103   23.861789632    9.996424441 XXXX 1      oap1    O  -0.800
O3      11.069616521   22.351128697    7.071655160 XXXX 1      oap1    O  -0.800
O4      14.235110846   22.024646142   13.922963496 XXXX 1      oap1    O  -0.800
O5      13.248820857   17.085549071   13.390347928 XXXX 1      oap1    O  -0.800
O6      17.084146735   18.560687934   16.129695171 XXXX 1      oap1    O  -0.800
O7      12.913698471   21.820795932   15.979163089 XXXX 1      oap1    O  -0.800
O8      12.030449731   17.398729808   15.540259613 XXXX 1      oap1    O  -0.800
O9      15.571965847   18.614780712   18.086235400 XXXX 1      oap1    O  -0.800
O10     12.423345309   19.536616800   11.431804158 XXXX 1      oap1    O  -0.800
O11     13.089232791   23.909759305   12.001233156 XXXX 1      oap1    O  -0.800
O12      9.340472434   22.545955572    8.742720511 XXXX 1      oap1    O  -0.800
Ca1     17.285337137   19.205543104   11.264212530 XXXX 1      ca+h    Ca  1.500
Ca2     11.549253184   21.854732221   11.361338451 XXXX 1      ca+h    Ca  1.500
Ca3      9.166564559   21.849135212   13.982047375 XXXX 1      ca+h    Ca  1.500
Ca4     15.178708113   19.151298427   14.127471774 XXXX 1      ca+h    Ca  1.500
Ca5     11.540268344   18.376782461    9.212886880 XXXX 1      ca+h    Ca  1.500
P1      13.848973774   19.802957897   10.914389177 XXXX 1      pap     P   1.000
O13     13.940224345   21.281667267   10.889656436 XXXX 1      oap1    O  -0.800
O14     14.893063315   19.123713502   11.798824171 XXXX 1      oap1    O  -0.800
Ca6     15.476104843   22.695556056   12.049243624 XXXX 1      ca+h    Ca  1.500
P2      13.245368033   24.344385057   10.545423046 XXXX 1      pap     P   1.000
O15     12.130840985   23.664351216    9.697127099 XXXX 1      oap1    O  -0.800
O16     13.154857485   25.899486008   10.413218998 XXXX 1      oap1    O  -0.800
Ca7     10.497686484   24.725348393    8.553025018 XXXX 1      ca+h    Ca  1.500
P3      10.307820467   21.537822949    8.124224902 XXXX 1      pap     P   1.000
O17     11.270557935   20.869537655    9.165065071 XXXX 1      oap1    O  -0.800
O18      9.422883223   20.464635948    7.386763196 XXXX 1      oap1    O  -0.800
Ca8     15.090426476   22.761322163   16.196220198 XXXX 1      ca+h    Ca  1.500
P4      12.930370646   21.433421733   14.502349633 XXXX 1      pap     P   1.000
O19     12.965192221   19.900420019   14.480191618 XXXX 1      oap1    O  -0.800
O20     11.677481104   21.977952557   13.756930829 XXXX 1      oap1    O  -0.800
Ca9     11.216703124   18.450434389   13.330253593 XXXX 1      ca+h    Ca  1.500
P5      13.194885170   16.740657135   14.863522229 XXXX 1      pap     P   1.000
O21     14.447266269   17.379378253   15.435332150 XXXX 1      oap1    O  -0.800
O22     13.191348742   15.215266343   15.029319547 XXXX 1      oap1    O  -0.800
Ca10    16.011691042   16.314547817   16.721880342 XXXX 1      ca+h    Ca  1.500
P6      16.286973004   19.473918582   17.056252070 XXXX 1      pap     P   1.000
O23     15.226455509   20.281154016   16.303019445 XXXX 1      oap1    O  -0.800
O24     17.209700053   20.396756005   17.949321925 XXXX 1      oap1    O  -0.800
O25      9.836084347   16.394748324   13.511403843 XXXX 1      oap2    O  -1.100
O26     11.770377187   16.464848784   10.738829803 XXXX 1      oap2    O  -1.100
H1       9.569210735   15.917552542   14.273885453 XXXX 1      hop     H   0.200
H2      12.017115833   16.715525642   11.637487675 XXXX 1      hop     H   0.200
end
O1       9.671391208   19.081182916   15.104846962 XXXX 1      oap1    O  -0.800
O2      10.491125053   23.749910989   15.699531863 XXXX 1      oap1    O  -0.800
O3       6.997913671   22.215752158   12.821871417 XXXX 1      oap1    O  -0.800
O4       9.958750016   21.571348139   19.611066373 XXXX 1      oap1    O  -0.800
O5       8.955145599   16.741873717   18.868041868 XXXX 1      oap1    O  -0.800
O6      12.729136031   18.592488007   21.686831368 XXXX 1      oap1    O  -0.800
O7       8.572585148   22.103031983   21.623436863 XXXX 1      oap1    O  -0.800
O8       7.764489911   17.076713072   21.042996639 XXXX 1      oap1    O  -0.800
O9      11.292028126   18.677481987   23.754495441 XXXX 1      oap1    O  -0.800
O10      8.217366058   19.366197289   17.195388036 XXXX 1      oap1    O  -0.800
O11      9.009494455   23.819063582   17.674300254 XXXX 1      oap1    O  -0.800
O12      5.472791289   22.521563005   14.699158872 XXXX 1      oap1    O  -0.800
Ca1     13.127976151   19.089429648   16.850037181 XXXX 1      ca+h    Ca  1.500
Ca2      7.389609635   21.757377228   17.016209620 XXXX 1      ca+h    Ca  1.500
Ca3      5.114746650   22.084117584   19.701610312 XXXX 1      ca+h    Ca  1.500
Ca4     11.135326527   19.248251277   19.788750222 XXXX 1      ca+h    Ca  1.500
Ca5      7.324984915   18.193517231   14.967990457 XXXX 1      ca+h    Ca  1.500
P1       9.609330344   19.702030499   16.515658268 XXXX 1      pap     P   1.000
O13      9.653837219   21.226749299   16.352101088 XXXX 1      oap1    O  -0.800
O14     10.717613812   19.094867099   17.470269989 XXXX 1      oap1    O  -0.800
Ca6     11.269507007   22.316640377   17.613746126 XXXX 1      ca+h    Ca  1.500
P2       9.145088836   24.225645042   16.209506796 XXXX 1      pap     P   1.000
O15      8.078226148   23.545581537   15.342317794 XXXX 1      oap1    O  -0.800
O16      9.014955925   25.770960856   16.095580018 XXXX 1      oap1    O  -0.800
Ca7      6.399898065   24.781617236   14.078652116 XXXX 1      ca+h    Ca  1.500
P3       6.218476051   21.432047018   13.842469340 XXXX 1      pap     P   1.000
O17      7.232631324   20.675071747   14.748790907 XXXX 1      oap1    O  -0.800
O18      5.086569619   20.581527990   13.210447192 XXXX 1      oap1    O  -0.800
Ca8     10.959022683   22.538475598   21.924492656 XXXX 1      ca+h    Ca  1.500
P4       8.591609197   21.348144804   20.272359797 XXXX 1      pap     P   1.000
O19      8.392671794   19.853069682   20.436234337 XXXX 1      oap1    O  -0.800
O20      7.465369911   21.911969909   19.396679029 XXXX 1      oap1    O  -0.800
Ca9      7.005349841   18.384719986   18.981076095 XXXX 1      ca+h    Ca  1.500
P5       9.094123992   16.596156437   20.406511738 XXXX 1      pap     P   1.000
O21     10.274850372   17.469358532   21.029602422 XXXX 1      oap1    O  -0.800
O22      9.364666941   15.097547559   20.672621004 XXXX 1      oap1    O  -0.800
Ca10    11.812159324   16.277849836   22.304170286 XXXX 1      ca+h    Ca  1.500
P6      12.129445760   19.479465169   22.757737246 XXXX 1      pap     P   1.000
O23     11.082947346   20.286711879   21.930245719 XXXX 1      oap1    O  -0.800
O24     13.146133599   20.360880049   23.471511884 XXXX 1      oap1    O  -0.800
O25      5.786868635   16.376844645   19.216940142 XXXX 1      oap2    O  -1.100
O26      7.778674652   16.214029112   16.350159163 XXXX 1      oap2    O  -1.100
H1       5.271612953   16.235004428   19.945260137 XXXX 1      hop     H   0.200
H2       7.352052673   16.414599922   17.203568675 XXXX 1      hop     H   0.200
end
O1       5.392108110   19.206270180   20.579194062 XXXX 1      oap1    O  -0.800
O2       6.258269881   23.961496869   21.011210428 XXXX 1      oap1    O  -0.800
O3       2.903051324   22.440597637   18.668929983 XXXX 1      oap1    O  -0.800
O4       5.749361930   22.063475258   25.486345854 XXXX 1      oap1    O  -0.800
O5       5.057672474   17.256578920   24.574678301 XXXX 1      oap1    O  -0.800
O6       8.625473789   18.516912420   27.437794770 XXXX 1      oap1    O  -0.800
O7       4.307760369   21.721625156   27.422330541 XXXX 1      oap1    O  -0.800
O8       3.649116986   17.310686248   26.643572944 XXXX 1      oap1    O  -0.800
O9       7.495199737   18.417666967   29.558711555 XXXX 1      oap1    O  -0.800
O10      4.021818764   19.492347553   22.616258525 XXXX 1      oap1    O  -0.800
O11      4.992986081   23.876897815   23.133820112 XXXX 1      oap1    O  -0.800
O12      1.202496867   22.676117298   20.400271089 XXXX 1      oap1    O  -0.800
Ca1      9.047588358   19.083226221   22.561545428 XXXX 1      ca+h    Ca  1.500
Ca2      3.051122536   21.886078248   22.588169493 XXXX 1      ca+h    Ca  1.500
Ca3      0.984379479   21.768337048   25.356473067 XXXX 1      ca+h    Ca  1.500
Ca4      6.861893080   19.228057430   25.396818567 XXXX 1      ca+h    Ca  1.500
Ca5      3.148841905   18.467820676   20.437624091 XXXX 1      ca+h    Ca  1.500
P1       5.386319445   19.731160718   22.043938718 XXXX 1      pap     P   1.000
O13      5.559545954   21.309702267   22.124433099 XXXX 1      oap1    O  -0.800
O14      6.446940153   18.999818104   22.918562893 XXXX 1      oap1    O  -0.800
Ca6      7.087945880   22.534165648   23.369721266 XXXX 1      ca+h    Ca  1.500
P2       4.949793754   24.435769461   21.740007803 XXXX 1      pap     P   1.000
O15      3.797826324   23.789727664   21.048349520 XXXX 1      oap1    O  -0.800
O16      4.901242909   26.002763894   21.763367480 XXXX 1      oap1    O  -0.800
Ca7      2.236938201   24.766025192   19.612886840 XXXX 1      ca+h    Ca  1.500
P3       2.007159055   21.625114738   19.637113434 XXXX 1      pap     P   1.000
O17      2.970981533   20.863548416   20.518144070 XXXX 1      oap1    O  -0.800
O18      1.112255685   20.644702012   18.846941795 XXXX 1      oap1    O  -0.800
Ca8      6.749716866   22.592695674   27.799559460 XXXX 1      ca+h    Ca  1.500
P4       4.493399870   21.389313063   25.909801870 XXXX 1      pap     P   1.000
O19      4.622411310   19.859869294   25.700528213 XXXX 1      oap1    O  -0.800
O20      3.335920945   21.991668845   25.105629121 XXXX 1      oap1    O  -0.800
Ca9      2.895067572   18.474992881   24.527306120 XXXX 1      ca+h    Ca  1.500
P5       5.013479307   16.769290024   26.043559917 XXXX 1      pap     P   1.000
O21      6.104979815   17.421039645   26.847859787 XXXX 1      oap1    O  -0.800
O22      5.071815657   15.267037489   26.226160323 XXXX 1      oap1    O  -0.800
Ca10     7.884777585   16.387974381   28.153093755 XXXX 1      ca+h    Ca  1.500
P6       7.951419793   19.407153834   28.531731791 XXXX 1      pap     P   1.000
O23      6.792157401   20.140189062   27.794157556 XXXX 1      oap1    O  -0.800
O24      8.952852821   20.327288682   29.214789561 XXXX 1      oap1    O  -0.800
O25      1.737390414   16.373908980   24.601576839 XXXX 1      oap2    O  -1.100
O26      3.673795437   16.569410122   21.827164261 XXXX 1      oap2    O  -1.100
H1       1.077386748   15.913403578   25.159966178 XXXX 1      hop     H   0.200
H2       2.787513439   16.680458461   22.114969149 XXXX 1      hop     H   0.200
end
O1       1.262187149   19.355708382   26.103156796 XXXX 1      oap1    O  -0.800
O2       2.459802842   24.327956867   27.181837449 XXXX 1      oap1    O  -0.800
O4       1.391464185   22.203143739   31.237267645 XXXX 1      oap1    O  -0.800
O5       1.642897109   16.999112233   30.416158796 XXXX 1      oap1    O  -0.800
O6       4.395448353   19.067529490   32.948378575 XXXX 1      oap1    O  -0.750
O7      -0.247975091   21.465219230   32.980192224 XXXX 1      oap1    O  -0.800
O8      -0.449476563   17.117565401   31.665284282 XXXX 1      oap1    O  -0.800
O9       2.746194392   18.347955323   34.824276599 XXXX 1      oap1    O  -0.650
O10     -0.061467845   19.281090428   28.204613803 XXXX 1      oap1    O  -0.800
O11      0.722449210   23.808884633   28.933307432 XXXX 1      oap1    O  -0.800
Ca1      4.681356270   19.142315056   28.063020243 XXXX 1      ca+h    Ca  1.500
Ca4      2.573478362   19.052264290   30.928022805 XXXX 1      ca+h    Ca  1.500
P1       1.260534527   19.697853026   27.575494862 XXXX 1      pap     P   1.000
O13      1.336570252   21.217404743   27.739410442 XXXX 1      oap1    O  -0.800
O14      2.373976848   18.969557957   28.378085960 XXXX 1      oap1    O  -0.800
Ca6      2.657281674   22.540204263   29.195240403 XXXX 1      ca+h    Ca  1.500
P2       0.955391236   24.366065282   27.530363313 XXXX 1      pap     P   1.000
O15     -0.016090085   23.563834234   26.602333838 XXXX 1      oap1    O  -0.800
O16      0.632390905   25.880362301   27.568656806 XXXX 1      oap1    O  -0.800
Ca8      2.499861811   22.304861105   33.466561945 XXXX 1      ca+h    Ca  1.500
P4       0.032184376   21.479508009   31.430841722 XXXX 1      pap     P   1.000
O19      0.133173398   19.990876530   31.017559185 XXXX 1      oap1    O  -0.800
O20     -1.078190795   22.202104362   30.738949404 XXXX 1      oap1    O  -0.800
P5       0.943845774   16.562518736   31.675261587 XXXX 1      pap     P   1.000
O21      1.509784785   17.310215689   32.895594446 XXXX 1      oap1    O  -0.800
O22      0.964758219   15.023081298   31.874467360 XXXX 1      oap1    O  -0.800
P6       3.328055424   19.482261396   33.943185360 XXXX 1      pap     P   1.000
O23      2.195151008   20.015559942   32.988523834 XXXX 1      oap1    O  -0.750
O24      3.773095421   20.699916390   34.740322946 XXXX 1      oap1    O  -0.750
O26     -0.529326540   16.487399819   27.487581492 XXXX 1      oap2    O  -1.100
H2      -0.767314346   15.856157185   28.186365487 XXXX 1      hop     H   0.200
H        2.374728635   17.742186825   34.170027569 XXXX 1      hop     H   0.400
end
O1      15.062036591   28.177551116    0.571402047 XXXX 1      oap1    O  -0.650
O2      14.996854837   33.969800085    1.693929230 XXXX 1      oap1    O  -0.750
O3      14.672011171   29.878685411    5.742625790 XXXX 1      oap1    O  -0.800
O4      13.250966150   25.290108959    4.971548821 XXXX 1      oap1    O  -0.800
O5      17.471501011   26.478458498    8.421904590 XXXX 1      oap1    O  -0.800
O6      13.301971838   29.865084419    7.820381352 XXXX 1      oap1    O  -0.800
O7      12.335556767   25.423234717    7.220787202 XXXX 1      oap1    O  -0.800
O8      15.603324532   27.181092047    9.682583717 XXXX 1      oap1    O  -0.800
O9      15.231784658   28.349201953    3.035670816 XXXX 1      oap1    O  -0.750
O10     14.122669570   32.466065740    3.280512399 XXXX 1      oap1    O  -0.750
Ca1     18.373312822   25.443886956    2.527061077 XXXX 1      ca+h    Ca  1.500
Ca2      9.943295301   29.984063934    5.681321309 XXXX 1      ca+h    Ca  1.500
Ca3     15.586938136   27.507584143    5.439419955 XXXX 1      ca+h    Ca  1.500
P1      16.042285237   28.294110666    1.734596185 XXXX 1      pap     P   1.000
O11     16.755650721   29.685441814    1.702940845 XXXX 1      oap1    O  -0.750
O12     17.131305348   27.229572765    1.759972540 XXXX 1      oap1    O  -0.750
Ca4     15.664026605   30.550431509    3.636239473 XXXX 1      ca+h    Ca  1.500
P2      13.701441642   33.222600143    2.011887100 XXXX 1      pap     P   1.000
O13     13.440013675   32.256041392    0.847715139 XXXX 1      oap1    O  -0.650
O14     12.571001608   34.227223583    2.255243246 XXXX 1      oap1    O  -0.750
Ca5     15.563367414   30.788959423    7.883411918 XXXX 1      ca+h    Ca  1.500
P3      13.257176707   29.544829535    6.313419974 XXXX 1      pap     P   1.000
O15     12.966981713   28.071387465    6.168767410 XXXX 1      oap1    O  -0.800
O16     12.259821499   30.486754226    5.669644757 XXXX 1      oap1    O  -0.800
Ca6     11.387089762   26.627838025    5.213021008 XXXX 1      ca+h    Ca  1.500
P4      13.576246086   25.005932280    6.442100154 XXXX 1      pap     P   1.000
O17     14.805828554   25.802285949    6.983091058 XXXX 1      oap1    O  -0.800
O18     13.877815702   23.471877640    6.577597664 XXXX 1      oap1    O  -0.800
Ca7     16.292748456   24.469740305    8.542953342 XXXX 1      ca+h    Ca  1.500
P5      16.647747143   27.715270955    8.791723716 XXXX 1      pap     P   1.000
O19     15.964593808   28.352416193    7.569848469 XXXX 1      oap1    O  -0.800
O20     17.590168513   28.661250524    9.573492193 XXXX 1      oap1    O  -0.800
O21      9.466819381   24.941885923    6.392998956 XXXX 1      oap2    O  -1.100
H1      10.175714906   24.664095944    5.801092965 XXXX 1      hop     H   0.200
H2      14.031953061   32.681434241    0.286766537 XXXX 1      hop     H   0.400
H3      14.338307077   27.721520034    0.889755594 XXXX 1      hop     H   0.400
end
O1      10.071353241   27.747664652    6.630522959 XXXX 1      oap1    O  -0.800
O2      10.931098051   32.082288066    7.715344029 XXXX 1      oap1    O  -0.800
O3       7.124363125   30.834293954    4.388509379 XXXX 1      oap1    O  -0.800
O4      10.458250584   30.051765518   11.366390319 XXXX 1      oap1    O  -0.800
O5       9.760558369   25.371404740   10.664471283 XXXX 1      oap1    O  -0.800
O6      13.249389365   26.657437563   13.350649417 XXXX 1      oap1    O  -0.800
O7       8.947436768   29.822165794   13.260119730 XXXX 1      oap1    O  -0.800
O8       8.125684224   25.287704157   12.572155139 XXXX 1      oap1    O  -0.800
O9      11.757227787   26.906056927   15.393913184 XXXX 1      oap1    O  -0.800
O10      8.669324574   27.282272706    8.446573401 XXXX 1      oap1    O  -0.800
O11      9.010049723   32.318724672    9.299400306 XXXX 1      oap1    O  -0.800
O12      5.697110304   30.791347766    6.307301737 XXXX 1      oap1    O  -0.800
Ca1     13.514073599   27.485324381    8.543698969 XXXX 1      ca+h    Ca  1.500
Ca2      7.676154619   30.174303143    8.478585003 XXXX 1      ca+h    Ca  1.500
Ca3      5.527343079   29.981958320   11.113977866 XXXX 1      ca+h    Ca  1.500
Ca4     11.491621577   27.246850957   11.363637355 XXXX 1      ca+h    Ca  1.500
Ca5      7.635884933   26.737798666    6.420030168 XXXX 1      ca+h    Ca  1.500
P1      10.002047805   27.922451025    8.164360170 XXXX 1      pap     P   1.000
O13      9.942245443   29.450936309    8.341921738 XXXX 1      oap1    O  -0.800
O14     11.158860846   27.218315040    8.902173365 XXXX 1      oap1    O  -0.800
Ca6     11.725627085   30.768068020    9.473202815 XXXX 1      ca+h    Ca  1.500
P2       9.516606840   32.636386442    7.879303330 XXXX 1      pap     P   1.000
O15      8.624676882   31.915214056    6.859806686 XXXX 1      oap1    O  -0.800
O16      9.493731962   34.178309276    7.716368999 XXXX 1      oap1    O  -0.800
Ca7      6.828383016   32.960734646    5.832132558 XXXX 1      ca+h    Ca  1.500
P3       6.503122142   29.874936232    5.419517103 XXXX 1      pap     P   1.000
O17      7.635172609   29.175249873    6.271686804 XXXX 1      oap1    O  -0.800
O18      5.498629902   28.858752391    4.667926119 XXXX 1      oap1    O  -0.800
Ca8     11.394764417   30.865882015   13.478641955 XXXX 1      ca+h    Ca  1.500
P4       9.101928275   29.414986351   11.798532537 XXXX 1      pap     P   1.000
O19      9.237205667   27.914867089   11.745876758 XXXX 1      oap1    O  -0.800
O20      7.962015553   30.033570165   10.895596454 XXXX 1      oap1    O  -0.800
Ca9      7.572770083   26.618768657   10.578431073 XXXX 1      ca+h    Ca  1.500
P5       9.535029253   24.819118242   12.090099074 XXXX 1      pap     P   1.000
O21     10.567212630   25.476670665   13.085026881 XXXX 1      oap1    O  -0.800
O22      9.639377551   23.290006152   11.980653285 XXXX 1      oap1    O  -0.800
Ca10    12.424410404   24.480040827   14.224248180 XXXX 1      ca+h    Ca  1.500
P6      12.528442669   27.649251020   14.336193845 XXXX 1      pap     P   1.000
O23     11.576115347   28.410720319   13.472711568 XXXX 1      oap1    O  -0.800
O24     13.479618984   28.534282028   15.148449264 XXXX 1      oap1    O  -0.800
O25      4.884073251   24.545305260   12.202495725 XXXX 1      oap2    O  -1.100
O26      6.960220488   24.603636101    9.384528633 XXXX 1      oap2    O  -1.100
H1       5.424586805   24.744429356   11.437439890 XXXX 1      hop     H   0.200
H2       7.661546923   24.283171691    8.813899321 XXXX 1      hop     H   0.200
end
O1       6.051786362   27.526843750   12.155161370 XXXX 1      oap1    O  -0.800
O2       6.928512242   32.245229252   13.285775816 XXXX 1      oap1    O  -0.800
O3       3.145848370   30.748009875   10.141165995 XXXX 1      oap1    O  -0.800
O4       6.350817076   29.906210861   16.921449263 XXXX 1      oap1    O  -0.800
O5       5.578483017   25.283441524   16.186648349 XXXX 1      oap1    O  -0.800
O6       9.160322961   26.674080111   18.960710506 XXXX 1      oap1    O  -0.800
O7       4.917272977   29.865985323   18.896662316 XXXX 1      oap1    O  -0.800
O8       4.001082612   25.250094122   18.072619316 XXXX 1      oap1    O  -0.800
O9       7.560506359   26.782058659   20.925310042 XXXX 1      oap1    O  -0.800
O10      4.432502747   27.406723973   14.183013798 XXXX 1      oap1    O  -0.800
O11      4.994924720   32.084226295   14.731829504 XXXX 1      oap1    O  -0.800
O12      1.762418389   30.725807363   12.291900037 XXXX 1      oap1    O  -0.800
Ca1      9.379342753   27.349464228   14.177512291 XXXX 1      ca+h    Ca  1.500
Ca2      3.519781911   30.046581987   14.088304924 XXXX 1      ca+h    Ca  1.500
Ca3      1.449340938   30.089488540   16.899177077 XXXX 1      ca+h    Ca  1.500
Ca4      7.257232329   27.272949094   16.846366972 XXXX 1      ca+h    Ca  1.500
Ca5      3.606176184   26.582837481   11.987526757 XXXX 1      ca+h    Ca  1.500
P1       5.826777372   27.972499220   13.614013518 XXXX 1      pap     P   1.000
O13      5.771846569   29.457479382   13.593217912 XXXX 1      oap1    O  -0.800
O14      6.976138993   27.372981292   14.533878299 XXXX 1      oap1    O  -0.800
Ca6      7.486439639   30.549943183   14.949287345 XXXX 1      ca+h    Ca  1.500
P2       5.427509898   32.553634827   13.397248986 XXXX 1      pap     P   1.000
O15      4.607231391   31.667074446   12.451113797 XXXX 1      oap1    O  -0.800
O16      5.018900881   34.000722941   13.077602223 XXXX 1      oap1    O  -0.800
Ca7      2.890726289   32.984417120   11.354840542 XXXX 1      ca+h    Ca  1.500
P3       2.364856252   29.886385091   11.132735707 XXXX 1      pap     P   1.000
O17      3.480351606   29.013240548   11.797607419 XXXX 1      oap1    O  -0.800
O18      1.306998652   29.052492239   10.348160022 XXXX 1      oap1    O  -0.800
Ca8      7.188179555   30.686851280   19.034196037 XXXX 1      ca+h    Ca  1.500
P4       4.920554454   29.475385910   17.405564079 XXXX 1      pap     P   1.000
O19      4.807643177   28.029628712   17.322514285 XXXX 1      oap1    O  -0.800
O20      3.815750296   30.188934642   16.622097710 XXXX 1      oap1    O  -0.800
Ca9      3.323834590   26.672584116   16.148728049 XXXX 1      ca+h    Ca  1.500
P5       5.396047770   24.836645728   17.611944279 XXXX 1      pap     P   1.000
O21      6.473011218   25.683444493   18.430093556 XXXX 1      oap1    O  -0.800
O22      5.512661315   23.296942260   17.673716131 XXXX 1      oap1    O  -0.800
Ca10     8.231948679   24.436156813   19.893665578 XXXX 1      ca+h    Ca  1.500
P6       8.375144280   27.591698739   19.940604218 XXXX 1      pap     P   1.000
O23      7.338826499   28.307628251   19.105366244 XXXX 1      oap1    O  -0.800
O24      9.276202195   28.601133545   20.682365625 XXXX 1      oap1    O  -0.800
O25      0.874484729   24.601727916   17.779735553 XXXX 1      oap2    O  -1.100
O26      2.802453260   24.560463775   15.060023156 XXXX 1      oap2    O  -1.100
H1       1.140806398   24.397294778   16.899671490 XXXX 1      hop     H   0.200
H2       3.358571476   24.448661960   14.215294239 XXXX 1      hop     H   0.200
end
O1       1.824799023   27.594866441   17.719844796 XXXX 1      oap1    O  -0.800
O2       2.633272216   32.017767294   18.705520604 XXXX 1      oap1    O  -0.800
O4       2.198147247   29.978408680   22.478607823 XXXX 1      oap1    O  -0.800
O5       1.363209240   25.474743195   21.868580247 XXXX 1      oap1    O  -0.800
O6       5.189072988   26.664790880   24.779808102 XXXX 1      oap1    O  -0.800
O7       0.641560171   29.832324043   24.416635348 XXXX 1      oap1    O  -0.800
O8      -0.191093761   25.314525011   23.872185291 XXXX 1      oap1    O  -0.800
O9       3.464492773   26.716772811   26.517017923 XXXX 1      oap1    O  -0.800
O10      0.320854207   27.314776456   19.723650022 XXXX 1      oap1    O  -0.800
O11      1.016708687   32.005437273   20.460711752 XXXX 1      oap1    O  -0.800
Ca1      5.179912399   27.351417256   19.701744835 XXXX 1      ca+h    Ca  1.500
Ca4      3.043376835   27.279566327   22.497590445 XXXX 1      ca+h    Ca  1.500
P1       1.649831428   27.899083761   19.200139560 XXXX 1      pap     P   1.000
O13      1.639955390   29.449067479   19.326894586 XXXX 1      oap1    O  -0.800
O14      2.793159463   27.293929318   20.070616781 XXXX 1      oap1    O  -0.800
Ca6      3.367146804   30.610530996   20.555967874 XXXX 1      ca+h    Ca  1.500
P2       1.280163501   32.518567050   19.066898968 XXXX 1      pap     P   1.000
O15      0.258028672   31.779671995   18.131131061 XXXX 1      oap1    O  -0.800
O16      1.243061741   34.060344947   18.995483836 XXXX 1      oap1    O  -0.800
Ca8      3.045096057   30.694634441   24.700973072 XXXX 1      ca+h    Ca  1.500
P4       0.815359130   29.492569200   22.958041212 XXXX 1      pap     P   1.000
O19      0.792801086   27.945742544   23.031534090 XXXX 1      oap1    O  -0.800
O20     -0.290942707   30.171414080   22.128379652 XXXX 1      oap1    O  -0.800
P5       1.209836145   24.891360944   23.324536382 XXXX 1      pap     P   1.000
O21      2.284043302   25.512984968   24.199492780 XXXX 1      oap1    O  -0.800
O22      1.244810146   23.362757358   23.355311356 XXXX 1      oap1    O  -0.800
Ca10     4.085204370   24.434767680   25.415291632 XXXX 1      ca+h    Ca  1.500
P6       4.351160265   27.586610704   25.652055134 XXXX 1      pap     P   1.000
O23      3.466485757   28.340475554   24.655040056 XXXX 1      oap1    O  -0.800
O24      5.349083175   28.462086127   26.483094165 XXXX 1      oap1    O  -0.800
O26     -1.384744195   24.541960459   21.089972650 XXXX 1      oap2    O  -1.100
H2      -0.507612898   24.607892191   20.643464054 XXXX 1      hop     H   0.200
end
O1      33.180933163    3.056799372   14.992516256 XXXX 1      oap1    O  -0.800
O2      33.930124112    7.576748889   15.758285542 XXXX 1      oap1    O  -0.800
O3      30.192171832    5.978864120   13.074528611 XXXX 1      oap1    O  -0.800
O4      33.459253089    5.432719816   19.855958150 XXXX 1      oap1    O  -0.800
O7      31.961913386    5.377409660   21.809162185 XXXX 1      oap1    O  -0.800
O10     31.691089466    2.647720837   16.914563224 XXXX 1      oap1    O  -0.800
O11     32.325688620    7.635478615   17.684855627 XXXX 1      oap1    O  -0.800
O12     28.598077876    6.059801435   15.012485969 XXXX 1      oap1    O  -0.800
Ca2     30.535998066    5.607371118   16.880540118 XXXX 1      ca+h    Ca  1.500
Ca3     28.518260147    5.592676293   19.706975501 XXXX 1      ca+h    Ca  1.500
Ca4     34.410163195    2.815597034   19.870985527 XXXX 1      ca+h    Ca  1.500
Ca5     30.578879801    2.071877598   14.820637799 XXXX 1      ca+h    Ca  1.500
P1      32.990088333    3.313900109   16.477797746 XXXX 1      pap     P   1.000
O13     32.849894885    4.854936109   16.563140026 XXXX 1      oap1    O  -0.800
O14     34.207697617    2.774832131   17.344904058 XXXX 1      oap1    O  -0.800
Ca6     34.464500056    6.132795099   17.632955672 XXXX 1      ca+h    Ca  1.500
P2      32.513975284    8.093618753   16.229251937 XXXX 1      pap     P   1.000
O15     31.478202945    7.339041485   15.376079922 XXXX 1      oap1    O  -0.800
O16     32.390430116    9.600100631   16.106794332 XXXX 1      oap1    O  -0.800
Ca7     29.692510031    8.449714600   14.130786585 XXXX 1      ca+h    Ca  1.500
P3      29.408864084    5.173500746   14.070622803 XXXX 1      pap     P   1.000
O17     30.436262474    4.368724758   14.824417468 XXXX 1      oap1    O  -0.800
O18     28.482192588    4.260520753   13.271330149 XXXX 1      oap1    O  -0.800
Ca8     34.429018223    6.333700635   21.802850190 XXXX 1      ca+h    Ca  1.500
P4      32.043873299    4.967289577   20.344111783 XXXX 1      pap     P   1.000
O19     32.221736599    3.442689916   20.288639955 XXXX 1      oap1    O  -0.800
O20     30.954316035    5.582844774   19.515323756 XXXX 1      oap1    O  -0.800
Ca9     30.479723207    2.212682905   18.946212815 XXXX 1      ca+h    Ca  1.500
end
O1      29.001460140    3.175731303   20.538483335 XXXX 1      oap1    O  -0.800
O2      29.760117878    7.787236538   21.360077632 XXXX 1      oap1    O  -0.800
O3      26.191715638    6.347603263   18.654525804 XXXX 1      oap1    O  -0.800
O4      29.400909398    5.404232149   25.248247265 XXXX 1      oap1    O  -0.800
O6      32.330659026    2.200890896   27.790633095 XXXX 1      oap1    O  -0.800
O7      27.940514041    5.501501148   27.301440141 XXXX 1      oap1    O  -0.800
O9      30.563736849    2.500177505   29.386209930 XXXX 1      oap1    O  -0.800
O10     27.428243505    2.854722476   22.412898642 XXXX 1      oap1    O  -0.800
O11     28.144544136    7.695678063   23.156590578 XXXX 1      oap1    O  -0.800
O12     24.680378530    6.096261779   20.629029430 XXXX 1      oap1    O  -0.800
Ca1     32.333121870    2.912711926   22.614572353 XXXX 1      ca+h    Ca  1.500
Ca2     26.366344805    5.695546517   22.471444988 XXXX 1      ca+h    Ca  1.500
Ca3     24.431115318    5.642580876   25.375728423 XXXX 1      ca+h    Ca  1.500
Ca4     30.203873558    3.096723653   25.250330302 XXXX 1      ca+h    Ca  1.500
Ca5     26.558054695    2.236740093   20.258407875 XXXX 1      ca+h    Ca  1.500
P1      28.842139115    3.499508922   22.040215271 XXXX 1      pap     P   1.000
O13     28.707249521    4.985087361   22.248630275 XXXX 1      oap1    O  -0.800
O14     29.969291320    2.834162063   22.902003841 XXXX 1      oap1    O  -0.800
Ca6     30.367283452    6.284607946   23.286573853 XXXX 1      ca+h    Ca  1.500
P2      28.334018569    8.163295902   21.768407881 XXXX 1      pap     P   1.000
O15     27.387604497    7.354924106   20.861011270 XXXX 1      oap1    O  -0.800
O16     28.136809912    9.673667046   21.638553112 XXXX 1      oap1    O  -0.800
Ca7     25.501741476    8.418653037   19.708733121 XXXX 1      ca+h    Ca  1.500
P3      25.380355255    5.368669964   19.482786779 XXXX 1      pap     P   1.000
O17     26.439455180    4.510897950   20.093142006 XXXX 1      oap1    O  -0.800
O18     24.441602138    4.401814015   18.756769237 XXXX 1      oap1    O  -0.800
Ca8     30.372068582    6.433814594   27.342653586 XXXX 1      ca+h    Ca  1.500
P4      28.001741383    5.188438337   25.765908973 XXXX 1      pap     P   1.000
O19     27.870558502    3.689641065   25.612831638 XXXX 1      oap1    O  -0.800
O20     26.910150106    5.883393138   24.922249753 XXXX 1      oap1    O  -0.800
Ca9     26.448597657    2.254173686   24.562387954 XXXX 1      ca+h    Ca  1.500
P6      31.450415936    3.311182391   28.379773399 XXXX 1      pap     P   1.000
O23     30.516455487    4.029619294   27.380702770 XXXX 1      oap1    O  -0.800
O24     32.353137340    4.297551435   29.162332768 XXXX 1      oap1    O  -0.800
end
O1      24.970023287    2.908038006   26.335590722 XXXX 1      oap1    O  -0.800
O2      25.418906138    7.577833218   26.758932289 XXXX 1      oap1    O  -0.800
O3      21.768470546    6.258842956   24.137544072 XXXX 1      oap1    O  -0.800
O4      24.901226618    6.093799229   30.954439103 XXXX 1      oap1    O  -0.800
O6      28.535174021    1.790395893   33.039013045 XXXX 1      oap1    O  -0.750
O7      23.474889975    5.195581437   32.865982008 XXXX 1      oap1    O  -0.800
O9      27.471247358    1.677365444   35.376105866 XXXX 1      oap1    O  -0.650
O10     23.340762012    2.635791711   28.274020282 XXXX 1      oap1    O  -0.800
O11     23.956396196    7.568030162   28.882436150 XXXX 1      oap1    O  -0.800
O12     20.485704229    6.006159573   26.261319135 XXXX 1      oap1    O  -0.800
Ca1     28.245777138    3.147638102   28.121594488 XXXX 1      ca+h    Ca  1.500
Ca2     22.236272826    5.743107868   28.123517901 XXXX 1      ca+h    Ca  1.500
Ca3     20.350639040    5.773057310   30.902160380 XXXX 1      ca+h    Ca  1.500
Ca4     26.609282090    2.841878528   31.292389234 XXXX 1      ca+h    Ca  1.500
Ca5     22.398773828    2.252384033   25.908008601 XXXX 1      ca+h    Ca  1.500
P1      24.662487632    3.273957770   27.820500216 XXXX 1      pap     P   1.000
O13     24.428416042    4.824681546   27.816625752 XXXX 1      oap1    O  -0.800
O14     25.827423255    2.857175961   28.761501927 XXXX 1      oap1    O  -0.800
Ca6     26.274503399    6.163768520   28.781699161 XXXX 1      ca+h    Ca  1.500
P2      24.136684288    8.146641635   27.407846559 XXXX 1      pap     P   1.000
O15     23.041834072    7.458137610   26.584053968 XXXX 1      oap1    O  -0.800
O16     24.026711280    9.681781458   27.315710343 XXXX 1      oap1    O  -0.800
Ca7     21.387898809    8.409944135   25.254790970 XXXX 1      ca+h    Ca  1.500
P3      21.258381010    5.221375755   25.157346100 XXXX 1      pap     P   1.000
O17     22.514556578    4.604871129   25.822184617 XXXX 1      oap1    O  -0.800
O18     20.409710836    4.106704883   24.542216191 XXXX 1      oap1    O  -0.800
Ca8     29.299782906    5.444627885   33.604101241 XXXX 1      ca+h    Ca  1.500
P4      23.836145003    5.073225289   31.346409496 XXXX 1      pap     P   1.000
O19     24.364299834    3.646572169   31.183039398 XXXX 1      oap1    O  -0.800
O20     22.539823786    5.386426518   30.542190282 XXXX 1      oap1    O  -0.800
Ca9     22.339871734    2.426074606   30.326467050 XXXX 1      ca+h    Ca  1.500
P6      28.081294957    2.626253681   34.308256132 XXXX 1      pap     P   1.000
O23     26.975553568    3.603998686   33.905198521 XXXX 1      oap1    O  -0.750
O24     29.273281068    3.456821095   34.815165133 XXXX 1      oap1    O  -0.750
H       27.303603119    2.286155305   36.045534641 XXXX 1      hop     H   0.400
end
O1      20.637188893    2.643587232   32.057076079 XXXX 1      oap1    O  -0.750
O2      21.224086918    7.558218467   32.040970847 XXXX 1      oap1    O  -0.750
O3      18.032614667    6.166379228   29.899870179 XXXX 1      oap1    O  -0.800
O4      22.174163327    2.631983523   33.980744009 XXXX 1      oap1    O  -0.750
O5      20.550442892    8.673117704   34.238168431 XXXX 1      oap1    O  -0.650
O6      16.482987225    6.160082247   31.891494629 XXXX 1      oap1    O  -0.800
Ca1     24.535584873    3.498648187   34.103047610 XXXX 1      ca+h    Ca  1.500
Ca2     18.089041486    4.708076702   33.925330935 XXXX 1      ca+h    Ca  1.500
Ca3     18.296064331    1.955442532   31.682033658 XXXX 1      ca+h    Ca  1.500
P1      20.937986799    3.367621660   33.368427859 XXXX 1      pap     P   1.000
O7      19.676690525    3.132550782   34.211101172 XXXX 1      oap1    O  -0.750
O8      21.221275684    4.858459349   33.095662046 XXXX 1      oap1    O  -0.650
P2      20.044958976    7.940380492   32.967905374 XXXX 1      pap     P   1.000
O9      19.142945541    6.684292589   33.206699987 XXXX 1      oap1    O  -0.750
O10     19.142355620    8.906658898   32.194809823 XXXX 1      oap1    O  -0.750
Ca4     17.299891201    8.526914190   30.689040941 XXXX 1      ca+h    Ca  1.500
P3      17.308030909    5.230615592   30.897137442 XXXX 1      pap     P   1.000
O11     18.358955977    4.322031009   31.568406658 XXXX 1      oap1    O  -0.800
O12     16.346978530    4.365439587   30.051038236 XXXX 1      oap1    O  -0.800
H1      21.296377169    9.146678951   34.053265714 XXXX 1      hop     H   0.400
H2      22.174190752    4.898001581   33.186944551 XXXX 1      hop     H   0.400
end
O1      33.320555265   10.823925098    6.658716670 XXXX 1      oap1    O  -0.800
O2      34.161509772   15.807919654    7.164303190 XXXX 1      oap1    O  -0.800
O3      30.399557881   14.356950579    4.721699082 XXXX 1      oap1    O  -0.800
O4      33.796158745   13.612401829   11.183612170 XXXX 1      oap1    O  -0.800
O5      32.751912404    8.877824147   10.540571779 XXXX 1      oap1    O  -0.800
O7      32.378603584   13.681958043   13.213172291 XXXX 1      oap1    O  -0.800
O8      31.462914974    9.062651314   12.772309546 XXXX 1      oap1    O  -0.800
O10     32.007492914   11.228509869    8.748100068 XXXX 1      oap1    O  -0.800
O11     32.801113991   15.819643807    9.347664981 XXXX 1      oap1    O  -0.800
O12     28.952700589   14.209094211    6.722548036 XXXX 1      oap1    O  -0.800
Ca2     30.926719558   13.526461105    8.433096038 XXXX 1      ca+h    Ca  1.500
Ca3     28.874566312   13.713365085   11.315765441 XXXX 1      ca+h    Ca  1.500
Ca4     34.642781538   11.011023719   11.281054533 XXXX 1      ca+h    Ca  1.500
Ca5     31.010893094   10.189008801    6.258364997 XXXX 1      ca+h    Ca  1.500
P1      33.315261141   11.583237185    8.010734818 XXXX 1      pap     P   1.000
O13     33.318139702   13.114280632    7.847659778 XXXX 1      oap1    O  -0.800
O14     34.418510298   11.082112914    8.950174517 XXXX 1      oap1    O  -0.800
Ca6     34.856509040   14.262349632    9.171907129 XXXX 1      ca+h    Ca  1.500
P2      32.802884201   16.204982618    7.832033899 XXXX 1      pap     P   1.000
O15     31.662089289   15.435344087    7.163714301 XXXX 1      oap1    O  -0.800
O16     32.577048598   17.746465887    7.602595805 XXXX 1      oap1    O  -0.800
Ca7     29.927308255   16.485504754    5.769926108 XXXX 1      ca+h    Ca  1.500
P3      29.672685641   13.427034483    5.642335817 XXXX 1      pap     P   1.000
O17     30.743782313   12.604405106    6.286343460 XXXX 1      oap1    O  -0.800
O18     28.760253017   12.553650262    4.745468132 XXXX 1      oap1    O  -0.800
Ca8     34.739469871   14.373230182   13.479325251 XXXX 1      ca+h    Ca  1.500
P4      32.382551991   13.267313866   11.732674110 XXXX 1      pap     P   1.000
O19     32.349810640   11.726489403   11.610538951 XXXX 1      oap1    O  -0.800
O20     31.171953723   13.827449035   10.912044464 XXXX 1      oap1    O  -0.800
Ca9     30.639510934   10.356158096   10.496748160 XXXX 1      ca+h    Ca  1.500
P5      32.779478649    8.552653344   12.076085869 XXXX 1      pap     P   1.000
O21     33.919005137    9.248113930   12.780518708 XXXX 1      oap1    O  -0.800
O22     32.894364746    7.044784293   12.290213736 XXXX 1      oap1    O  -0.800
O25     29.357051438    8.298907612   10.600148670 XXXX 1      oap2    O  -1.100
O26     31.341522164    8.320543007    7.851726299 XXXX 1      oap2    O  -1.100
H1      28.979366455    8.706666091   11.303394322 XXXX 1      hop     H   0.200
H2      31.079266093    8.555116438    8.760385590 XXXX 1      hop     H   0.200
end
O1      29.216546999   10.980944927   12.347733023 XXXX 1      oap1    O  -0.800
O2      30.119061983   15.636175472   12.926350485 XXXX 1      oap1    O  -0.800
O3      26.491564425   14.326635962   10.414814139 XXXX 1      oap1    O  -0.800
O4      29.678423952   13.627198344   16.945337048 XXXX 1      oap1    O  -0.800
O5      28.608581392    8.865979694   16.219773178 XXXX 1      oap1    O  -0.800
O6      32.468339793   10.416395119   18.926813656 XXXX 1      oap1    O  -0.800
O7      28.172851225   13.984869529   18.938926504 XXXX 1      oap1    O  -0.800
O8      27.245116203    8.962228063   18.305257112 XXXX 1      oap1    O  -0.800
O9      30.995211534   10.462664902   20.954589714 XXXX 1      oap1    O  -0.800
O10     27.705881149   11.134063196   14.274090733 XXXX 1      oap1    O  -0.800
O11     28.557528569   15.713670515   14.841517598 XXXX 1      oap1    O  -0.800
O12     25.015195875   14.298080005   12.365921565 XXXX 1      oap1    O  -0.800
Ca1     32.640927709   11.012948158   14.092771344 XXXX 1      ca+h    Ca  1.500
Ca2     26.833590957   13.753367575   14.113680555 XXXX 1      ca+h    Ca  1.500
Ca3     24.778998183   13.789935447   17.045877274 XXXX 1      ca+h    Ca  1.500
Ca4     30.598500329   11.229013855   17.043443802 XXXX 1      ca+h    Ca  1.500
Ca5     26.762576800   10.161523720   12.082059391 XXXX 1      ca+h    Ca  1.500
P1      29.064487261   11.534195698   13.746386137 XXXX 1      pap     P   1.000
O13     29.095032910   13.083264010   13.700967988 XXXX 1      oap1    O  -0.800
O14     30.200829016   10.979138874   14.703609754 XXXX 1      oap1    O  -0.800
Ca6     30.739820341   14.302587235   14.946517463 XXXX 1      ca+h    Ca  1.500
P2      28.725166861   16.113633182   13.378965729 XXXX 1      pap     P   1.000
O15     27.533917237   15.434454505   12.641763827 XXXX 1      oap1    O  -0.800
O16     28.555256098   17.624797565   13.260705564 XXXX 1      oap1    O  -0.800
Ca7     25.936526955   16.602225561   11.359612181 XXXX 1      ca+h    Ca  1.500
P3      25.682082503   13.384788188   11.301679479 XXXX 1      pap     P   1.000
O17     26.773214371   12.523938930   12.026743957 XXXX 1      oap1    O  -0.800
O18     24.646125754   12.502875936   10.516820031 XXXX 1      oap1    O  -0.800
Ca8     30.512019270   14.610633342   19.100545279 XXXX 1      ca+h    Ca  1.500
P4      28.206239611   13.375098680   17.538900095 XXXX 1      pap     P   1.000
O19     28.106767722   11.827932181   17.615162397 XXXX 1      oap1    O  -0.800
O20     27.123572693   13.972647474   16.611975041 XXXX 1      oap1    O  -0.800
Ca9     26.585517240   10.387995424   16.220291868 XXXX 1      ca+h    Ca  1.500
P5      28.593552874    8.486486552   17.721028837 XXXX 1      pap     P   1.000
O21     29.639216638    9.322328693   18.420735213 XXXX 1      oap1    O  -0.800
O22     28.874605399    7.019137415   17.866471628 XXXX 1      oap1    O  -0.800
Ca10    31.438262711    8.180118373   19.749367074 XXXX 1      ca+h    Ca  1.500
P6      31.713580072   11.348433052   19.963261233 XXXX 1      pap     P   1.000
O23     30.617960597   12.117889492   19.251971266 XXXX 1      oap1    O  -0.800
O24     32.697021811   12.295541026   20.709133014 XXXX 1      oap1    O  -0.800
O25     25.245485583    8.416192082   16.225040287 XXXX 1      oap2    O  -1.100
O26     27.454847220    8.110157792   13.352061527 XXXX 1      oap2    O  -1.100
H1      24.337610070    8.345274981   16.522584754 XXXX 1      hop     H   0.200
H2      26.830832546    8.025005314   14.058859451 XXXX 1      hop     H   0.200
end
O1      25.035653553   11.231134482   17.766098019 XXXX 1      oap1    O  -0.800
O2      25.855577035   15.846251946   18.408116419 XXXX 1      oap1    O  -0.800
O3      22.287877219   14.502079085   15.892846409 XXXX 1      oap1    O  -0.800
O4      25.469674900   13.633820328   22.517440988 XXXX 1      oap1    O  -0.800
O5      24.422633146    8.866836917   21.796272605 XXXX 1      oap1    O  -0.800
O6      28.415238959   10.314389545   24.816243037 XXXX 1      oap1    O  -0.800
O7      24.039417107   13.504201348   24.501908200 XXXX 1      oap1    O  -0.800
O8      23.236071322    8.979660375   23.906330707 XXXX 1      oap1    O  -0.800
O9      26.838419500   10.562193279   26.563203671 XXXX 1      oap1    O  -0.800
O10     23.621620167   11.240509230   19.821357433 XXXX 1      oap1    O  -0.800
O11     24.289818050   15.773371929   20.399505856 XXXX 1      oap1    O  -0.800
O12     20.990745077   14.428613219   17.901035732 XXXX 1      oap1    O  -0.800
Ca1     28.524441690   10.928717912   19.779907056 XXXX 1      ca+h    Ca  1.500
Ca2     22.589009480   13.859671156   19.669592371 XXXX 1      ca+h    Ca  1.500
Ca3     20.538654122   13.727539805   22.538585838 XXXX 1      ca+h    Ca  1.500
Ca4     26.383078994   11.132601155   22.427810174 XXXX 1      ca+h    Ca  1.500
Ca5     22.662830627   10.229339205   17.533278665 XXXX 1      ca+h    Ca  1.500
P1      25.000480143   11.620175848   19.267481653 XXXX 1      pap     P   1.000
O13     25.048393281   13.160507812   19.365783336 XXXX 1      oap1    O  -0.800
O14     26.138058565   10.872629163   20.009611682 XXXX 1      oap1    O  -0.800
Ca6     26.576227549   14.493755351   20.453555230 XXXX 1      ca+h    Ca  1.500
P2      24.502257776   16.318136878   18.972563429 XXXX 1      pap     P   1.000
O15     23.434815397   15.631386623   18.152197890 XXXX 1      oap1    O  -0.800
O16     24.471428251   17.850698779   18.926435609 XXXX 1      oap1    O  -0.800
Ca7     21.778698664   16.771675303   16.814245243 XXXX 1      ca+h    Ca  1.500
P3      21.556712743   13.462513018   16.796152007 XXXX 1      pap     P   1.000
O17     22.531166378   12.586839325   17.540188018 XXXX 1      oap1    O  -0.800
O18     20.393691584   12.642167592   16.111595734 XXXX 1      oap1    O  -0.800
Ca8     26.514103647   14.414875598   24.698791185 XXXX 1      ca+h    Ca  1.500
P4      24.120549029   13.194552603   23.022874118 XXXX 1      pap     P   1.000
O19     24.094911815   11.663883078   22.882268872 XXXX 1      oap1    O  -0.800
O20     22.983982932   13.837683726   22.195888739 XXXX 1      oap1    O  -0.800
Ca9     22.401995612   10.296088456   21.712365304 XXXX 1      ca+h    Ca  1.500
P5      24.548414962    8.574135947   23.270511175 XXXX 1      pap     P   1.000
O21     25.609827685    9.488255504   23.908355344 XXXX 1      oap1    O  -0.800
O22     24.737477199    7.091075859   23.480607649 XXXX 1      oap1    O  -0.800
Ca10    27.256636063    8.322797522   25.281585813 XXXX 1      ca+h    Ca  1.500
P6      27.684457986   11.365857239   25.579998561 XXXX 1      pap     P   1.000
O23     26.777886501   12.091612795   24.542527657 XXXX 1      oap1    O  -0.800
O24     28.614318807   12.314740900   26.341580065 XXXX 1      oap1    O  -0.800
O25     21.108572636    8.203478556   21.947955358 XXXX 1      oap2    O  -1.100
O26     23.139060411    8.360628021   18.950590308 XXXX 1      oap2    O  -1.100
H1      20.333546994    8.106589925   22.511812757 XXXX 1      hop     H   0.200
H2      22.856653431    8.710184748   19.818148315 XXXX 1      hop     H   0.200
end
O1      20.890765521   11.055768511   23.381372822 XXXX 1      oap1    O  -0.800
O2      21.827735222   15.826965020   24.258794714 XXXX 1      oap1    O  -0.800
O3      18.371734823   14.210123084   21.436513567 XXXX 1      oap1    O  -0.800
O4      21.217595192   13.666370347   28.082549339 XXXX 1      oap1    O  -0.800
O5      20.252930340    8.821969990   27.358468541 XXXX 1      oap1    O  -0.800
O6      24.137584906   10.393759735   30.240452574 XXXX 1      oap1    O  -0.800
O7      19.956908775   13.463173963   30.170168878 XXXX 1      oap1    O  -0.800
O8      19.127326839    9.091896175   29.532153374 XXXX 1      oap1    O  -0.800
O9      22.426298022   10.410482531   32.111863565 XXXX 1      oap1    O  -0.800
O10     19.494122164   11.096604256   25.430305109 XXXX 1      oap1    O  -0.800
O11     20.146171658   15.647027018   25.978599190 XXXX 1      oap1    O  -0.800
O12     16.717909807   14.212592337   23.355023775 XXXX 1      oap1    O  -0.800
Ca1     24.420415536   10.972416883   25.281879208 XXXX 1      ca+h    Ca  1.500
Ca2     18.571423473   13.755196641   25.388934768 XXXX 1      ca+h    Ca  1.500
Ca3     16.259228073   13.771566937   27.999505422 XXXX 1      ca+h    Ca  1.500
Ca4     22.163607400   11.015088335   28.044762553 XXXX 1      ca+h    Ca  1.500
Ca5     18.526724710   10.210560123   23.224283810 XXXX 1      ca+h    Ca  1.500
P1      20.831360254   11.591824275   24.864616242 XXXX 1      pap     P   1.000
O13     20.878791382   13.104136460   24.881999148 XXXX 1      oap1    O  -0.800
O14     21.960483122   10.967754931   25.694861072 XXXX 1      oap1    O  -0.800
Ca6     22.454940698   14.398580705   26.078621628 XXXX 1      ca+h    Ca  1.500
P2      20.362890253   16.211445609   24.618044082 XXXX 1      pap     P   1.000
O15     19.363426776   15.560078903   23.668561655 XXXX 1      oap1    O  -0.800
O16     20.184579039   17.716952837   24.520377493 XXXX 1      oap1    O  -0.800
Ca7     17.700498629   16.584143960   22.489572580 XXXX 1      ca+h    Ca  1.500
P3      17.461737803   13.354042191   22.324934718 XXXX 1      pap     P   1.000
O17     18.419558609   12.560417485   23.206691185 XXXX 1      oap1    O  -0.800
O18     16.431126088   12.518215531   21.586250687 XXXX 1      oap1    O  -0.800
Ca8     22.354815618   14.252814464   30.314597741 XXXX 1      ca+h    Ca  1.500
P4      19.909188646   13.160552286   28.688615355 XXXX 1      pap     P   1.000
O19     19.885602537   11.613738009   28.482704975 XXXX 1      oap1    O  -0.800
O20     18.714254132   13.818637829   27.952877529 XXXX 1      oap1    O  -0.800
Ca9     18.345595924   10.392511928   27.236568478 XXXX 1      ca+h    Ca  1.500
P5      20.297946619    8.494747260   28.794254077 XXXX 1      pap     P   1.000
O21     21.586822090    9.120857722   29.347282043 XXXX 1      oap1    O  -0.800
O22     20.350334825    6.945876654   28.949222883 XXXX 1      oap1    O  -0.800
Ca10    23.428804286    8.263601862   31.123405248 XXXX 1      ca+h    Ca  1.500
P6      23.195759803   11.255000648   31.047120386 XXXX 1      pap     P   1.000
O23     22.101053779   11.810486288   30.157583316 XXXX 1      oap1    O  -0.800
O24     23.909624684   12.491257447   31.587592354 XXXX 1      oap1    O  -0.800
O25     16.920779794    8.255833252   27.571598649 XXXX 1      oap2    O  -1.100
O26     19.007077298    8.262197498   24.506166095 XXXX 1      oap2    O  -1.100
H1      16.350352798    8.968158932   27.911579852 XXXX 1      hop     H   0.200
H2      18.814050000    8.417673641   25.417074343 XXXX 1      hop     H   0.200
end
O1      16.835313296   11.049836910   28.941181707 XXXX 1      oap1    O  -0.800
O2      17.568258210   15.953125774   29.848641127 XXXX 1      oap1    O  -0.800
O3      14.137020934   13.899972331   26.918446189 XXXX 1      oap1    O  -0.800
O4      15.079553818   13.208755269   32.865926796 XXXX 1      oap1    O  -0.750
O5      12.972860319    8.583775609   32.864610025 XXXX 1      oap1    O  -0.750
O6      15.996937270   12.986614043   35.222685145 XXXX 1      oap1    O  -0.650
O7      13.604594064    9.423321285   35.029958362 XXXX 1      oap1    O  -0.650
O8      15.695960855   10.671851022   31.086657792 XXXX 1      oap1    O  -0.800
O9      15.912374981   15.596185939   31.652924250 XXXX 1      oap1    O  -0.800
O10     12.647149877   14.323296787   28.933840054 XXXX 1      oap1    O  -0.800
Ca1     20.232200926   10.745849200   30.964007344 XXXX 1      ca+h    Ca  1.500
Ca2     14.244688507   14.059730282   30.832983595 XXXX 1      ca+h    Ca  1.500
Ca3     11.882499347   13.756740478   33.863699682 XXXX 1      ca+h    Ca  1.500
Ca4     14.362625695   10.093312012   28.959504653 XXXX 1      ca+h    Ca  1.500
P1      16.756657923   11.577283140   30.381426367 XXXX 1      pap     P   1.000
O11     16.269689038   13.045730166   30.314352381 XXXX 1      oap1    O  -0.800
O12     18.047328925   11.616201700   31.160559874 XXXX 1      oap1    O  -0.800
Ca5     18.068259950   14.096601925   31.489713978 XXXX 1      ca+h    Ca  1.500
P2      16.112843288   16.210884179   30.264571453 XXXX 1      pap     P   1.000
O13     15.125015903   15.557020543   29.295882124 XXXX 1      oap1    O  -0.800
O14     15.928953642   17.747811026   30.268970095 XXXX 1      oap1    O  -0.800
Ca6     13.305979724   16.718540296   28.303125966 XXXX 1      ca+h    Ca  1.500
P3      13.210953240   13.251014622   27.963365276 XXXX 1      pap     P   1.000
O15     14.077386969   12.310818825   28.756693978 XXXX 1      oap1    O  -0.800
O16     12.102241491   12.410068095   27.305282334 XXXX 1      oap1    O  -0.800
P4      14.772783569   13.244684913   34.364719411 XXXX 1      pap     P   1.000
O17     13.653728538   12.199136417   34.520390531 XXXX 1      oap1    O  -0.750
O18     14.105947496   14.621299527   34.647720370 XXXX 1      oap1    O  -0.750
Ca7     14.113055959   10.657227222   32.716114326 XXXX 1      ca+h    Ca  1.500
P5      12.656568718    8.441169166   34.350234652 XXXX 1      pap     P   1.000
O19     12.901016907    6.973966147   34.702305403 XXXX 1      oap1    O  -0.750
O20     11.195929805    8.772034835   34.612620578 XXXX 1      oap1    O  -0.750
O21     14.923345391    8.057826454   30.379096069 XXXX 1      oap2    O  -1.100
H1      14.179566151    8.163286572   30.950931684 XXXX 1      hop     H   0.200
H2      16.740013344   13.302331132   34.696345974 XXXX 1      hop     H   0.400
H3      13.068650467   10.154578355   35.375314519 XXXX 1      hop     H   0.400
end
O1      29.357714668   18.906918889    3.842686301 XXXX 1      oap1    O  -0.800
O2      30.705262611   24.509621284    5.138707392 XXXX 1      oap1    O  -0.800
O3      27.182264664   22.682523344    1.787131957 XXXX 1      oap1    O  -0.750
O4      30.058266648   21.673431149    8.335520998 XXXX 1      oap1    O  -0.800
O5      28.720927984   17.029967173    7.859295315 XXXX 1      oap1    O  -0.800
O6      32.864715032   18.485796106   10.692494694 XXXX 1      oap1    O  -0.800
O7      28.664938483   21.953519706   10.348309391 XXXX 1      oap1    O  -0.800
O8      27.681923924   17.200588722   10.019658903 XXXX 1      oap1    O  -0.800
O9      31.180372352   18.698991214   12.434253771 XXXX 1      oap1    O  -0.800
O10     28.175310454   19.544259336    5.924358194 XXXX 1      oap1    O  -0.800
O11     28.755109047   23.595735412    6.324306992 XXXX 1      oap1    O  -0.800
O12     25.708369958   22.774463269    3.760368953 XXXX 1      oap1    O  -0.750
Ca1     33.017054422   18.813286652    5.490361373 XXXX 1      ca+h    Ca  1.500
Ca2     27.383656082   21.779094502    5.734663094 XXXX 1      ca+h    Ca  1.500
Ca3     25.073758851   21.869271300    8.551129594 XXXX 1      ca+h    Ca  1.500
Ca4     30.938669817   19.293297393    8.373412795 XXXX 1      ca+h    Ca  1.500
Ca5     27.193849598   18.322256053    3.562730867 XXXX 1      ca+h    Ca  1.500
P1      29.522673664   19.635170882    5.195957315 XXXX 1      pap     P   1.000
O13     29.751996582   21.115641048    5.026646483 XXXX 1      oap1    O  -0.800
O14     30.674095764   19.046253823    6.017411382 XXXX 1      oap1    O  -0.800
Ca6     31.314629404   22.390423364    6.351595674 XXXX 1      ca+h    Ca  1.500
P2      29.166554548   24.297436350    5.002221853 XXXX 1      pap     P   1.000
O15     28.780722046   23.406664261    3.831380850 XXXX 1      oap1    O  -0.800
O16     28.439078118   25.602049204    4.790107845 XXXX 1      oap1    O  -0.800
Ca7     26.968357797   24.767933682    3.000030871 XXXX 1      ca+h    Ca  1.500
P3      26.191421814   21.838484613    2.637776888 XXXX 1      pap     P   1.000
O17     27.032387127   20.754357844    3.261023736 XXXX 1      oap1    O  -0.750
O18     24.969466305   21.317071010    1.849625463 XXXX 1      oap1    O  -0.650
Ca8     30.994929987   22.688022560   10.386961757 XXXX 1      ca+h    Ca  1.500
P4      28.703478698   21.329495212    8.956327582 XXXX 1      pap     P   1.000
O19     28.662895978   19.810931555    9.064189968 XXXX 1      oap1    O  -0.800
O20     27.512154878   21.942318735    8.075331621 XXXX 1      oap1    O  -0.800
Ca9     26.971926514   18.579090570    7.719609059 XXXX 1      ca+h    Ca  1.500
P5      28.982742660   16.667239098    9.359643047 XXXX 1      pap     P   1.000
O21     30.114683870   17.531124226    9.932838465 XXXX 1      oap1    O  -0.800
O22     29.161255000   15.110387607    9.497446411 XXXX 1      oap1    O  -0.800
Ca10    31.764660994   16.288060191   11.363935711 XXXX 1      ca+h    Ca  1.500
P6      32.044482655   19.541419209   11.503265671 XXXX 1      pap     P   1.000
O23     31.003966947   20.211338756   10.594920106 XXXX 1      oap1    O  -0.800
O24     32.974929744   20.557544728   12.199927369 XXXX 1      oap1    O  -0.800
O25     25.460260864   16.379386566    7.897916709 XXXX 1      oap2    O  -1.100
O26     27.570745048   16.524168095    5.120279287 XXXX 1      oap2    O  -1.100
H1      25.185438178   15.849246075    8.656039211 XXXX 1      hop     H   0.200
H2      27.079450446   16.629601032    5.894774823 XXXX 1      hop     H   0.200
H       24.227127270   21.897782464    2.009954494 XXXX 1      hop     H   0.400
end
O1      25.280818050   19.292780644    9.433763130 XXXX 1      oap1    O  -0.800
O2      26.459435892   23.967883575   10.042434293 XXXX 1      oap1    O  -0.800
O3      22.784187466   22.402930703    7.270791026 XXXX 1      oap1    O  -0.800
O4      25.990434958   21.461423636   13.970407522 XXXX 1      oap1    O  -0.800
O5      24.723392223   16.965437475   13.369764311 XXXX 1      oap1    O  -0.800
O6      28.679913208   18.681388725   15.976052084 XXXX 1      oap1    O  -0.800
O7      24.499708362   21.977998121   15.935063293 XXXX 1      oap1    O  -0.800
O8      23.634546038   17.084517297   15.566083782 XXXX 1      oap1    O  -0.800
O9      27.264347913   18.551554952   18.101726044 XXXX 1      oap1    O  -0.800
O10     23.950712902   19.388320105   11.550110664 XXXX 1      oap1    O  -0.800
O11     24.918821841   23.843278559   11.971497095 XXXX 1      oap1    O  -0.800
O12     21.219555281   22.633853007    9.235899093 XXXX 1      oap1    O  -0.800
Ca1     28.993660405   19.157195860   11.346428545 XXXX 1      ca+h    Ca  1.500
Ca2     23.231978842   21.858794511   11.376149401 XXXX 1      ca+h    Ca  1.500
Ca3     21.056198805   21.951581262   14.138735748 XXXX 1      ca+h    Ca  1.500
Ca4     27.001947291   19.269096787   14.079668715 XXXX 1      ca+h    Ca  1.500
Ca5     23.073919290   18.268293011    9.149941056 XXXX 1      ca+h    Ca  1.500
P1      25.345859948   19.647776111   10.928905330 XXXX 1      pap     P   1.000
O13     25.494629350   21.189722416   10.969911134 XXXX 1      oap1    O  -0.800
O14     26.541528202   18.924867155   11.640630907 XXXX 1      oap1    O  -0.800
Ca6     27.079940564   22.516574213   11.935784038 XXXX 1      ca+h    Ca  1.500
P2      25.091763320   24.415763848   10.510134945 XXXX 1      pap     P   1.000
O15     24.096170826   23.678539541    9.632739340 XXXX 1      oap1    O  -0.800
O16     24.956546994   25.951810148   10.479408279 XXXX 1      oap1    O  -0.800
Ca7     22.268009779   24.594321641    8.367449747 XXXX 1      ca+h    Ca  1.500
P3      21.939521613   21.640534857    8.317191126 XXXX 1      pap     P   1.000
O17     22.915913183   20.768766487    9.191546914 XXXX 1      oap1    O  -0.800
O18     20.870364882   20.773919539    7.618005085 XXXX 1      oap1    O  -0.800
Ca8     26.815562215   22.639892027   16.224880564 XXXX 1      ca+h    Ca  1.500
P4      24.542280407   21.283656648   14.553960969 XXXX 1      pap     P   1.000
O19     24.144345002   19.854114208   14.755024152 XXXX 1      oap1    O  -0.800
O20     23.524767469   21.925312126   13.589224076 XXXX 1      oap1    O  -0.800
Ca9     22.739759995   18.484855760   13.347925625 XXXX 1      ca+h    Ca  1.500
P5      24.968914095   16.682775405   14.899551422 XXXX 1      pap     P   1.000
O21     26.024994698   17.594280836   15.568601352 XXXX 1      oap1    O  -0.800
O22     25.221995868   15.170105355   15.130199683 XXXX 1      oap1    O  -0.800
Ca10    27.542213274   16.453447738   16.898707356 XXXX 1      ca+h    Ca  1.500
P6      27.966545106   19.456118614   17.149324861 XXXX 1      pap     P   1.000
O23     26.881114959   20.305703195   16.446916699 XXXX 1      oap1    O  -0.800
O24     28.848201702   20.401374690   18.007324879 XXXX 1      oap1    O  -0.800
O25     21.429147114   16.432275558   13.300190251 XXXX 1      oap2    O  -1.100
O26     23.728248498   16.424985691   10.464028525 XXXX 1      oap2    O  -1.100
H1      20.680036358   16.424137129   13.814422810 XXXX 1      hop     H   0.200
H2      23.024868159   16.461657319   11.170848040 XXXX 1      hop     H   0.200
end
O1      21.272800261   19.107191008   15.111319349 XXXX 1      oap1    O  -0.800
O2      22.069571277   23.930494368   15.410362766 XXXX 1      oap1    O  -0.800
O3      18.351901010   22.672122503   12.952249307 XXXX 1      oap1    O  -0.800
O4      21.753121104   21.792438055   19.692328945 XXXX 1      oap1    O  -0.800
O5      20.776215659   17.260983034   18.969477323 XXXX 1      oap1    O  -0.800
O6      24.647090254   18.551861862   21.797261634 XXXX 1      oap1    O  -0.800
O7      20.331315709   21.859931553   21.677950959 XXXX 1      oap1    O  -0.800
O8      19.472216055   17.429128964   21.088876296 XXXX 1      oap1    O  -0.800
O9      22.972451693   18.633488275   23.718660970 XXXX 1      oap1    O  -0.800
O10     19.766187605   19.351804210   17.085801839 XXXX 1      oap1    O  -0.800
O11     20.936320591   24.017374862   17.697618403 XXXX 1      oap1    O  -0.800
O12     17.064410040   22.447070724   15.062625141 XXXX 1      oap1    O  -0.800
Ca1     24.793414572   19.100257479   16.897379900 XXXX 1      ca+h    Ca  1.500
Ca2     18.868555039   21.909669663   16.961556359 XXXX 1      ca+h    Ca  1.500
Ca3     16.788800474   21.922103534   19.700860543 XXXX 1      ca+h    Ca  1.500
Ca4     22.626620282   19.303335307   19.639909946 XXXX 1      ca+h    Ca  1.500
Ca5     18.882251735   18.590838499   14.574400082 XXXX 1      ca+h    Ca  1.500
P1      21.193976948   19.702845193   16.518594324 XXXX 1      pap     P   1.000
O13     21.307095374   21.213958294   16.392290807 XXXX 1      oap1    O  -0.800
O14     22.356201588   19.130249581   17.372594769 XXXX 1      oap1    O  -0.800
Ca6     22.799733529   22.607496909   17.755076166 XXXX 1      ca+h    Ca  1.500
P2      20.798428856   24.399872795   16.179458116 XXXX 1      pap     P   1.000
O15     19.657580515   23.622998364   15.473820052 XXXX 1      oap1    O  -0.800
O16     20.632914248   25.918338231   15.973833513 XXXX 1      oap1    O  -0.800
Ca7     17.962830761   24.755947252   14.140581158 XXXX 1      ca+h    Ca  1.500
P3      17.803880014   21.632126837   13.961179997 XXXX 1      pap     P   1.000
O17     18.952768084   20.891202968   14.653340410 XXXX 1      oap1    O  -0.800
O18     16.951141940   20.641272269   13.206818984 XXXX 1      oap1    O  -0.800
Ca8     22.791169675   22.514617954   22.032803689 XXXX 1      ca+h    Ca  1.500
P4      20.397661549   21.424675504   20.213468785 XXXX 1      pap     P   1.000
O19     20.258237022   19.887654006   20.082227245 XXXX 1      oap1    O  -0.800
O20     19.287379005   22.063950347   19.287756039 XXXX 1      oap1    O  -0.800
Ca9     18.592176245   18.447893553   18.965972115 XXXX 1      ca+h    Ca  1.500
P5      20.712467423   16.800159238   20.471871363 XXXX 1      pap     P   1.000
O21     21.831580689   17.472773879   21.208777361 XXXX 1      oap1    O  -0.800
O22     20.832930458   15.302272346   20.704142342 XXXX 1      oap1    O  -0.800
Ca10    23.533953468   16.333272707   22.535290235 XXXX 1      ca+h    Ca  1.500
P6      23.797506886   19.478470171   22.753015679 XXXX 1      pap     P   1.000
O23     22.798784873   20.202170889   21.892028383 XXXX 1      oap1    O  -0.800
O24     24.759990501   20.522713010   23.498208801 XXXX 1      oap1    O  -0.800
O25     17.492854632   16.354033064   18.782633830 XXXX 1      oap2    O  -1.100
O26     19.475491968   16.498405818   15.982374568 XXXX 1      oap2    O  -1.100
H1      16.877365647   16.127396562   19.451155898 XXXX 1      hop     H   0.200
H2      18.675378070   16.848420081   16.326220521 XXXX 1      hop     H   0.200
end
O1      17.129026645   19.237943546   20.671345300 XXXX 1      oap1    O  -0.800
O2      17.902863699   23.733370717   21.009975718 XXXX 1      oap1    O  -0.800
O3      14.375031437   22.400730395   18.431770183 XXXX 1      oap1    O  -0.800
O4      17.544091994   21.659098032   25.156228345 XXXX 1      oap1    O  -0.800
O5      16.676700421   17.194761752   24.561184618 XXXX 1      oap1    O  -0.800
O6      20.437930773   18.444595561   27.421057373 XXXX 1      oap1    O  -0.800
O7      16.000164238   22.003738748   27.118308338 XXXX 1      oap1    O  -0.800
O8      15.123239505   17.008750601   26.525077562 XXXX 1      oap1    O  -0.800
O9      18.781895196   18.496164244   29.195832084 XXXX 1      oap1    O  -0.800
O10     15.724135553   19.300808673   22.725211128 XXXX 1      oap1    O  -0.800
O11     16.640065376   23.914254054   23.179743502 XXXX 1      oap1    O  -0.800
O12     12.884649441   22.479559404   20.424215751 XXXX 1      oap1    O  -0.800
Ca1     20.510230651   19.192133189   22.370826732 XXXX 1      ca+h    Ca  1.500
Ca2     14.739127240   21.959212583   22.570865672 XXXX 1      ca+h    Ca  1.500
Ca3     12.678492703   21.754717430   25.336916503 XXXX 1      ca+h    Ca  1.500
Ca4     18.552941276   19.175750739   25.305247218 XXXX 1      ca+h    Ca  1.500
Ca5     14.872848526   18.452038358   20.369220255 XXXX 1      ca+h    Ca  1.500
P1      17.058240011   19.704082537   22.122505490 XXXX 1      pap     P   1.000
O13     17.187287990   21.261106618   22.131183013 XXXX 1      oap1    O  -0.800
O14     18.185800706   18.981291872   22.971510059 XXXX 1      oap1    O  -0.800
Ca6     18.758649493   22.747564010   23.364065194 XXXX 1      ca+h    Ca  1.500
P2      16.685236911   24.346286573   21.684019290 XXXX 1      pap     P   1.000
O15     15.467149482   23.733234734   21.014425282 XXXX 1      oap1    O  -0.800
O16     16.673545329   25.849178213   21.625131355 XXXX 1      oap1    O  -0.800
Ca7     13.834875042   24.721912963   19.708571479 XXXX 1      ca+h    Ca  1.500
P3      13.686214762   21.577997100   19.490223543 XXXX 1      pap     P   1.000
O17     14.712856072   20.891985545   20.400445796 XXXX 1      oap1    O  -0.800
O18     12.790947967   20.519963733   18.724449421 XXXX 1      oap1    O  -0.800
Ca8     18.471110379   22.880774988   27.510285397 XXXX 1      ca+h    Ca  1.500
P4      16.185163045   21.320942472   25.721861035 XXXX 1      pap     P   1.000
O19     16.128789319   19.789651213   25.924393093 XXXX 1      oap1    O  -0.800
O20     15.041827579   21.811041844   24.841324166 XXXX 1      oap1    O  -0.800
Ca9     14.459760306   18.537828598   24.597147519 XXXX 1      ca+h    Ca  1.500
P5      16.532988423   16.697393424   26.043997513 XXXX 1      pap     P   1.000
O21     17.491034328   17.534159117   26.921485592 XXXX 1      oap1    O  -0.800
O22     16.798290289   15.176035145   26.233555510 XXXX 1      oap1    O  -0.800
Ca10    19.300992502   16.228658743   28.089558500 XXXX 1      ca+h    Ca  1.500
P6      19.694629973   19.447229756   28.363492022 XXXX 1      pap     P   1.000
O23     18.803361226   20.417687698   27.513367985 XXXX 1      oap1    O  -0.800
O24     20.656464486   20.154775838   29.251881185 XXXX 1      oap1    O  -0.800
O25     13.807634886   16.407844445   23.642110623 XXXX 1      oap2    O  -1.100
O26     15.483908794   16.326836724   21.423655126 XXXX 1      oap2    O  -1.100
H1      14.493568650   16.410298574   23.031768939 XXXX 1      hop     H   0.200
H2      15.020980407   16.259111306   22.266056165 XXXX 1      hop     H   0.200
end
O1      12.902971310   19.423248696   26.161559565 XXXX 1      oap1    O  -0.800
O2      13.938034400   23.808100252   26.899942806 XXXX 1      oap1    O  -0.800
O3      10.262917764   22.415278632   24.250449938 XXXX 1      oap1    O  -0.800
O4      13.432269950   21.382834775   30.491948202 XXXX 1      oap1    O  -0.800
O5      12.682978506   17.167669097   30.489972192 XXXX 1      oap1    O  -0.800
O6      15.941430805   18.565063653   32.913865178 XXXX 1      oap1    O  -0.750
O7      12.291033232   22.225892635   32.614408939 XXXX 1      oap1    O  -0.800
O8      10.989728292   17.019518804   32.234405187 XXXX 1      oap1    O  -0.800
O9      15.419690380   18.383016224   35.311540906 XXXX 1      oap1    O  -0.650
O10     11.663996520   18.857394714   28.204463364 XXXX 1      oap1    O  -0.800
O11     12.326618118   23.902246241   28.760373182 XXXX 1      oap1    O  -0.800
O12      8.701599173   22.512767604   26.148039075 XXXX 1      oap1    O  -0.800
Ca1     16.533607682   19.163791146   28.232692769 XXXX 1      ca+h    Ca  1.500
Ca2     10.502113133   22.117938031   28.202748688 XXXX 1      ca+h    Ca  1.500
Ca3      8.713764912   21.639280576   31.182987738 XXXX 1      ca+h    Ca  1.500
Ca4     14.267993735   19.183506752   30.955717080 XXXX 1      ca+h    Ca  1.500
Ca5     10.591302495   18.505188146   25.976035018 XXXX 1      ca+h    Ca  1.500
P1      12.903868169   19.682330390   27.654156415 XXXX 1      pap     P   1.000
O13     12.749280004   21.207719714   27.882531518 XXXX 1      oap1    O  -0.800
O14     14.131054852   19.094710379   28.320543495 XXXX 1      oap1    O  -0.800
Ca6     14.649984829   22.610218547   28.880276473 XXXX 1      ca+h    Ca  1.500
P2      12.534250520   24.293943716   27.306205606 XXXX 1      pap     P   1.000
O15     11.541465725   23.616367549   26.387459701 XXXX 1      oap1    O  -0.800
O16     12.425185082   25.869906479   27.252649761 XXXX 1      oap1    O  -0.800
Ca7      9.947392753   24.674736369   25.272454272 XXXX 1      ca+h    Ca  1.500
P3       9.500097278   21.557427528   25.223818548 XXXX 1      pap     P   1.000
O17     10.461541528   20.764722243   26.091607929 XXXX 1      oap1    O  -0.800
O18      8.488281541   20.672902391   24.465995912 XXXX 1      oap1    O  -0.800
Ca8     17.974155756   22.068384838   33.594585996 XXXX 1      ca+h    Ca  1.500
P4      12.115154460   21.378736807   31.311692166 XXXX 1      pap     P   1.000
O19     11.873056505   19.915849015   31.709744697 XXXX 1      oap1    O  -0.800
O20     10.919942891   21.930855083   30.471527751 XXXX 1      oap1    O  -0.800
Ca9     10.326546038   18.609069684   30.321345858 XXXX 1      ca+h    Ca  1.500
P5      12.446393754   16.650820226   31.923628824 XXXX 1      pap     P   1.000
O21     13.453491381   17.350384337   32.816203681 XXXX 1      oap1    O  -0.800
O22     12.653778307   15.167215409   31.949811780 XXXX 1      oap1    O  -0.800
Ca10    15.370549953   16.410487278   33.842010089 XXXX 1      ca+h    Ca  1.500
P6      15.617219065   19.356439100   34.166471329 XXXX 1      pap     P   1.000
O23     14.375833417   20.236106314   33.812421776 XXXX 1      oap1    O  -0.750
O24     16.889189178   20.259392957   34.481078596 XXXX 1      oap1    O  -0.750
O25     10.058356353   16.475326296   29.243883561 XXXX 1      oap2    O  -1.100
O26     11.836431593   16.478367217   26.528236192 XXXX 1      oap2    O  -1.100
H1      10.760925932   16.573038673   28.598779694 XXXX 1      hop     H   0.200
H2      12.334948336   16.232766510   25.696235954 XXXX 1      hop     H   0.200
H       15.933645626   18.734070574   36.060019082 XXXX 1      hop     H   0.400
end
O1       8.879186390   19.474902345   31.904610420 XXXX 1      oap1    O  -0.750
O2       9.737266320   23.688714702   32.170524537 XXXX 1      oap1    O  -0.750
O3       5.888219486   22.705451852   30.110172811 XXXX 1      oap1    O  -0.800
O4       7.313821843   19.214862955   33.756544903 XXXX 1      oap1    O  -0.750
O5       9.132579062   24.418327353   34.472121127 XXXX 1      oap1    O  -0.650
O6       4.728251527   22.259450396   32.312931894 XXXX 1      oap1    O  -0.800
Ca1      5.988104845   21.191593653   33.979295110 XXXX 1      ca+h    Ca  1.500
Ca2      6.358766220   18.343696176   31.616283666 XXXX 1      ca+h    Ca  1.500
P1       8.771984403   18.846292243   33.313939814 XXXX 1      pap     P   1.000
O7       9.871224175   19.518268767   34.175216802 XXXX 1      oap1    O  -0.750
O8       8.997016951   17.327274493   33.223454969 XXXX 1      oap1    O  -0.650
Ca3     12.107947172   20.294234427   34.049802081 XXXX 1      ca+h    Ca  1.500
P2       8.555188580   23.960706013   33.125695902 XXXX 1      pap     P   1.000
O9       7.848532261   22.626548451   33.330094859 XXXX 1      oap1    O  -0.750
O10      7.561268111   25.033995040   32.551920722 XXXX 1      oap1    O  -0.750
Ca4      5.707421286   24.809763182   31.204943297 XXXX 1      ca+h    Ca  1.500
P3       5.218028497   21.576887836   31.039918599 XXXX 1      pap     P   1.000
O11      6.380167274   20.721565411   31.487671474 XXXX 1      oap1    O  -0.800
O12      4.140802165   20.752855612   30.256255463 XXXX 1      oap1    O  -0.800
H1       8.957128627   23.716562848   35.002570153 XXXX 1      hop     H   0.400
H2       9.921222846   17.256160772   32.891887342 XXXX 1      hop     H   0.400
end
O1      26.512783138   28.407259578    3.458386921 XXXX 1      oap1    O  -0.750
O2      26.490463098   30.729582316    1.583640756 XXXX 1      oap1    O  -0.750
O3      26.230175045   30.101103624    5.786440261 XXXX 1      oap1    O  -0.800
O4      25.344580997   25.235860739    5.080822647 XXXX 1      oap1    O  -0.800
O5      29.201990759   27.136070946    7.535955952 XXXX 1      oap1    O  -0.800
O6      24.761295387   29.839110790    7.700947323 XXXX 1      oap1    O  -0.800
O7      24.154072251   25.438339124    7.196751206 XXXX 1      oap1    O  -0.800
O8      27.846714269   26.729674968    9.597368399 XXXX 1      oap1    O  -0.800
O9      24.302438910   27.278464085    3.176492694 XXXX 1      oap1    O  -0.750
O10     25.302605708   31.618593198    3.466067188 XXXX 1      oap1    O  -0.750
Ca1     29.237020003   21.454270454    2.675832849 XXXX 1      ca+h    Ca  1.500
Ca2     23.433078853   29.887335830    3.015780274 XXXX 1      ca+h    Ca  1.500
Ca3     21.474845704   30.061933139    5.852994974 XXXX 1      ca+h    Ca  1.500
Ca4     27.161393919   27.411471458    5.736928016 XXXX 1      ca+h    Ca  1.500
P1      25.610999843   27.742915705    2.436258466 XXXX 1      pap     P   1.000
O11     26.298159186   26.494586938    1.826903578 XXXX 1      oap1    O  -0.750
O12     25.149871411   28.869746237    1.493893482 XXXX 1      oap1    O  -0.650
Ca5     27.473568146   30.468190662    3.821552437 XXXX 1      ca+h    Ca  1.500
P2      25.601441094   31.978214419    1.990587429 XXXX 1      pap     P   1.000
O13     24.299786420   31.906719518    1.206464139 XXXX 1      oap1    O  -0.650
O14     26.280368462   33.347423678    1.869572274 XXXX 1      oap1    O  -0.750
Ca6     27.182394568   30.798051914    7.968457750 XXXX 1      ca+h    Ca  1.500
P3      24.872727583   29.538932517    6.261471144 XXXX 1      pap     P   1.000
O15     24.908288813   28.033814788    6.150383961 XXXX 1      oap1    O  -0.800
O16     23.714588417   30.172659652    5.456848749 XXXX 1      oap1    O  -0.800
Ca7     23.230091081   26.461010992    5.156195438 XXXX 1      ca+h    Ca  1.500
P4      25.436229333   24.879349253    6.555228393 XXXX 1      pap     P   1.000
O17     26.592628461   25.688515474    7.190191345 XXXX 1      oap1    O  -0.800
O18     25.564201480   23.333587538    6.650144059 XXXX 1      oap1    O  -0.800
Ca8     28.168207514   24.338094747    8.406736675 XXXX 1      ca+h    Ca  1.500
P5      28.378989936   27.836746668    8.651983249 XXXX 1      pap     P   1.000
O19     27.166194137   28.494135584    8.082895993 XXXX 1      oap1    O  -0.800
O20     29.206132567   28.862639250    9.441921281 XXXX 1      oap1    O  -0.800
O21     21.776149863   24.498097095    5.921218403 XXXX 1      oap2    O  -1.100
H1      20.982485210   24.671694624    5.434824163 XXXX 1      hop     H   0.200
H2      24.142154004   32.700976977    0.707426921 XXXX 1      hop     H   0.400
H3      25.832378285   29.537305634    1.452803513 XXXX 1      hop     H   0.400
end
O1      21.595409235   27.352275454    6.670016412 XXXX 1      oap1    O  -0.800
O2      22.596917259   32.207358671    7.063786997 XXXX 1      oap1    O  -0.800
O3      19.104142559   30.578966694    4.648185850 XXXX 1      oap1    O  -0.800
O4      22.254159956   30.129896562   11.270453702 XXXX 1      oap1    O  -0.800
O5      21.274558445   25.226778719   10.559591154 XXXX 1      oap1    O  -0.800
O6      25.071499336   26.684608246   13.257132026 XXXX 1      oap1    O  -0.800
O7      20.842922000   29.758972348   13.279088542 XXXX 1      oap1    O  -0.800
O8      19.907690206   25.289013707   12.589490639 XXXX 1      oap1    O  -0.800
O9      23.652589852   26.518744229   15.327631876 XXXX 1      oap1    O  -0.800
O10     20.314164523   27.596483870    8.771495938 XXXX 1      oap1    O  -0.800
O11     21.421918243   32.005141479    9.215346652 XXXX 1      oap1    O  -0.800
O12     17.449965423   30.714892271    6.518458417 XXXX 1      oap1    O  -0.800
Ca1     25.024422909   27.371326812    8.455292480 XXXX 1      ca+h    Ca  1.500
Ca2     19.538769271   29.916164508    8.783497772 XXXX 1      ca+h    Ca  1.500
Ca3     17.312622584   30.101616368   11.464116768 XXXX 1      ca+h    Ca  1.500
Ca4     23.045356321   27.374962082   11.316613847 XXXX 1      ca+h    Ca  1.500
Ca5     19.276800539   26.555486866    6.760894243 XXXX 1      ca+h    Ca  1.500
P1      21.705634030   27.884670849    8.124495276 XXXX 1      pap     P   1.000
O13     21.874138677   29.383542653    8.110344836 XXXX 1      oap1    O  -0.800
O14     22.771532903   27.188548460    8.905050893 XXXX 1      oap1    O  -0.800
Ca6     23.536288011   30.909284127    9.340255858 XXXX 1      ca+h    Ca  1.500
P2      21.287504837   32.553907812    7.815130842 XXXX 1      pap     P   1.000
O15     20.191224630   31.737993604    7.135284663 XXXX 1      oap1    O  -0.800
O16     21.086876329   34.077183045    7.778192403 XXXX 1      oap1    O  -0.800
Ca7     18.557218029   32.829570960    5.686500374 XXXX 1      ca+h    Ca  1.500
P3      18.223806082   29.758351655    5.624429714 XXXX 1      pap     P   1.000
O17     19.173823195   28.949682845    6.489617614 XXXX 1      oap1    O  -0.800
O18     17.244986605   28.917417893    4.774911227 XXXX 1      oap1    O  -0.800
Ca8     23.078423957   30.816168815   13.586618646 XXXX 1      ca+h    Ca  1.500
P4      20.880755622   29.614199368   11.795421203 XXXX 1      pap     P   1.000
O19     20.740699750   28.122250068   11.521512031 XXXX 1      oap1    O  -0.800
O20     19.740903192   30.368293935   11.140619871 XXXX 1      oap1    O  -0.800
Ca9     19.085689198   26.459868836   10.555372225 XXXX 1      ca+h    Ca  1.500
P5      21.228805637   24.784469484   12.028374495 XXXX 1      pap     P   1.000
O21     22.306779480   25.472089320   12.837055519 XXXX 1      oap1    O  -0.800
O22     21.354870305   23.236649967   12.153406496 XXXX 1      oap1    O  -0.800
Ca10    24.062331888   24.402424719   14.172577560 XXXX 1      ca+h    Ca  1.500
P6      24.297766664   27.535620706   14.290170415 XXXX 1      pap     P   1.000
O23     23.127071644   28.234735483   13.611291133 XXXX 1      oap1    O  -0.800
O24     25.181073047   28.555850054   15.001533601 XXXX 1      oap1    O  -0.800
O25     17.500956077   24.632504781   10.675818411 XXXX 1      oap2    O  -1.100
O26     19.862321474   24.592008221    8.155372584 XXXX 1      oap2    O  -1.100
H1      17.058643426   25.033905805   11.397766068 XXXX 1      hop     H   0.200
H2      19.810210209   24.327145232    9.038556207 XXXX 1      hop     H   0.200
end
O1      17.533577298   27.210557938   12.270974267 XXXX 1      oap1    O  -0.800
O2      18.445308787   32.115462263   12.883893936 XXXX 1      oap1    O  -0.800
O3      14.507913164   30.881603314   10.110793492 XXXX 1      oap1    O  -0.800
O4      18.100145824   30.070057065   16.781208329 XXXX 1      oap1    O  -0.800
O5      17.069631853   25.197862471   16.328122434 XXXX 1      oap1    O  -0.800
O6      20.745249752   26.619478968   18.887815939 XXXX 1      oap1    O  -0.800
O7      16.503497023   30.131568969   18.716050394 XXXX 1      oap1    O  -0.800
O8      15.682927719   25.445821551   18.411797642 XXXX 1      oap1    O  -0.800
O9      19.384604682   26.432539046   20.947445457 XXXX 1      oap1    O  -0.800
O10     16.117049142   27.731541570   14.275888250 XXXX 1      oap1    O  -0.800
O11     17.017052588   32.038440667   14.962480374 XXXX 1      oap1    O  -0.800
O12     13.262200663   30.616764100   12.170150369 XXXX 1      oap1    O  -0.800
Ca1     20.953523563   27.343845744   14.010692677 XXXX 1      ca+h    Ca  1.500
Ca2     15.088324638   29.911138301   14.102834984 XXXX 1      ca+h    Ca  1.500
Ca3     13.190709639   30.000146171   17.115327128 XXXX 1      ca+h    Ca  1.500
Ca4     19.008385981   27.276729535   16.895368172 XXXX 1      ca+h    Ca  1.500
Ca5     15.180265191   26.524650760   11.827529319 XXXX 1      ca+h    Ca  1.500
P1      17.541187187   27.845861197   13.661816749 XXXX 1      pap     P   1.000
O13     17.862794109   29.338599969   13.606300249 XXXX 1      oap1    O  -0.800
O14     18.588812425   27.090056046   14.537180059 XXXX 1      oap1    O  -0.800
Ca6     19.290414910   30.741889643   14.789505296 XXXX 1      ca+h    Ca  1.500
P2      17.073587173   32.532500873   13.491018380 XXXX 1      pap     P   1.000
O15     15.975522817   31.693035326   12.678648084 XXXX 1      oap1    O  -0.800
O16     16.787200084   34.098189717   13.406019202 XXXX 1      oap1    O  -0.800
Ca7     14.246425615   32.845812735   11.483427755 XXXX 1      ca+h    Ca  1.500
P3      14.037471610   29.827663133   11.102059778 XXXX 1      pap     P   1.000
O17     15.165919928   29.163040072   11.849693714 XXXX 1      oap1    O  -0.800
O18     13.010465285   28.919504767   10.422906603 XXXX 1      oap1    O  -0.800
Ca8     18.843253423   30.784702560   18.977158535 XXXX 1      ca+h    Ca  1.500
P4      16.682244752   29.603814574   17.282357451 XXXX 1      pap     P   1.000
O19     16.719989232   28.090635747   17.327273062 XXXX 1      oap1    O  -0.800
O20     15.505269901   30.169861241   16.503428917 XXXX 1      oap1    O  -0.800
Ca9     15.017063977   26.775597352   16.156248275 XXXX 1      ca+h    Ca  1.500
P5      17.008045503   24.929984216   17.815601602 XXXX 1      pap     P   1.000
O21     18.180277624   25.625852486   18.508874204 XXXX 1      oap1    O  -0.800
O22     17.242795631   23.395198194   17.940852149 XXXX 1      oap1    O  -0.800
Ca10    19.891305944   24.452567336   19.705461586 XXXX 1      ca+h    Ca  1.500
P6      20.066157086   27.429000967   19.969744591 XXXX 1      pap     P   1.000
O23     19.044506987   28.375117224   19.340801189 XXXX 1      oap1    O  -0.800
O24     21.158253190   28.270001949   20.719107443 XXXX 1      oap1    O  -0.800
O25     13.747768652   24.763093620   16.197271824 XXXX 1      oap2    O  -1.100
O26     15.670279412   24.767111648   13.333521777 XXXX 1      oap2    O  -1.100
H1      13.143431389   24.675241556   16.915665176 XXXX 1      hop     H   0.200
H2      14.817480152   24.972397939   13.737345620 XXXX 1      hop     H   0.200
end
O1      13.491807543   27.565889219   17.833961365 XXXX 1      oap1    O  -0.800
O2      14.322765276   32.256506138   18.654662238 XXXX 1      oap1    O  -0.800
O3      10.831759597   30.451917785   15.705446797 XXXX 1      oap1    O  -0.800
O4      13.635895514   30.240945800   22.472845955 XXXX 1      oap1    O  -0.800
O5      13.323033951   25.423652218   21.910668073 XXXX 1      oap1    O  -0.800
O6      16.539384155   26.995552741   24.306972138 XXXX 1      oap1    O  -0.800
O7      12.212111436   29.787967293   24.477189655 XXXX 1      oap1    O  -0.800
O8      11.780629923   25.527428634   23.880781086 XXXX 1      oap1    O  -0.800
O9      15.615889013   26.457082707   26.676280729 XXXX 1      oap1    O  -0.800
O10     11.960676407   27.444685670   19.806124770 XXXX 1      oap1    O  -0.800
O11     12.685437459   32.040702971   20.616587631 XXXX 1      oap1    O  -0.800
O12      9.283219927   30.628370930   17.662721367 XXXX 1      oap1    O  -0.800
Ca1     16.849051126   27.224173579   19.713722808 XXXX 1      ca+h    Ca  1.500
Ca2     10.997177743   29.974114224   19.770623004 XXXX 1      ca+h    Ca  1.500
Ca3      8.899055463   30.085841360   22.492655977 XXXX 1      ca+h    Ca  1.500
Ca4     14.927591717   27.033666106   22.441910322 XXXX 1      ca+h    Ca  1.500
Ca5     11.102176668   26.478378567   17.532721116 XXXX 1      ca+h    Ca  1.500
P1      13.367676931   27.902745573   19.291233195 XXXX 1      pap     P   1.000
O13     13.433155846   29.421350715   19.426380857 XXXX 1      oap1    O  -0.800
O14     14.519291971   27.255685305   20.073826051 XXXX 1      oap1    O  -0.800
Ca6     15.005372983   30.685619660   20.577739233 XXXX 1      ca+h    Ca  1.500
P2      12.911362127   32.538300128   19.191470508 XXXX 1      pap     P   1.000
O15     11.926939877   31.729556294   18.368185372 XXXX 1      oap1    O  -0.800
O16     12.619322888   34.075389726   19.125241625 XXXX 1      oap1    O  -0.800
Ca7     10.189498490   32.883973702   17.164216582 XXXX 1      ca+h    Ca  1.500
P3      10.023494680   29.691973970   16.760353898 XXXX 1      pap     P   1.000
O17     10.918334746   28.854843517   17.650714271 XXXX 1      oap1    O  -0.800
O18      8.976397211   28.749877756   16.019815295 XXXX 1      oap1    O  -0.800
Ca8     14.674084570   30.704213142   24.612338698 XXXX 1      ca+h    Ca  1.500
P4      12.430083262   29.433256906   23.000843195 XXXX 1      pap     P   1.000
O19     12.686590078   27.911061975   22.952114163 XXXX 1      oap1    O  -0.800
O20     11.180353915   29.800962422   22.179301731 XXXX 1      oap1    O  -0.800
Ca9     10.984325746   26.725437664   21.886004466 XXXX 1      ca+h    Ca  1.500
P5      13.072301693   24.862096824   23.365710262 XXXX 1      pap     P   1.000
O21     14.235556981   25.304916510   24.192427199 XXXX 1      oap1    O  -0.800
O22     12.943591339   23.341254246   23.368505693 XXXX 1      oap1    O  -0.800
Ca10    15.947435008   24.208725996   25.437729994 XXXX 1      ca+h    Ca  1.500
P6      16.007267055   27.557006220   25.659469522 XXXX 1      pap     P   1.000
O23     14.795497476   28.395955137   25.298501428 XXXX 1      oap1    O  -0.800
O24     17.060878826   28.435988518   26.303532803 XXXX 1      oap1    O  -0.800
O25     10.185460902   24.602754139   21.221935316 XXXX 1      oap2    O  -1.100
O26     11.739721352   24.425552668   18.654063752 XXXX 1      oap2    O  -1.100
H1      10.605260642   24.700953757   20.401906558 XXXX 1      hop     H   0.200
H2      10.905666162   24.667955190   18.973373299 XXXX 1      hop     H   0.200
end
O1       9.427229016   27.388482885   23.516290941 XXXX 1      oap1    O  -0.800
O2      10.280497516   32.158037362   24.261094400 XXXX 1      oap1    O  -0.800
O3       6.397336320   30.521591838   21.217652287 XXXX 1      oap1    O  -0.800
O4       9.583940380   30.495549206   28.305758546 XXXX 1      oap1    O  -0.800
O5       8.913232079   25.161828609   27.671717339 XXXX 1      oap1    O  -0.800
O6      12.563004261   26.644151428   30.183752796 XXXX 1      oap1    O  -0.800
O7       8.133257453   29.920053827   30.199895388 XXXX 1      oap1    O  -0.800
O8       7.551967180   25.489045420   29.722290299 XXXX 1      oap1    O  -0.800
O9      11.161367346   26.743647766   32.246738267 XXXX 1      oap1    O  -0.800
O10      7.869957156   27.400823723   25.441006700 XXXX 1      oap1    O  -0.800
O11      8.725391901   31.960300113   26.122254694 XXXX 1      oap1    O  -0.800
O12      4.970732733   30.724780047   23.270285667 XXXX 1      oap1    O  -0.800
Ca1     12.741981088   27.232507668   25.329364517 XXXX 1      ca+h    Ca  1.500
Ca2      6.884656054   29.801424286   25.326377065 XXXX 1      ca+h    Ca  1.500
Ca3      4.862976095   30.181777840   28.144485137 XXXX 1      ca+h    Ca  1.500
Ca4     10.694856729   27.070891146   28.177187000 XXXX 1      ca+h    Ca  1.500
Ca5      6.891502300   26.667861309   23.221151323 XXXX 1      ca+h    Ca  1.500
P1       9.234905938   27.882587316   24.955444699 XXXX 1      pap     P   1.000
O13      9.185154821   29.409625996   25.062675855 XXXX 1      oap1    O  -0.800
O14     10.284045415   27.295813153   25.821149948 XXXX 1      oap1    O  -0.800
Ca6     10.795688075   30.617469127   26.186856996 XXXX 1      ca+h    Ca  1.500
P2       8.835528999   32.488367871   24.702727107 XXXX 1      pap     P   1.000
O15      7.756791570   31.741454803   23.871549015 XXXX 1      oap1    O  -0.800
O16      8.598036523   34.048397484   24.648835568 XXXX 1      oap1    O  -0.800
Ca7      5.921022796   32.739758039   22.554515541 XXXX 1      ca+h    Ca  1.500
P3       5.675892710   29.722090541   22.293599168 XXXX 1      pap     P   1.000
O17      6.794928185   29.033637740   23.145987095 XXXX 1      oap1    O  -0.800
O18      4.703496652   28.700038213   21.714683159 XXXX 1      oap1    O  -0.800
Ca8     10.756281323   30.365984904   30.493750641 XXXX 1      ca+h    Ca  1.500
P4       8.354315483   29.667457923   28.639056384 XXXX 1      pap     P   1.000
O19      8.598230496   28.195316212   28.311627531 XXXX 1      oap1    O  -0.800
O20      7.171459170   30.163000740   27.843214729 XXXX 1      oap1    O  -0.800
Ca9      6.933220396   26.707889592   27.432288220 XXXX 1      ca+h    Ca  1.500
P5       8.753366510   24.778934135   29.129513603 XXXX 1      pap     P   1.000
O21      9.982259808   25.310182834   29.891018778 XXXX 1      oap1    O  -0.800
O22      8.522897629   23.221192370   29.271299071 XXXX 1      oap1    O  -0.800
Ca10    11.930172067   24.409628215   31.178967904 XXXX 1      ca+h    Ca  1.500
P6      11.700650332   27.562529628   31.063815334 XXXX 1      pap     P   1.000
O23     10.534249208   28.055201368   30.244611824 XXXX 1      oap1    O  -0.800
O24     12.521704200   28.831884410   31.579272704 XXXX 1      oap1    O  -0.800
O25      5.857073418   24.646303689   27.136807470 XXXX 1      oap2    O  -1.100
O26      8.118288763   24.648179138   23.652853968 XXXX 1      oap2    O  -1.100
H1       5.927310373   24.780128901   28.093382359 XXXX 1      hop     H   0.200
H2       8.732551018   24.962608988   22.979455043 XXXX 1      hop     H   0.200
end
O1       5.183141321   26.975027121   29.050492567 XXXX 1      oap1    O  -0.800
O2       5.777213760   32.236784462   29.281256877 XXXX 1      oap1    O  -0.800
O3       2.598418543   30.507762717   27.123455187 XXXX 1      oap1    O  -0.800
O4       4.067678256   29.617656817   33.091380656 XXXX 1      oap1    O  -0.750
O5       3.661804597   23.902261339   34.594938021 XXXX 1      oap1    O  -0.750
O6       3.794416602   28.446825988   35.329309666 XXXX 1      oap1    O  -0.650
O7       1.905459807   24.640851692   33.044660498 XXXX 1      oap1    O  -0.750
O8       3.763139587   27.132148430   31.070469090 XXXX 1      oap1    O  -0.800
O9       5.237169063   31.800528690   31.656568462 XXXX 1      oap1    O  -0.800
O10      0.848112457   30.549643384   28.907325642 XXXX 1      oap1    O  -0.800
Ca1      8.698260576   26.748667639   31.431944558 XXXX 1      ca+h    Ca  1.500
Ca2      2.731496377   29.471809522   31.084770387 XXXX 1      ca+h    Ca  1.500
Ca3      0.197434886   30.467086611   33.701926464 XXXX 1      ca+h    Ca  1.500
Ca4      2.881753167   26.258516807   28.658469586 XXXX 1      ca+h    Ca  1.500
P1       5.060747782   27.662940591   30.396740524 XXXX 1      pap     P   1.000
O11      4.866080331   29.129063799   30.207445149 XXXX 1      oap1    O  -0.800
O12      6.294013501   27.345856770   31.302349996 XXXX 1      oap1    O  -0.800
Ca5      6.472561044   29.689055089   31.965522607 XXXX 1      ca+h    Ca  1.500
P2       4.656166457   32.328687797   30.315106608 XXXX 1      pap     P   1.000
O13      3.478780269   31.476001654   29.881624303 XXXX 1      oap1    O  -0.800
O14      4.252551778   33.811971171   30.412765098 XXXX 1      oap1    O  -0.800
Ca6      1.922893309   32.641841515   28.309925971 XXXX 1      ca+h    Ca  1.500
P3       1.597507594   29.596760823   27.930334557 XXXX 1      pap     P   1.000
O15      2.454148503   28.622941755   28.722614216 XXXX 1      oap1    O  -0.800
O16      0.578491369   28.877174048   27.057408984 XXXX 1      oap1    O  -0.800
P4       3.133328748   29.342734470   34.279857937 XXXX 1      pap     P   1.000
O17      1.731622565   28.838470602   33.863247974 XXXX 1      oap1    O  -0.750
O18      2.871822758   30.724445786   34.945784696 XXXX 1      oap1    O  -0.750
P5       3.103098746   25.169844401   33.893940581 XXXX 1      pap     P   1.000
O19      4.233547448   25.766830371   33.016394201 XXXX 1      oap1    O  -0.650
O20      2.573636386   26.165720747   34.966182806 XXXX 1      oap1    O  -0.750
O21      3.355727818   24.510494396   30.309740087 XXXX 1      oap2    O  -1.100
H1       2.926775227   24.648380213   31.125334645 XXXX 1      hop     H   0.200
H2       3.413918643   27.584883784   35.362704323 XXXX 1      hop     H   0.400
H3       3.866962690   26.423711931   32.388216065 XXXX 1      hop     H   0.400
end
O1      33.616548132    4.387247418   34.326585501 XXXX 1      oap1    O  -0.750
O2      32.945519375    7.296473992   32.239342172 XXXX 1      oap1    O  -0.750
O3      29.747539397    5.799258195   29.568253515 XXXX 1      oap1    O  -0.800
O4      32.914090565    2.595883532   32.713634450 XXXX 1      oap1    O  -0.750
O5      31.703138466    7.595931341   34.422058297 XXXX 1      oap1    O  -0.650
O6      28.143540497    6.168777628   31.499875157 XXXX 1      oap1    O  -0.800
Ca1     30.591500566    1.800936017   31.636699750 XXXX 1      ca+h    Ca  1.500
P1      32.396856256    3.652470706   33.722225483 XXXX 1      pap     P   1.000
O7      31.539523556    4.664700216   33.028853956 XXXX 1      oap1    O  -0.750
O8      31.646114609    2.999721665   34.897248609 XXXX 1      oap1    O  -0.650
Ca2     34.309286398    6.644657412   34.058555539 XXXX 1      ca+h    Ca  1.500
P2      31.683500224    7.875244500   32.914118512 XXXX 1      pap     P   1.000
O9      30.498443322    7.139259211   32.275429732 XXXX 1      oap1    O  -0.750
O10     31.586002150    9.413500387   32.632863657 XXXX 1      oap1    O  -0.750
Ca3     28.845510077    8.401159875   31.084340208 XXXX 1      ca+h    Ca  1.500
P3      28.717952102    5.170841288   30.569765039 XXXX 1      pap     P   1.000
O11     29.416134327    4.072118142   31.377431628 XXXX 1      oap1    O  -0.800
O12     27.450660426    4.470107240   29.875139689 XXXX 1      oap1    O  -0.800
H1      30.700237080    3.245626587   34.871733869 XXXX 1      hop     H   0.400
H2      30.857940314    7.952354164   34.737127016 XXXX 1      hop     H   0.400
end
O1      32.685179366   11.235321041   23.409747215 XXXX 1      oap1    O  -0.800
O2      33.530719492   15.922768276   24.059341267 XXXX 1      oap1    O  -0.800
O3      29.916593204   14.324163796   21.269177596 XXXX 1      oap1    O  -0.800
O4      33.088914643   13.507731214   28.173032920 XXXX 1      oap1    O  -0.800
O5      32.153860462    9.089807453   27.457943122 XXXX 1      oap1    O  -0.800
O7      31.624565815   13.539552119   30.174102005 XXXX 1      oap1    O  -0.800
O8      30.541539046    8.712548331   29.371132712 XXXX 1      oap1    O  -0.800
O10     31.164078463   11.265750270   25.374850121 XXXX 1      oap1    O  -0.800
O11     31.938013737   15.618120630   25.997004242 XXXX 1      oap1    O  -0.800
O12     28.476745887   14.423404945   23.276969722 XXXX 1      oap1    O  -0.800
Ca2     30.240458948   13.670473583   25.364460411 XXXX 1      ca+h    Ca  1.500
Ca3     27.940694888   13.750070258   28.207205406 XXXX 1      ca+h    Ca  1.500
Ca4     33.798239353   11.142600805   28.078526832 XXXX 1      ca+h    Ca  1.500
Ca5     30.231769513   10.327962607   23.196808422 XXXX 1      ca+h    Ca  1.500
P1      32.548337337   11.602742421   24.872612755 XXXX 1      pap     P   1.000
O13     32.552799778   13.121712435   24.970490496 XXXX 1      oap1    O  -0.800
O14     33.693219175   10.869550025   25.673623187 XXXX 1      oap1    O  -0.800
Ca6     34.146304648   14.396890151   26.140796153 XXXX 1      ca+h    Ca  1.500
P2      32.081410450   16.220595966   24.542288000 XXXX 1      pap     P   1.000
O15     31.106453721   15.411901276   23.670800069 XXXX 1      oap1    O  -0.800
O16     31.830703443   17.752823871   24.523700297 XXXX 1      oap1    O  -0.800
Ca7     29.268163271   16.595982223   22.408932193 XXXX 1      ca+h    Ca  1.500
P3      29.154140008   13.463217210   22.289792803 XXXX 1      pap     P   1.000
O17     30.165918735   12.640123542   23.120758316 XXXX 1      oap1    O  -0.800
O18     28.079411730   12.552568973   21.579813630 XXXX 1      oap1    O  -0.800
Ca8     33.973980796   14.500814306   30.315411449 XXXX 1      ca+h    Ca  1.500
P4      31.642387215   13.125426888   28.681604982 XXXX 1      pap     P   1.000
O19     31.519995815   11.640758730   28.673152326 XXXX 1      oap1    O  -0.800
O20     30.557519648   13.821243039   27.789512569 XXXX 1      oap1    O  -0.800
Ca9     29.944126083   10.432582983   27.342998710 XXXX 1      ca+h    Ca  1.500
P5      32.004292326    8.469833695   28.895263795 XXXX 1      pap     P   1.000
O21     32.937299752    9.397992994   29.739405491 XXXX 1      oap1    O  -0.800
O22     32.458331863    7.041090466   28.980081990 XXXX 1      oap1    O  -0.800
O25     28.939790691    8.305171485   26.937999774 XXXX 1      oap2    O  -1.100
O26     30.775194184    8.352220255   24.346515796 XXXX 1      oap2    O  -1.100
H1      28.668257620    8.633380526   27.776133916 XXXX 1      hop     H   0.200
H2      30.039196347    8.313966707   25.037916222 XXXX 1      hop     H   0.200
end
O1      28.439174790   11.368412887   28.997474994 XXXX 1      oap1    O  -0.800
O2      28.968552922   15.665990756   29.421976201 XXXX 1      oap1    O  -0.800
O3      25.775571855   14.158890898   26.891935540 XXXX 1      oap1    O  -0.800
O4      29.338615249   13.520686815   33.979403568 XXXX 1      oap1    O  -0.750
O5      28.337716334    9.089334296   33.271847060 XXXX 1      oap1    O  -0.750
O6      27.968192869   13.881791429   36.042052680 XXXX 1      oap1    O  -0.650
O7      27.198194886    9.177433298   35.484123152 XXXX 1      oap1    O  -0.650
O8      27.032719058   11.287386708   30.988170750 XXXX 1      oap1    O  -0.800
O9      28.232590135   16.038048150   31.697168009 XXXX 1      oap1    O  -0.800
O10     23.957077382   14.374200012   28.673285200 XXXX 1      oap1    O  -0.800
Ca1     32.043227654   11.095799607   31.098408272 XXXX 1      ca+h    Ca  1.500
Ca2     25.970793302   13.351163894   31.451583287 XXXX 1      ca+h    Ca  1.500
Ca3     29.776384374   10.945570708   33.547699470 XXXX 1      ca+h    Ca  1.500
Ca4     26.047919563   10.448828097   28.815758526 XXXX 1      ca+h    Ca  1.500
P1      28.423106300   11.686843002   30.447339401 XXXX 1      pap     P   1.000
O11     28.589627998   13.173995026   30.646084659 XXXX 1      oap1    O  -0.800
O12     29.477359055   10.814371648   31.194242170 XXXX 1      oap1    O  -0.800
Ca5     26.678555419   16.243360416   33.560738604 XXXX 1      ca+h    Ca  1.500
P2      27.784340748   16.165899966   30.276491704 XXXX 1      pap     P   1.000
O13     26.527393267   15.302572458   30.025118753 XXXX 1      oap1    O  -0.800
O14     27.443986254   17.700301421   30.048526389 XXXX 1      oap1    O  -0.800
Ca6     25.248986775   16.406528355   28.397732182 XXXX 1      ca+h    Ca  1.500
P3      24.850900871   13.430352362   27.906060218 XXXX 1      pap     P   1.000
O15     25.765267227   12.783700762   28.898190080 XXXX 1      oap1    O  -0.800
O16     23.955816135   12.395786636   27.192532222 XXXX 1      oap1    O  -0.800
P4      27.989330046   13.311165388   34.624468272 XXXX 1      pap     P   1.000
O17     27.843641254   11.768472438   34.796863821 XXXX 1      oap1    O  -0.750
O18     26.859343972   13.919785746   33.713314665 XXXX 1      oap1    O  -0.750
P5      28.396222997    8.565560960   34.744152039 XXXX 1      pap     P   1.000
O19     29.750684309    9.102521183   35.336924104 XXXX 1      oap1    O  -0.750
O20     28.292862530    7.062453118   34.795492651 XXXX 1      oap1    O  -0.750
O21     27.187232274    8.301402123   29.321278472 XXXX 1      oap2    O  -1.100
H1      27.715420697    8.324426383   28.555267104 XXXX 1      hop     H   0.200
H2      28.052592606   13.113732569   36.582172184 XXXX 1      hop     H   0.400
H3      27.256676593   10.097704014   35.218739014 XXXX 1      hop     H   0.400
end
O1      33.036824205   19.357516130   14.997567451 XXXX 1      oap1    O  -0.800
O2      33.910682588   23.833801004   15.668357584 XXXX 1      oap1    O  -0.800
O3      30.211546523   22.567781231   12.756974045 XXXX 1      oap1    O  -0.800
O4      33.354251058   21.647472115   19.538146354 XXXX 1      oap1    O  -0.800
O5      32.600398499   17.357231923   19.117967723 XXXX 1      oap1    O  -0.800
O7      32.087119525   21.922052944   21.598429246 XXXX 1      oap1    O  -0.800
O8      30.965465830   17.111218859   20.898925120 XXXX 1      oap1    O  -0.800
O10     31.474708475   19.505607367   16.962568265 XXXX 1      oap1    O  -0.800
O11     32.352518976   23.762498661   17.668063699 XXXX 1      oap1    O  -0.800
O12     28.705732448   22.549548565   14.719735186 XXXX 1      oap1    O  -0.800
Ca2     30.640131914   22.048596234   16.828121838 XXXX 1      ca+h    Ca  1.500
Ca3     28.506867657   22.078609646   19.703180445 XXXX 1      ca+h    Ca  1.500
Ca4     34.289636311   19.097589305   19.691976258 XXXX 1      ca+h    Ca  1.500
Ca5     30.777891982   18.428889189   14.836779151 XXXX 1      ca+h    Ca  1.500
P1      32.930378377   19.812640042   16.467032637 XXXX 1      pap     P   1.000
O13     33.124200582   21.289318251   16.486458913 XXXX 1      oap1    O  -0.800
O14     34.015555495   19.077884160   17.327623788 XXXX 1      oap1    O  -0.800
Ca6     34.696339671   22.554052804   17.759345726 XXXX 1      ca+h    Ca  1.500
P2      32.569559805   24.334544234   16.195606645 XXXX 1      pap     P   1.000
O15     31.467354720   23.720755726   15.321202769 XXXX 1      oap1    O  -0.800
O16     32.549157845   25.885831772   16.046103478 XXXX 1      oap1    O  -0.800
Ca7     29.558682253   24.720508673   14.027813491 XXXX 1      ca+h    Ca  1.500
P3      29.525514756   21.652806541   13.791376569 XXXX 1      pap     P   1.000
O17     30.656885046   21.009974053   14.624265209 XXXX 1      oap1    O  -0.800
O18     28.598146618   20.633328832   13.142473454 XXXX 1      oap1    O  -0.800
Ca8     34.344581334   22.513250761   22.021699567 XXXX 1      ca+h    Ca  1.500
P4      32.009480982   21.360224159   20.211412280 XXXX 1      pap     P   1.000
O19     31.964998087   19.808044434   20.275678398 XXXX 1      oap1    O  -0.800
O20     30.826569701   21.951535044   19.401832574 XXXX 1      oap1    O  -0.800
Ca9     30.422452318   18.600104904   18.927890113 XXXX 1      ca+h    Ca  1.500
P5      32.382777910   16.719357366   20.444417718 XXXX 1      pap     P   1.000
O21     33.389635494   17.514624657   21.317922431 XXXX 1      oap1    O  -0.800
O22     32.642495915   15.198610357   20.475758160 XXXX 1      oap1    O  -0.800
O25     29.590592705   16.465981214   18.055624312 XXXX 1      oap2    O  -1.100
O26     31.684675400   16.363216999   15.494518922 XXXX 1      oap2    O  -1.100
H1      29.894259404   16.241653378   17.156710193 XXXX 1      hop     H   0.200
H2      32.262444040   16.352441165   14.747655122 XXXX 1      hop     H   0.200
end
O1      28.752048583   19.027790476   20.676562926 XXXX 1      oap1    O  -0.800
O2      29.643076216   23.962959786   21.023887695 XXXX 1      oap1    O  -0.800
O3      26.302575507   22.636584600   18.594419213 XXXX 1      oap1    O  -0.800
O4      29.187796830   21.514710293   25.180098033 XXXX 1      oap1    O  -0.800
O5      28.322917771   17.059902948   24.722413559 XXXX 1      oap1    O  -0.800
O6      32.055748807   18.507780883   27.648303054 XXXX 1      oap1    O  -0.800
O7      27.723746961   21.613268226   27.169178606 XXXX 1      oap1    O  -0.800
O8      26.941413448   17.078986050   26.863175002 XXXX 1      oap1    O  -0.800
O9      30.328371879   18.636230420   29.523254833 XXXX 1      oap1    O  -0.800
O10     27.280751793   19.453135089   22.605188107 XXXX 1      oap1    O  -0.800
O11     28.413350875   23.833574779   23.167012664 XXXX 1      oap1    O  -0.800
O12     24.463274145   22.634370298   20.328174354 XXXX 1      oap1    O  -0.800
Ca1     32.218362855   19.191082818   22.524740858 XXXX 1      ca+h    Ca  1.500
Ca2     26.584570448   21.879921141   22.473478190 XXXX 1      ca+h    Ca  1.500
Ca3     24.292604038   21.899413309   25.367894407 XXXX 1      ca+h    Ca  1.500
Ca4     30.014817252   19.108481610   25.282529792 XXXX 1      ca+h    Ca  1.500
Ca5     26.456326829   18.427427805   20.254239471 XXXX 1      ca+h    Ca  1.500
P1      28.665153320   19.652485244   22.102978050 XXXX 1      pap     P   1.000
O13     28.969648955   21.215699937   22.012529483 XXXX 1      oap1    O  -0.800
O14     29.717906389   18.946747165   22.978972191 XXXX 1      oap1    O  -0.800
Ca6     30.503401991   22.559711989   23.195892266 XXXX 1      ca+h    Ca  1.500
P2      28.416039571   24.462842358   21.775812254 XXXX 1      pap     P   1.000
O15     27.205440100   23.787413374   21.039777529 XXXX 1      oap1    O  -0.800
O16     28.270716949   26.021811168   21.764452415 XXXX 1      oap1    O  -0.800
Ca7     25.635334960   24.804141915   19.675151431 XXXX 1      ca+h    Ca  1.500
P3      25.375918212   21.718854878   19.459521676 XXXX 1      pap     P   1.000
O17     26.376141902   20.806474637   20.287400379 XXXX 1      oap1    O  -0.800
O18     24.408815657   20.802032134   18.675292465 XXXX 1      oap1    O  -0.800
Ca8     29.921934021   22.496471664   27.519968025 XXXX 1      ca+h    Ca  1.500
P4      27.817751046   21.173349780   25.717968851 XXXX 1      pap     P   1.000
O19     27.718414348   19.676233894   25.749345463 XXXX 1      oap1    O  -0.800
O20     26.657935917   21.825443265   24.906696802 XXXX 1      oap1    O  -0.800
Ca9     26.165653142   18.494467544   24.467147941 XXXX 1      ca+h    Ca  1.500
P5      28.214811503   16.644730419   26.211928189 XXXX 1      pap     P   1.000
O21     29.297939859   17.453911558   26.925945637 XXXX 1      oap1    O  -0.800
O22     28.485191304   15.138240009   26.257848123 XXXX 1      oap1    O  -0.800
Ca10    30.896091922   16.336105636   28.091950571 XXXX 1      ca+h    Ca  1.500
P6      31.169835810   19.428394797   28.504962502 XXXX 1      pap     P   1.000
O23     30.243240016   20.160923397   27.540126143 XXXX 1      oap1    O  -0.800
O24     32.165179471   20.440808155   29.200023824 XXXX 1      oap1    O  -0.800
O25     25.018392341   16.430528282   24.440308891 XXXX 1      oap2    O  -1.100
O26     26.931487509   16.567600721   21.687996049 XXXX 1      oap2    O  -1.100
H1      24.675640399   16.325124905   25.282207218 XXXX 1      hop     H   0.200
H2      26.187175221   16.366648981   22.234446546 XXXX 1      hop     H   0.200
end
O1      24.646839781   19.268567632   26.259339882 XXXX 1      oap1    O  -0.800
O2      25.563625177   23.868030903   26.777960026 XXXX 1      oap1    O  -0.800
O3      22.078917837   22.563312969   24.319014653 XXXX 1      oap1    O  -0.800
O4      25.041429410   21.499615123   30.557833797 XXXX 1      oap1    O  -0.800
O5      24.113596968   17.236681347   30.763419647 XXXX 1      oap1    O  -0.800
O6      26.775674225   18.166076700   34.820710385 XXXX 1      oap1    O  -0.750
O7      23.827055073   22.085799928   32.569975736 XXXX 1      oap1    O  -0.800
O8      22.484346904   15.912395869   32.263591278 XXXX 1      oap1    O  -0.800
O9      25.100756341   19.677562206   33.674903482 XXXX 1      oap1    O  -0.650
O10     23.187878120   19.095370514   28.250785531 XXXX 1      oap1    O  -0.800
O11     24.386284543   24.155595220   28.929965902 XXXX 1      oap1    O  -0.800
O12     20.499155753   22.442408601   26.253959972 XXXX 1      oap1    O  -0.800
Ca1     28.037184866   19.130039933   28.215902150 XXXX 1      ca+h    Ca  1.500
Ca2     22.142634541   21.850618356   28.003340794 XXXX 1      ca+h    Ca  1.500
Ca3     20.251298694   21.733312526   31.027692931 XXXX 1      ca+h    Ca  1.500
Ca4     25.602608339   19.245694023   30.817020606 XXXX 1      ca+h    Ca  1.500
Ca5     22.458009591   18.328615702   25.919544121 XXXX 1      ca+h    Ca  1.500
P1      24.529111873   19.693539421   27.703240557 XXXX 1      pap     P   1.000
O13     24.486561114   21.245431340   27.794282079 XXXX 1      oap1    O  -0.800
O14     25.644328290   18.952386424   28.509221615 XXXX 1      oap1    O  -0.800
Ca6     26.236785618   22.494478593   28.754847054 XXXX 1      ca+h    Ca  1.500
P2      24.312340272   24.466822941   27.435719078 XXXX 1      pap     P   1.000
O15     23.049283070   23.812988510   26.818009867 XXXX 1      oap1    O  -0.800
O16     24.216856301   26.010206180   27.254082150 XXXX 1      oap1    O  -0.800
Ca7     21.472147396   24.813294314   25.451742231 XXXX 1      ca+h    Ca  1.500
P3      21.168831805   21.619909670   25.176269227 XXXX 1      pap     P   1.000
O17     22.217830959   20.664084797   25.808767721 XXXX 1      oap1    O  -0.800
O18     20.181673006   20.823171063   24.336051182 XXXX 1      oap1    O  -0.800
Ca8     26.090345123   22.461983479   33.287965841 XXXX 1      ca+h    Ca  1.500
P4      23.701920405   21.422427024   31.220261571 XXXX 1      pap     P   1.000
O19     23.324390693   19.878821217   31.360377035 XXXX 1      oap1    O  -0.800
O20     22.593967855   22.178279069   30.410355924 XXXX 1      oap1    O  -0.800
Ca9     22.026979194   18.299492630   30.169688280 XXXX 1      ca+h    Ca  1.500
P5      23.923742425   16.441513545   32.095545050 XXXX 1      pap     P   1.000
O21     24.089442145   17.446113577   33.269274571 XXXX 1      oap1    O  -0.800
O22     25.008136936   15.425897509   32.238692478 XXXX 1      oap1    O  -0.800
P6      26.598112965   19.409669885   33.908787831 XXXX 1      pap     P   1.000
O23     27.199689570   19.030095844   32.497044785 XXXX 1      oap1    O  -0.750
O24     27.209041953   20.726011261   34.468039594 XXXX 1      oap1    O  -0.750
O25     20.805257388   16.177740739   29.875492239 XXXX 1      oap2    O  -1.100
O26     23.240327492   16.497582071   27.140526873 XXXX 1      oap2    O  -1.100
H1      20.358424993   15.979165294   30.700002854 XXXX 1      hop     H   0.200
H2      22.759063113   16.330967468   27.956775491 XXXX 1      hop     H   0.200
H       24.599061838   18.883030337   33.771371112 XXXX 1      hop     H   0.400
end
O1      20.480378096   18.793632074   31.943230144 XXXX 1      oap1    O  -0.750
O2      21.634863107   24.579438166   32.833016370 XXXX 1      oap1    O  -0.750
O3      18.004045566   22.271485369   29.779842865 XXXX 1      oap1    O  -0.800
O4      18.594959957   18.787925270   33.587232353 XXXX 1      oap1    O  -0.650
O5      19.903402604   24.287663447   34.597836130 XXXX 1      oap1    O  -0.650
O6      16.505380388   22.266744744   31.688951503 XXXX 1      oap1    O  -0.800
Ca1     18.150019399   18.136911362   31.343528080 XXXX 1      ca+h    Ca  1.500
P1      20.010074323   19.376655694   33.315419006 XXXX 1      pap     P   1.000
O7      19.916046868   20.876575249   33.237742397 XXXX 1      oap1    O  -0.750
O8      20.920951064   18.930323411   34.466861217 XXXX 1      oap1    O  -0.750
P2      20.122752466   24.558008455   33.108977021 XXXX 1      pap     P   1.000
O9      19.291131903   23.589087247   32.273256603 XXXX 1      oap1    O  -0.750
O10     19.696287227   25.997174972   32.889999293 XXXX 1      oap1    O  -0.750
Ca2     17.212798966   24.568810867   30.670350101 XXXX 1      ca+h    Ca  1.500
P3      17.126192325   21.400769050   30.639271057 XXXX 1      pap     P   1.000
O11     18.087679925   20.441151904   31.267136878 XXXX 1      oap1    O  -0.800
O12     16.066653773   20.664415426   29.850282751 XXXX 1      oap1    O  -0.800
H1      18.919420736   24.391351767   34.708751358 XXXX 1      hop     H   0.400
H2      17.949080404   19.534703406   33.633243098 XXXX 1      hop     H   0.400
end
O1      33.023088303   26.877271609    6.912064191 XXXX 1      oap1    O  -0.800
O2      34.035785227   32.144262072    6.917107960 XXXX 1      oap1    O  -0.800
O3      30.062204816   30.815763392    4.493741901 XXXX 1      oap1    O  -0.800
O4      33.959683000   29.731546673   11.255272190 XXXX 1      oap1    O  -0.800
O5      32.746314533   25.210626726   10.603834051 XXXX 1      oap1    O  -0.800
O7      32.451128720   30.029580698   13.233821240 XXXX 1      oap1    O  -0.800
O8      31.416949656   25.115870252   12.628660338 XXXX 1      oap1    O  -0.800
O10     31.902904002   27.810581941    8.889000791 XXXX 1      oap1    O  -0.800
O11     33.163558595   32.339784523    9.167736321 XXXX 1      oap1    O  -0.800
O12     29.166459945   30.523705761    6.833320192 XXXX 1      oap1    O  -0.800
Ca2     30.898863773   29.955806183    8.405312125 XXXX 1      ca+h    Ca  1.500
Ca3     29.213021568   30.167007053   11.524383806 XXXX 1      ca+h    Ca  1.500
Ca4     34.660036628   27.318421369   11.247151378 XXXX 1      ca+h    Ca  1.500
Ca5     30.760342307   26.842646234    5.710008423 XXXX 1      ca+h    Ca  1.500
P1      33.140243288   27.823270922    8.074986342 XXXX 1      pap     P   1.000
O13     33.376801424   29.225308037    7.602905775 XXXX 1      oap1    O  -0.800
O14     34.412366496   27.425920767    8.887280266 XXXX 1      oap1    O  -0.800
Ca6     34.606140597   30.400342895    9.080399492 XXXX 1      ca+h    Ca  1.500
P2      32.865867347   32.755909869    7.724335250 XXXX 1      pap     P   1.000
O15     31.592038689   32.063196118    7.248876922 XXXX 1      oap1    O  -0.800
O16     32.806827040   34.315271196    7.525311328 XXXX 1      oap1    O  -0.800
Ca7     29.940658894   33.013368860    5.670273495 XXXX 1      ca+h    Ca  1.500
P3      29.759149105   29.786831832    5.609616222 XXXX 1      pap     P   1.000
O17     31.123738155   29.228509816    6.079004902 XXXX 1      oap1    O  -0.800
O18     28.899621264   28.678827870    5.083485878 XXXX 1      oap1    O  -0.800
Ca8     34.710405907   30.714509367   13.496765120 XXXX 1      ca+h    Ca  1.500
P4      32.548418490   29.542500631   11.750896258 XXXX 1      pap     P   1.000
O19     32.283475597   27.987046157   11.762535787 XXXX 1      oap1    O  -0.800
O20     31.493966689   30.227040590   10.822099543 XXXX 1      oap1    O  -0.800
Ca9     30.667620411   26.558048457   10.563608022 XXXX 1      ca+h    Ca  1.500
P5      32.845086784   24.800121942   12.061988295 XXXX 1      pap     P   1.000
O21     33.922570356   25.699641319   12.817699261 XXXX 1      oap1    O  -0.800
O22     33.169029730   23.321238552   12.135505359 XXXX 1      oap1    O  -0.800
O25     28.304874416   24.781833401   11.973343517 XXXX 1      oap2    O  -1.100
O26     30.474613587   24.535846514    9.013903566 XXXX 1      oap2    O  -1.100
H1      28.614995172   24.439233244   11.191176574 XXXX 1      hop     H   0.200
H2      31.077588694   24.785295748    8.359183980 XXXX 1      hop     H   0.200
end
O1      29.266878346   27.582770323   12.210814212 XXXX 1      oap1    O  -0.800
O2      30.216336536   31.978784094   12.759796624 XXXX 1      oap1    O  -0.800
O3      26.098590217   30.811983326   10.097213434 XXXX 1      oap1    O  -0.800
O4      29.635252904   30.002158479   16.967516278 XXXX 1      oap1    O  -0.800
O5      28.812086161   25.438974565   16.210777116 XXXX 1      oap1    O  -0.800
O6      32.384612737   26.657329180   18.806788985 XXXX 1      oap1    O  -0.800
O7      28.059116981   30.139541047   18.858233254 XXXX 1      oap1    O  -0.800
O8      27.233844760   25.240648603   18.117008269 XXXX 1      oap1    O  -0.800
O9      31.001507554   26.931433722   20.900042702 XXXX 1      oap1    O  -0.800
O10     27.749567806   27.456573983   14.126963573 XXXX 1      oap1    O  -0.800
O11     28.978400829   32.226337518   14.874746574 XXXX 1      oap1    O  -0.800
O12     25.041163483   30.464393564   12.364871124 XXXX 1      oap1    O  -0.800
Ca1     32.611136007   27.398928946   14.008759455 XXXX 1      ca+h    Ca  1.500
Ca2     26.781736976   30.175077897   14.149114221 XXXX 1      ca+h    Ca  1.500
Ca3     24.834601134   30.031916167   17.071865349 XXXX 1      ca+h    Ca  1.500
Ca4     30.678982053   27.354764943   16.835601044 XXXX 1      ca+h    Ca  1.500
Ca5     26.911388927   26.783523329   11.762164850 XXXX 1      ca+h    Ca  1.500
P1      29.112093788   27.865767152   13.692656577 XXXX 1      pap     P   1.000
O13     29.167196746   29.377979835   13.832719311 XXXX 1      oap1    O  -0.800
O14     30.231217160   27.176473140   14.502325935 XXXX 1      oap1    O  -0.800
Ca6     30.865904543   30.841210371   14.968190285 XXXX 1      ca+h    Ca  1.500
P2      28.951499996   32.519224275   13.400802241 XXXX 1      pap     P   1.000
O15     27.728814097   31.805531566   12.762667604 XXXX 1      oap1    O  -0.800
O16     28.763413904   34.005277171   13.209995936 XXXX 1      oap1    O  -0.800
Ca7     26.094646959   32.955925285   11.394120253 XXXX 1      ca+h    Ca  1.500
P3      25.763244822   29.772721876   11.182934201 XXXX 1      pap     P   1.000
O17     27.045744103   29.235338914   11.709390203 XXXX 1      oap1    O  -0.800
O18     24.872656697   28.716700366   10.518645243 XXXX 1      oap1    O  -0.800
Ca8     30.590139396   31.089011936   18.985360652 XXXX 1      ca+h    Ca  1.500
P4      28.230111716   29.595715898   17.423326961 XXXX 1      pap     P   1.000
O19     28.300526502   28.043440149   17.486790672 XXXX 1      oap1    O  -0.800
O20     27.130478952   30.112865220   16.446781891 XXXX 1      oap1    O  -0.800
Ca9     26.723398462   26.751045492   16.059010030 XXXX 1      ca+h    Ca  1.500
P5      28.639059263   24.884963333   17.595373519 XXXX 1      pap     P   1.000
O21     29.612418363   25.702246251   18.510745541 XXXX 1      oap1    O  -0.800
O22     28.942139070   23.332897079   17.764895313 XXXX 1      oap1    O  -0.800
Ca10    31.503540083   24.473282367   19.688039553 XXXX 1      ca+h    Ca  1.500
P6      31.824785599   27.695725542   19.855213126 XXXX 1      pap     P   1.000
O23     30.820058095   28.613980566   19.070682556 XXXX 1      oap1    O  -0.800
O24     32.944198238   28.436248042   20.609875251 XXXX 1      oap1    O  -0.800
O25     24.177546753   24.552794869   17.811267219 XXXX 1      oap2    O  -1.100
O26     26.328785041   24.540199293   14.850537566 XXXX 1      oap2    O  -1.100
H1      24.922891374   24.438490969   17.244208064 XXXX 1      hop     H   0.200
H2      26.458756873   25.015007353   14.077229000 XXXX 1      hop     H   0.200
end
O1      25.161419616   27.526854792   17.823116315 XXXX 1      oap1    O  -0.800
O2      26.022903562   32.024454693   18.382942165 XXXX 1      oap1    O  -0.800
O3      22.318709554   30.805538063   15.874811108 XXXX 1      oap1    O  -0.800
O4      25.526065335   29.818251457   22.390276140 XXXX 1      oap1    O  -0.800
O5      24.680537557   25.467269523   21.913468258 XXXX 1      oap1    O  -0.800
O6      28.323674250   26.778474205   24.437813454 XXXX 1      oap1    O  -0.800
O7      23.965249217   30.360935321   24.287298333 XXXX 1      oap1    O  -0.800
O8      23.288475433   25.413855979   24.051264464 XXXX 1      oap1    O  -0.800
O9      26.996348291   26.867322657   26.552323691 XXXX 1      oap1    O  -0.800
O10     23.717194828   27.318184094   19.746392035 XXXX 1      oap1    O  -0.800
O11     24.742234303   32.219773111   20.511908734 XXXX 1      oap1    O  -0.800
O12     20.954913509   30.428336487   17.916491998 XXXX 1      oap1    O  -0.800
Ca1     28.741443668   27.491728692   19.797288927 XXXX 1      ca+h    Ca  1.500
Ca2     22.596220500   29.907257098   19.649704885 XXXX 1      ca+h    Ca  1.500
Ca3     20.700002687   30.022814812   22.528989016 XXXX 1      ca+h    Ca  1.500
Ca4     26.358307204   27.339470530   22.482331899 XXXX 1      ca+h    Ca  1.500
Ca5     22.744472932   26.478602269   17.603566430 XXXX 1      ca+h    Ca  1.500
P1      25.059723746   27.844694715   19.308074735 XXXX 1      pap     P   1.000
O13     25.091968075   29.370077717   19.427907830 XXXX 1      oap1    O  -0.800
O14     26.195306570   27.089085160   20.074894755 XXXX 1      oap1    O  -0.800
Ca6     26.702392852   30.760777465   20.568067371 XXXX 1      ca+h    Ca  1.500
P2      24.704097628   32.536688082   18.981812561 XXXX 1      pap     P   1.000
O15     23.495453058   31.749298507   18.353943122 XXXX 1      oap1    O  -0.800
O16     24.559939876   34.064814996   18.817657197 XXXX 1      oap1    O  -0.800
Ca7     21.822027882   32.790448840   16.980032073 XXXX 1      ca+h    Ca  1.500
P3      21.622851222   29.700197391   16.716798420 XXXX 1      pap     P   1.000
O17     22.722876109   28.827265840   17.339356797 XXXX 1      oap1    O  -0.800
O18     20.592989974   28.867795695   15.909339678 XXXX 1      oap1    O  -0.800
Ca8     26.375991943   30.805163189   24.642520005 XXXX 1      ca+h    Ca  1.500
P4      24.041122076   29.641407233   22.908547168 XXXX 1      pap     P   1.000
O19     23.964672987   28.140827198   23.054084301 XXXX 1      oap1    O  -0.800
O20     23.034914123   30.262147998   21.937906706 XXXX 1      oap1    O  -0.800
Ca9     22.468257513   26.536460269   21.790474822 XXXX 1      ca+h    Ca  1.500
P5      24.571114520   24.896398271   23.286450237 XXXX 1      pap     P   1.000
O21     25.762652295   25.578522873   24.008920349 XXXX 1      oap1    O  -0.800
O22     24.841157508   23.391554687   23.285275224 XXXX 1      oap1    O  -0.800
Ca10    27.461832976   24.472245996   25.203569584 XXXX 1      ca+h    Ca  1.500
P6      27.647303913   27.687257599   25.461754604 XXXX 1      pap     P   1.000
O23     26.542893097   28.480436300   24.786652410 XXXX 1      oap1    O  -0.800
O24     28.612624838   28.628321500   26.112648774 XXXX 1      oap1    O  -0.800
O25     20.192291192   24.587628038   23.220324988 XXXX 1      oap2    O  -1.100
O26     22.124424323   24.484889875   20.662273601 XXXX 1      oap2    O  -1.100
H1      20.698435011   24.576244560   22.423329922 XXXX 1      hop     H   0.200
H2      22.548065720   24.002290425   19.927881606 XXXX 1      hop     H   0.200
end
O1      20.996832538   27.517805734   23.449449126 XXXX 1      oap1    O  -0.800
O2      21.692869086   31.825762878   23.899377451 XXXX 1      oap1    O  -0.800
O3      18.128598451   30.653159784   21.403320328 XXXX 1      oap1    O  -0.800
O4      21.509014132   29.694469747   28.145341727 XXXX 1      oap1    O  -0.800
O5      20.494868675   25.343286482   27.625090025 XXXX 1      oap1    O  -0.800
O6      24.458819168   27.141724118   30.347113249 XXXX 1      oap1    O  -0.800
O7      20.022326495   30.212565190   29.949765668 XXXX 1      oap1    O  -0.800
O8      19.026216417   25.432071077   29.621968434 XXXX 1      oap1    O  -0.800
O9      23.363935122   27.017367499   32.576831937 XXXX 1      oap1    O  -0.800
O10     19.501399291   27.257101152   25.427794362 XXXX 1      oap1    O  -0.800
O11     20.556289130   32.147706741   26.102021296 XXXX 1      oap1    O  -0.800
O12     16.505166773   30.530456702   23.336674884 XXXX 1      oap1    O  -0.800
Ca1     24.405330349   27.292790508   25.272747684 XXXX 1      ca+h    Ca  1.500
Ca2     18.493540619   30.007928687   25.254309749 XXXX 1      ca+h    Ca  1.500
Ca3     16.409428455   30.179769194   27.914495892 XXXX 1      ca+h    Ca  1.500
Ca4     22.464544959   27.277400097   28.226546179 XXXX 1      ca+h    Ca  1.500
Ca5     18.608843449   26.437236878   23.216336584 XXXX 1      ca+h    Ca  1.500
P1      20.840249320   27.779902959   25.006615979 XXXX 1      pap     P   1.000
O13     20.882325354   29.347087633   25.148827718 XXXX 1      oap1    O  -0.800
O14     21.932907539   27.073386011   25.836750259 XXXX 1      oap1    O  -0.800
Ca6     22.537683907   30.729773659   26.127220132 XXXX 1      ca+h    Ca  1.500
P2      20.484131181   32.507319393   24.604076179 XXXX 1      pap     P   1.000
O15     19.323948275   31.776642276   23.929082859 XXXX 1      oap1    O  -0.800
O16     20.444696032   33.988911285   24.392991321 XXXX 1      oap1    O  -0.800
Ca7     17.637709113   32.861452297   22.534183288 XXXX 1      ca+h    Ca  1.500
P3      17.382967586   29.694906215   22.358923526 XXXX 1      pap     P   1.000
O17     18.405086238   28.778450128   23.131664958 XXXX 1      oap1    O  -0.800
O18     16.440890866   28.791550437   21.519218396 XXXX 1      oap1    O  -0.800
Ca8     22.351462588   30.593700521   30.273988472 XXXX 1      ca+h    Ca  1.500
P4      20.026591478   29.556680598   28.584034020 XXXX 1      pap     P   1.000
O19     19.682860635   28.024593923   28.707410799 XXXX 1      oap1    O  -0.800
O20     18.971728687   30.216023707   27.692810181 XXXX 1      oap1    O  -0.800
Ca9     18.241024451   26.452743551   27.397132208 XXXX 1      ca+h    Ca  1.500
P5      20.347614721   24.898014008   29.078248234 XXXX 1      pap     P   1.000
O21     21.578482352   25.485956827   29.854298788 XXXX 1      oap1    O  -0.800
O22     20.303593685   23.332556727   29.116571100 XXXX 1      oap1    O  -0.800
Ca10    23.354454317   24.386877252   30.951100825 XXXX 1      ca+h    Ca  1.500
P6      23.499269899   27.880868614   31.296017227 XXXX 1      pap     P   1.000
O23     22.202208359   27.958169897   30.490203635 XXXX 1      oap1    O  -0.800
O24     24.048697522   29.264620423   31.610838674 XXXX 1      oap1    O  -0.800
O25     16.664284017   24.608584389   28.160344874 XXXX 1      oap2    O  -1.100
O26     18.370619328   24.508285089   25.606921166 XXXX 1      oap2    O  -1.100
H1      15.864392767   24.904674135   27.694495871 XXXX 1      hop     H   0.200
H2      19.255909190   24.490750115   25.225336615 XXXX 1      hop     H   0.200
end
O1      17.112912338   27.113138429   29.409095400 XXXX 1      oap1    O  -0.800
O2      17.737450615   32.255536295   29.710202481 XXXX 1      oap1    O  -0.800
O3      14.001081710   30.730801443   26.941222589 XXXX 1      oap1    O  -0.800
O4      17.163808339   29.836141123   33.868978178 XXXX 1      oap1    O  -0.750
O5      16.642875881   25.179398183   32.927192181 XXXX 1      oap1    O  -0.750
O6      15.423239130   31.850523633   33.912833252 XXXX 1      oap1    O  -0.650
O7      17.538867769   24.030449812   34.925578845 XXXX 1      oap1    O  -0.750
O8      15.282660764   27.677358693   30.957909633 XXXX 1      oap1    O  -0.800
O9      16.221524799   32.176454448   31.651057487 XXXX 1      oap1    O  -0.800
O10     12.562918261   30.599628841   28.943062906 XXXX 1      oap1    O  -0.800
Ca1     19.895356371   27.283455660   30.973512992 XXXX 1      ca+h    Ca  1.500
Ca2     14.253512351   30.107281695   30.687639318 XXXX 1      ca+h    Ca  1.500
Ca3     12.708150339   29.723206850   33.799219880 XXXX 1      ca+h    Ca  1.500
Ca4     16.167188462   27.521619617   33.487252728 XXXX 1      ca+h    Ca  1.500
Ca5     14.615215234   26.401083388   28.842045958 XXXX 1      ca+h    Ca  1.500
P1      16.689786214   28.116188945   30.459694445 XXXX 1      pap     P   1.000
O11     16.659869225   29.566811167   30.046156330 XXXX 1      oap1    O  -0.800
O12     17.672192600   28.098321328   31.639810334 XXXX 1      oap1    O  -0.800
Ca6     18.124513235   30.480575714   31.713393880 XXXX 1      ca+h    Ca  1.500
P2      16.350610397   32.665932426   30.205689876 XXXX 1      pap     P   1.000
O13     15.255800492   32.047110864   29.341762209 XXXX 1      oap1    O  -0.800
O14     16.310850465   34.241607358   30.157368845 XXXX 1      oap1    O  -0.800
Ca7     13.554404805   33.024061742   27.632285466 XXXX 1      ca+h    Ca  1.500
P3      13.297402320   29.750851462   27.885532290 XXXX 1      pap     P   1.000
O15     14.407131279   28.907744960   28.636347477 XXXX 1      oap1    O  -0.800
O16     12.265744438   28.830187338   27.171618324 XXXX 1      oap1    O  -0.800
P4      15.691065066   30.353229255   34.057266177 XXXX 1      pap     P   1.000
O17     14.889887666   29.655286889   35.145962380 XXXX 1      oap1    O  -0.750
O18     15.049219484   29.684340733   32.789799512 XXXX 1      oap1    O  -0.750
P5      16.235252348   24.644629672   34.280524948 XXXX 1      pap     P   1.000
O19     15.163313582   23.501813469   34.160488767 XXXX 1      oap1    O  -0.650
O20     15.642235338   25.815287613   35.091261331 XXXX 1      oap1    O  -0.750
O21     14.803512907   24.549326960   30.509793681 XXXX 1      oap2    O  -1.100
H1      14.484763424   25.154076089   31.175765627 XXXX 1      hop     H   0.200
H2      15.620239638   31.996452454   32.983402975 XXXX 1      hop     H   0.400
H3      15.205520805   23.189932931   33.286597548 XXXX 1      hop     H   0.400
end
O1      32.637954774   19.026169542   32.151201403 XXXX 1      oap1    O  -0.750
O2      33.824354885   25.289186597   32.987461289 XXXX 1      oap1    O  -0.750
O3      29.306211751   22.548178873   29.739366301 XXXX 1      oap1    O  -0.800
O4      31.021036640   17.068059412   32.389927971 XXXX 1      oap1    O  -0.750
O5      32.148762931   24.772182226   34.892594228 XXXX 1      oap1    O  -0.650
O6      27.741161429   22.655292688   31.608077984 XXXX 1      oap1    O  -0.800
Ca1     29.210220194   18.596448067   31.706386195 XXXX 1      ca+h    Ca  1.500
P1      31.808892797   18.172764189   33.144777330 XXXX 1      pap     P   1.000
O7      30.719939496   19.211303014   33.635519339 XXXX 1      oap1    O  -0.750
O8      32.706565351   17.666619159   34.194254494 XXXX 1      oap1    O  -0.650
P2      32.341131261   25.000741070   33.384771541 XXXX 1      pap     P   1.000
O9      31.797585351   23.792766039   32.550875389 XXXX 1      oap1    O  -0.750
O10     31.605837678   26.307224164   33.042830621 XXXX 1      oap1    O  -0.750
Ca2     29.029471640   24.681463386   30.793941793 XXXX 1      ca+h    Ca  1.500
P3      28.573138344   21.671245369   30.727857503 XXXX 1      pap     P   1.000
O11     29.652194551   20.909410170   31.515519730 XXXX 1      oap1    O  -0.800
O12     27.572977611   20.723438307   29.970008001 XXXX 1      oap1    O  -0.800
H1      31.501087943   24.073254329   34.979059244 XXXX 1      hop     H   0.400
H2      32.182135465   16.992788333   34.573987391 XXXX 1      hop     H   0.400
end
O1      32.612739461   27.603137811   23.377531317 XXXX 1      oap1    O  -0.800
O2      33.602597981   32.306614545   24.339689084 XXXX 1      oap1    O  -0.800
O3      29.972127846   30.644721472   21.251547410 XXXX 1      oap1    O  -0.800
O4      33.011524577   29.891746275   28.029571417 XXXX 1      oap1    O  -0.800
O5      32.236715505   25.459283946   27.478057281 XXXX 1      oap1    O  -0.800
O7      31.548892921   29.856774036   29.999876222 XXXX 1      oap1    O  -0.800
O8      30.919184468   25.408017928   29.555031716 XXXX 1      oap1    O  -0.800
O10     31.103190256   27.414861645   25.367503017 XXXX 1      oap1    O  -0.800
O11     32.032564640   32.060654535   26.235425359 XXXX 1      oap1    O  -0.800
O12     28.459062329   30.811676338   23.254100160 XXXX 1      oap1    O  -0.800
Ca2     30.162792756   30.115854473   25.238199425 XXXX 1      ca+h    Ca  1.500
Ca3     28.143173010   30.215577402   27.896513278 XXXX 1      ca+h    Ca  1.500
Ca4     33.882575812   27.486808307   28.028213063 XXXX 1      ca+h    Ca  1.500
Ca5     30.252443780   26.600095531   23.107274712 XXXX 1      ca+h    Ca  1.500
P1      32.437009486   27.903361851   24.879106475 XXXX 1      pap     P   1.000
O13     32.493224693   29.424719063   24.957063055 XXXX 1      oap1    O  -0.800
O14     33.622838561   27.240383704   25.663664214 XXXX 1      oap1    O  -0.800
Ca6     34.214066372   30.730281998   26.097167053 XXXX 1      ca+h    Ca  1.500
P2      32.168242022   32.602341498   24.764953951 XXXX 1      pap     P   1.000
O15     31.198856796   31.756166319   23.823869868 XXXX 1      oap1    O  -0.800
O16     31.958381577   34.146225787   24.688668810 XXXX 1      oap1    O  -0.800
Ca7     29.407789267   32.906515775   22.518981450 XXXX 1      ca+h    Ca  1.500
P3      29.191528333   29.805216345   22.309670534 XXXX 1      pap     P   1.000
O17     30.108684047   28.892158754   23.088329815 XXXX 1      oap1    O  -0.800
O18     28.102174369   28.959418083   21.644026959 XXXX 1      oap1    O  -0.800
Ca8     33.877759783   30.874962183   30.244943307 XXXX 1      ca+h    Ca  1.500
P4      31.572611673   29.512846599   28.521771112 XXXX 1      pap     P   1.000
O19     31.447640140   27.997785489   28.349625914 XXXX 1      oap1    O  -0.800
O20     30.548937984   30.362015073   27.822277047 XXXX 1      oap1    O  -0.800
Ca9     29.906157401   26.481118649   27.403467395 XXXX 1      ca+h    Ca  1.500
P5      32.242002066   24.903479753   28.940921996 XXXX 1      pap     P   1.000
O21     33.456263278   25.522765202   29.624276895 XXXX 1      oap1    O  -0.800
O22     32.293352434   23.309658661   28.922574568 XXXX 1      oap1    O  -0.800
O25     27.652451800   24.683603321   28.662592700 XXXX 1      oap2    O  -1.100
O26     29.619956223   24.469001318   26.137897188 XXXX 1      oap2    O  -1.100
H1      27.702505586   24.420118142   27.741947834 XXXX 1      hop     H   0.200
H2      30.448128855   24.451799331   25.639808985 XXXX 1      hop     H   0.200
end
O1      28.720251703   27.128718451   29.362011205 XXXX 1      oap1    O  -0.800
O2      29.299235702   31.974951499   29.624860134 XXXX 1      oap1    O  -0.800
O3      25.775811609   30.696033942   27.031450466 XXXX 1      oap1    O  -0.800
O4      28.098616097   30.062244978   33.612975624 XXXX 1      oap1    O  -0.750
O5      26.633061447   24.669790853   34.277006614 XXXX 1      oap1    O  -0.750
O6      27.730854782   28.959062278   35.745814894 XXXX 1      oap1    O  -0.650
O7      28.954553448   24.404995386   35.353177757 XXXX 1      oap1    O  -0.650
O8      27.103993822   27.602162489   31.278009508 XXXX 1      oap1    O  -0.800
O9      27.740325963   32.019496323   31.570595953 XXXX 1      oap1    O  -0.800
O10     24.261753709   30.646519100   28.932029843 XXXX 1      oap1    O  -0.800
Ca1     31.855734741   27.238204838   30.850365415 XXXX 1      ca+h    Ca  1.500
Ca2     26.047475465   30.158054457   30.737356517 XXXX 1      ca+h    Ca  1.500
Ca3     24.108509393   30.227201766   33.888252078 XXXX 1      ca+h    Ca  1.500
Ca4     29.846296029   27.875666732   33.993287258 XXXX 1      ca+h    Ca  1.500
Ca5     26.179301324   26.554629351   28.805877579 XXXX 1      ca+h    Ca  1.500
P1      28.427845238   28.038175876   30.556684975 XXXX 1      pap     P   1.000
O11     28.213451292   29.486957191   30.065319776 XXXX 1      oap1    O  -0.800
O12     29.601814618   28.054238990   31.579151460 XXXX 1      oap1    O  -0.800
Ca6     29.928989678   30.654922604   31.384748460 XXXX 1      ca+h    Ca  1.500
P2      27.970803771   32.598049574   30.167374401 XXXX 1      pap     P   1.000
O13     26.833376718   32.035880610   29.254978576 XXXX 1      oap1    O  -0.800
O14     27.985782008   34.112886494   30.024508299 XXXX 1      oap1    O  -0.800
Ca7     25.240969705   32.930711613   27.884476907 XXXX 1      ca+h    Ca  1.500
P3      24.958316158   29.741944344   27.921465907 XXXX 1      pap     P   1.000
O15     26.076406240   28.979830636   28.618050789 XXXX 1      oap1    O  -0.800
O16     23.960743767   28.823936199   27.137636042 XXXX 1      oap1    O  -0.800
P4      27.013680573   29.598386847   34.638485875 XXXX 1      pap     P   1.000
O17     26.028741357   28.639069249   33.939450957 XXXX 1      oap1    O  -0.750
O18     26.173494357   30.870463193   35.006467892 XXXX 1      oap1    O  -0.750
Ca8     25.864458384   26.447056638   32.939955997 XXXX 1      ca+h    Ca  1.500
P5      28.079955351   25.318384549   34.454404175 XXXX 1      pap     P   1.000
O19     27.969374564   26.723506576   35.084851700 XXXX 1      oap1    O  -0.750
O20     28.623882945   25.649183361   33.039226357 XXXX 1      oap1    O  -0.750
O21     25.697133298   24.457050484   31.646631729 XXXX 1      oap2    O  -1.100
H1      26.332172758   23.801777120   31.377506838 XXXX 1      hop     H   0.200
H2      27.710532635   27.975059545   35.687748231 XXXX 1      hop     H   0.400
H3      28.556650058   23.582527947   35.554624257 XXXX 1      hop     H   0.400
end
O3      34.242325308    6.428042899    7.424732207 XXXX 1      oap1    O  -0.800
O12     32.911640462    6.283410149    9.397267198 XXXX 1      oap1    O  -0.800
Ca2     34.514620826    5.791626618   11.268274468 XXXX 1      ca+h    Ca  1.500
Ca3     32.695870260    5.451297583   14.197871964 XXXX 1      ca+h    Ca  1.500
Ca5     34.622224440    2.343575997    8.982553180 XXXX 1      ca+h    Ca  1.500
Ca7     33.775176215    8.607192551    8.310195906 XXXX 1      ca+h    Ca  1.500
P3      33.487576773    5.441435904    8.274500609 XXXX 1      pap     P   1.000
O17     34.545728921    4.622809292    9.069260830 XXXX 1      oap1    O  -0.800
O18     32.375802604    4.612067742    7.477883501 XXXX 1      oap1    O  -0.800
Ca9     34.540186811    2.158053598   13.197489521 XXXX 1      ca+h    Ca  1.500
end
O3       9.853204798   14.196525093   32.404792485 XXXX 1      oap1    O  -0.750
O12      8.023225093   14.731346591   33.953201727 XXXX 1      oap1    O  -0.650
Ca5      9.067367887   10.548032045   34.208478417 XXXX 1      ca+h    Ca  1.500
P3       8.890902805   13.601303438   33.411473263 XXXX 1      pap     P   1.000
O17      9.732128617   12.907266615   34.500674194 XXXX 1      oap1    O  -0.750
O18      8.013610308   12.560952448   32.762610413 XXXX 1      oap1    O  -0.750
H        8.425256001   15.544442162   33.797158959 XXXX 1      hop     H   0.400
end
O3      33.913580648    6.071137801   24.084633195 XXXX 1      oap1    O  -0.800
O12     32.177813914    6.418014457   25.875887951 XXXX 1      oap1    O  -0.800
Ca2     34.295373829    5.590673422   28.270675135 XXXX 1      ca+h    Ca  1.500
Ca3     31.777133321    5.707501160   30.784019982 XXXX 1      ca+h    Ca  1.500
Ca5     33.964144967    2.110366888   26.097271658 XXXX 1      ca+h    Ca  1.500
Ca7     33.100319402    8.431529840   25.272686475 XXXX 1      ca+h    Ca  1.500
P3      32.911043276    5.341490385   25.034243506 XXXX 1      pap     P   1.000
O17     33.765396249    4.520956034   26.025421607 XXXX 1      oap1    O  -0.800
O18     31.854375204    4.478454686   24.298828494 XXXX 1      oap1    O  -0.800
Ca9     34.027444941    1.875935217   29.669271369 XXXX 1      ca+h    Ca  1.500
end
O3      34.185859707   14.285099723   15.878989887 XXXX 1      oap1    O  -0.800
O12     32.364153706   14.378866069   17.613181495 XXXX 1      oap1    O  -0.800
Ca2     34.455611196   13.650786022   19.792108029 XXXX 1      ca+h    Ca  1.500
Ca3     32.290558657   13.791160509   22.505333208 XXXX 1      ca+h    Ca  1.500
Ca5     34.373073285   10.178534357   17.567861859 XXXX 1      ca+h    Ca  1.500
Ca7     33.521592008   16.547184715   17.061205984 XXXX 1      ca+h    Ca  1.500
P3      33.221774497   13.444307029   16.735506118 XXXX 1      pap     P   1.000
O17     34.244468948   12.608051214   17.592968047 XXXX 1      oap1    O  -0.800
O18     32.292012624   12.496216463   15.869439928 XXXX 1      oap1    O  -0.800
Ca9     34.174880056   10.387562603   21.800105684 XXXX 1      ca+h    Ca  1.500
O25     33.023945044    8.169806604   21.600568729 XXXX 1      oap2    O  -1.100
H1      32.246816033    8.324482066   22.172492425 XXXX 1      hop     H   0.200
end
O3      19.998738082   15.619348653   34.803958035 XXXX 1      oap1    O  -0.750
O12     17.649347367   16.393948048   34.970314407 XXXX 1      oap1    O  -0.650
Ca7     21.857872606   16.915018063   34.265149750 XXXX 1      ca+h    Ca  1.500
P3      18.563238017   15.561421717   34.121150576 XXXX 1      pap     P   1.000
O17     18.027919830   14.119229923   33.928761763 XXXX 1      oap1    O  -0.750
O18     18.683306307   16.170813034   32.768342098 XXXX 1      oap1    O  -0.750
H       18.029060094   16.944405149   35.615247193 XXXX 1      hop     H   0.400
end
O3      34.697059974   22.138868167    7.355496293 XXXX 1      oap1    O  -0.800
O12     32.748891417   22.598561096    8.864738744 XXXX 1      oap1    O  -0.800
Ca2     34.878548885   21.925187879   11.280999338 XXXX 1      ca+h    Ca  1.500
Ca3     32.715509999   22.100373517   14.073537457 XXXX 1      ca+h    Ca  1.500
Ca5     34.743908941   18.560913924    9.002103175 XXXX 1      ca+h    Ca  1.500
Ca7     33.703266475   24.699644752    8.313414173 XXXX 1      ca+h    Ca  1.500
P3      33.661953672   21.534872883    8.246922814 XXXX 1      pap     P   1.000
O17     34.274235609   20.681862260    9.379210070 XXXX 1      oap1    O  -0.800
O18     32.738279120   20.622558264    7.416728199 XXXX 1      oap1    O  -0.800
Ca9     34.493691070   18.574504476   13.441515925 XXXX 1      ca+h    Ca  1.500
O25     33.502082497   16.461004439   12.925006024 XXXX 1      oap2    O  -1.100
H1      33.935869518   16.311705316   12.125207762 XXXX 1      hop     H   0.200
end
O3       8.050973736   31.046019754   33.448711729 XXXX 1      oap1    O  -0.750
O12      9.488632883   29.579377161   35.047037168 XXXX 1      oap1    O  -0.650
Ca7      9.376382298   32.867623726   33.024791594 XXXX 1      ca+h    Ca  1.500
P3       9.076100998   29.899673877   33.565591098 XXXX 1      pap     P   1.000
O17     10.288050285   30.471678036   32.817150539 XXXX 1      oap1    O  -0.750
O18      8.488671366   28.684186335   32.742544528 XXXX 1      oap1    O  -0.750
H        8.807263831   29.028380834   35.385740972 XXXX 1      hop     H   0.400
end
O3      33.204839374   14.235039568   32.639433503 XXXX 1      oap1    O  -0.750
O12     31.521691243   14.392710909   34.533451021 XXXX 1      oap1    O  -0.650
Ca7     30.157478849   14.625296010   31.674661401 XXXX 1      ca+h    Ca  1.500
P3      32.410375392   13.449482278   33.720073699 XXXX 1      pap     P   1.000
O17     33.494453801   12.776697032   34.603709947 XXXX 1      oap1    O  -0.750
O18     31.552998390   12.413642705   32.943408026 XXXX 1      oap1    O  -0.750
H       30.614881971   14.050358661   34.527312134 XXXX 1      hop     H   0.400
end
O3      33.674621942   22.358903588   24.307219019 XXXX 1      oap1    O  -0.800
O12     32.085191040   22.462662384   26.315071475 XXXX 1      oap1    O  -0.800
Ca2     33.891524536   21.850937680   28.243115608 XXXX 1      ca+h    Ca  1.500
Ca3     31.825415737   21.608129372   31.334166556 XXXX 1      ca+h    Ca  1.500
Ca5     33.838790734   18.362129071   26.050749825 XXXX 1      ca+h    Ca  1.500
Ca7     33.092271966   24.771363324   25.411006105 XXXX 1      ca+h    Ca  1.500
P3      32.742508579   21.586418727   25.192034075 XXXX 1      pap     P   1.000
O17     33.749741243   20.705768197   25.945842508 XXXX 1      oap1    O  -0.800
O18     31.714266972   20.738247027   24.316668961 XXXX 1      oap1    O  -0.800
Ca9     33.561405205   18.295704915   29.924439069 XXXX 1      ca+h    Ca  1.500
O25     32.482715111   16.210667346   29.792394516 XXXX 1      oap2    O  -1.100
H1      32.069922719   16.525148569   30.642175911 XXXX 1      hop     H   0.200
end
O3      34.129519360   30.607447461   15.833546880 XXXX 1      oap1    O  -0.800
O12     32.418399808   30.922820291   17.641454259 XXXX 1      oap1    O  -0.800
Ca2     34.377022667   30.256777142   19.667352737 XXXX 1      ca+h    Ca  1.500
Ca3     32.297483073   29.904680253   22.462048394 XXXX 1      ca+h    Ca  1.500
Ca5     34.369182991   26.621583130   17.495094808 XXXX 1      ca+h    Ca  1.500
Ca7     33.583446491   33.023406886   16.877437545 XXXX 1      ca+h    Ca  1.500
P3      33.209800872   29.859546359   16.770758377 XXXX 1      pap     P   1.000
O17     34.194258280   29.058030502   17.678806335 XXXX 1      oap1    O  -0.800
O18     32.281333781   29.006735602   15.924695551 XXXX 1      oap1    O  -0.800
Ca9     34.235688018   26.802284315   21.747695048 XXXX 1      ca+h    Ca  1.500
O25     31.570658905   24.650202986   23.587648881 XXXX 1      oap2    O  -1.100
H1      32.292966404   24.875501118   23.024392394 XXXX 1      hop     H   0.200
end
O3      21.884123136   30.782749339   32.821289171 XXXX 1      oap1    O  -0.750
O12     20.129033351   30.463439687   34.642709765 XXXX 1      oap1    O  -0.650
Ca5     21.530215101   26.729996317   34.258059458 XXXX 1      ca+h    Ca  1.500
Ca7     21.529086971   32.992695535   33.487361716 XXXX 1      ca+h    Ca  1.500
P3      21.085793459   29.788460381   33.781683645 XXXX 1      pap     P   1.000
O17     22.186533954   29.032647140   34.632847254 XXXX 1      oap1    O  -0.750
O18     20.367479107   28.714566184   32.958557342 XXXX 1      oap1    O  -0.750
H       19.286208362   30.163244896   34.345950271 XXXX 1      hop     H   0.400
end
O3      30.849132848   32.310123837   32.830764744 XXXX 1      oap1    O  -0.750
O12     32.359273868   31.902081892   34.761221987 XXXX 1      oap1    O  -0.650
Ca5     35.489117859   26.658217737   33.972140825 XXXX 1      ca+h    Ca  1.500
Ca7     35.150809252   35.346336909   33.366323895 XXXX 1      ca+h    Ca  1.500
P3      31.813515715   31.333564854   33.450664948 XXXX 1      pap     P   1.000
O17     32.972618039   31.003350746   32.556242894 XXXX 1      oap1    O  -0.750
O18     30.988351593   30.043557238   33.675720928 XXXX 1      oap1    O  -0.750
H       31.935265508   32.677039474   34.947954552 XXXX 1      hop     H   0.400
end
O4       9.988570621    3.575547635    2.921329716 XXXX 1      oap1    O  -0.750
O6      13.731448113    2.498042137    4.796935750 XXXX 1      oap1    O  -0.800
O7       9.019948792    5.289081939    4.453549980 XXXX 1      oap1    O  -0.750
O9      12.394650542    2.135529437    6.800886625 XXXX 1      oap1    O  -0.800
Ca3      5.830374369    5.374213756    3.002056118 XXXX 1      ca+h    Ca  1.500
Ca4     12.519864102    4.118168004    2.858266967 XXXX 1      ca+h    Ca  1.500
Ca8     14.865955029    7.971815175    2.688793265 XXXX 1      ca+h    Ca  1.500
P4       9.306283978    4.958964983    2.995008408 XXXX 1      pap     P   1.000
O19      8.031820551    4.920140386    2.181713166 XXXX 1      oap1    O  -0.750
O20     10.308275533    5.987620987    2.470890657 XXXX 1      oap1    O  -0.650
Ca9      7.864444045    2.087910010    2.041557543 XXXX 1      ca+h    Ca  1.500
P6      13.036633565    3.242383700    5.914247351 XXXX 1      pap     P   1.000
O23     11.889646835    4.091826688    5.254601402 XXXX 1      oap1    O  -0.800
O24     14.046741076    4.027520523    6.685275508 XXXX 1      oap1    O  -0.800
H        9.989857440    6.378405550    1.685381754 XXXX 1      hop     H   0.400
end
O4      22.576028047    5.322094963    2.992640940 XXXX 1      oap1    O  -0.650
O6      25.187388045    2.328677424    5.104850795 XXXX 1      oap1    O  -0.800
O7      20.698679431    5.034317699    4.714488018 XXXX 1      oap1    O  -0.750
O9      23.647617382    2.226116081    6.975570580 XXXX 1      oap1    O  -0.800
Ca3     18.333862772    5.857717275    3.206800979 XXXX 1      ca+h    Ca  1.500
Ca8     23.520596492    6.419138946    5.012894201 XXXX 1      ca+h    Ca  1.500
P4      21.273131493    4.564969834    3.367360335 XXXX 1      pap     P   1.000
O19     21.557608741    3.069939284    3.475658986 XXXX 1      oap1    O  -0.750
O20     20.093347232    4.714442651    2.323070872 XXXX 1      oap1    O  -0.750
Ca9     19.715931507    2.153765853    2.325972960 XXXX 1      ca+h    Ca  1.500
P6      24.503576743    3.158571751    6.206359961 XXXX 1      pap     P   1.000
O23     23.485079159    4.078207647    5.578444166 XXXX 1      oap1    O  -0.800
O24     25.528598868    4.020737405    7.042273610 XXXX 1      oap1    O  -0.800
H       23.277620325    4.766131887    2.726769879 XXXX 1      hop     H   0.400
end
O1      10.542817047   21.830501597    1.843023303 XXXX 1      oap1    O  -0.650
O2      10.166822079   17.044478901    2.211614828 XXXX 1      oap1    O  -0.650
O3      14.032530345   18.424082841    5.363811515 XXXX 1      oap1    O  -0.800
O4       9.026609794   22.418440015    3.849135571 XXXX 1      oap1    O  -0.750
O5       8.474924435   16.964584460    3.995747219 XXXX 1      oap1    O  -0.750
O6      12.076071485   18.787074093    6.879553694 XXXX 1      oap1    O  -0.800
Ca1      6.218380688   22.226005401    2.817874985 XXXX 1      ca+h    Ca  1.500
Ca2     12.631937907   22.453636973    4.765598959 XXXX 1      ca+h    Ca  1.500
P1       9.350073426   21.392192044    2.725277160 XXXX 1      pap     P   1.000
O7       9.723439198   20.031758934    3.445650721 XXXX 1      oap1    O  -0.750
O8       8.043030318   20.971839608    1.989008427 XXXX 1      oap1    O  -0.750
Ca3      8.178790276   18.576535119    2.243431058 XXXX 1      ca+h    Ca  1.500
P2       9.946534544   16.485761058    3.610392757 XXXX 1      pap     P   1.000
O9      10.958254031   17.093401589    4.628154555 XXXX 1      oap1    O  -0.750
O10     10.025226344   14.952742945    3.630977290 XXXX 1      oap1    O  -0.750
Ca4     12.839270954   16.394024723    5.766684831 XXXX 1      ca+h    Ca  1.500
P3      13.078236154   19.504581427    5.991097998 XXXX 1      pap     P   1.000
O11     12.322183527   20.229361498    4.943936212 XXXX 1      oap1    O  -0.800
O12     13.953678033   20.488933574    6.744328024 XXXX 1      oap1    O  -0.800
H1      10.812871096   16.439052252    1.887304147 XXXX 1      hop     H   0.400
H2      11.406360169   21.720042317    2.243197496 XXXX 1      hop     H   0.400
end
O4      34.017724795    6.148104302    2.983170496 XXXX 1      oap1    O  -0.650
O7      32.272788933    5.422858889    4.667689548 XXXX 1      oap1    O  -0.750
Ca4     35.961946230    2.876413252    2.687172084 XXXX 1      ca+h    Ca  1.500
Ca8     35.132891581    6.571183584    5.202465281 XXXX 1      ca+h    Ca  1.500
P4      32.671772450    5.347891276    3.129292589 XXXX 1      pap     P   1.000
O19     32.806109915    3.907329741    2.738148914 XXXX 1      oap1    O  -0.750
O20     31.527437987    6.160698026    2.320628350 XXXX 1      oap1    O  -0.750
Ca9     29.446701896    5.077085315    2.873834788 XXXX 1      ca+h    Ca  1.500
H       34.612955001    5.667437119    2.460334557 XXXX 1      hop     H   0.400
end
O1      22.765174149   21.846532509    2.868334056 XXXX 1      oap1    O  -0.750
O2      22.192626985   17.167064762    2.249647767 XXXX 1      oap1    O  -0.750
O3      25.495546162   18.480612920    5.469965206 XXXX 1      oap1    O  -0.800
O4      21.228101193   21.811822254    4.862861209 XXXX 1      oap1    O  -0.750
O5      20.060172225   17.626335071    3.583487653 XXXX 1      oap1    O  -0.650
O6      23.654691728   19.025179614    7.046707296 XXXX 1      oap1    O  -0.800
Ca1     23.272331334   19.329730811    2.520482928 XXXX 1      ca+h    Ca  1.500
Ca2     23.501051236   22.750569839    5.079522800 XXXX 1      ca+h    Ca  1.500
P1      21.324770781   21.533947058    3.350006889 XXXX 1      pap     P   1.000
O7      21.160985612   19.997769985    3.193741604 XXXX 1      oap1    O  -0.750
O8      20.232290029   22.318272409    2.660235182 XXXX 1      oap1    O  -0.650
P2      21.381644492   16.850585969    3.537114475 XXXX 1      pap     P   1.000
O9      22.219970790   17.321713097    4.740852374 XXXX 1      oap1    O  -0.750
O10     21.168512776   15.277082000    3.655460565 XXXX 1      oap1    O  -0.750
Ca3     24.296903127   16.340571651    5.721038780 XXXX 1      ca+h    Ca  1.500
P3      24.586988201   19.600414761    5.985620491 XXXX 1      pap     P   1.000
O11     23.735345853   20.192859124    4.845102597 XXXX 1      oap1    O  -0.800
O12     25.510617864   20.620721606    6.657086446 XXXX 1      oap1    O  -0.800
H1      20.299886676   18.489445448    3.250168647 XXXX 1      hop     H   0.400
H2      19.404771176   21.993472532    2.925835237 XXXX 1      hop     H   0.400
end
O1      34.118644212   21.622286328    2.516447688 XXXX 1      oap1    O  -0.650
O2      32.835727062   17.231162110    2.305451392 XXXX 1      oap1    O  -0.650
O3      33.051994919   21.200121924    4.634545546 XXXX 1      oap1    O  -0.750
O4      31.988433613   16.683077021    4.617509743 XXXX 1      oap1    O  -0.750
Ca1     35.008873132   22.436167627    4.915961309 XXXX 1      ca+h    Ca  1.500
P1      32.908093416   20.946851668    3.112141509 XXXX 1      pap     P   1.000
O5      33.040129943   19.399540948    2.998790084 XXXX 1      oap1    O  -0.750
O6      31.542134811   21.549751181    2.621647959 XXXX 1      oap1    O  -0.750
P2      32.975996937   16.292365696    3.516526967 XXXX 1      pap     P   1.000
O7      34.405972835   16.378591623    4.143376195 XXXX 1      oap1    O  -0.750
O8      32.785218940   14.771968672    3.166035661 XXXX 1      oap1    O  -0.750
H1      34.480546006   21.083889881    1.889290499 XXXX 1      hop     H   0.400
H2      32.995175304   18.081912958    2.632858411 XXXX 1      hop     H   0.400
end
O5      10.180245060   33.200231788    2.209545467 XXXX 1      oap1    O  -0.650
O8       8.625381629   33.708554931    4.079177741 XXXX 1      oap1    O  -0.750
P5       9.932511565   33.028705952    3.716914012 XXXX 1      pap     P   1.000
O21     11.063587625   33.636900344    4.520747525 XXXX 1      oap1    O  -0.750
O22      9.719853431   31.496320145    3.982585340 XXXX 1      oap1    O  -0.750
Ca10    12.866037612   32.744694245    5.509770896 XXXX 1      ca+h    Ca  1.500
H       10.997136934   33.651254276    2.220409437 XXXX 1      hop     H   0.400
end
O5       6.094174030   33.554446813    7.931883429 XXXX 1      oap1    O  -0.800
O8       4.161655210   33.258328050    9.462792585 XXXX 1      oap1    O  -0.800
P5       5.684378714   32.932661827    9.288530117 XXXX 1      pap     P   1.000
O21      6.547371744   33.614180581   10.400045279 XXXX 1      oap1    O  -0.800
O22      5.789416335   31.415874379    9.215814711 XXXX 1      oap1    O  -0.800
Ca10     8.468672287   32.719572938   11.500421179 XXXX 1      ca+h    Ca  1.500
O25      3.156477226   32.729576833    6.571868266 XXXX 1      oap2    O  -1.100
O26      7.029831606   32.564989850    1.312767165 XXXX 1      oap2    O  -1.100
H1       3.454745533   33.205943448    5.807129603 XXXX 1      hop     H   0.200
H2       6.755643673   32.304591414    0.402319193 XXXX 1      hop     H   0.200
end
O5       1.972391033   33.438418807   13.430177818 XXXX 1      oap1    O  -0.800
O8       0.331917933   33.567568670   15.309488297 XXXX 1      oap1    O  -0.800
P5       1.669859794   33.064926283   14.902199537 XXXX 1      pap     P   1.000
O21      2.700784473   33.883652879   15.718802796 XXXX 1      oap1    O  -0.800
O22      1.920709544   31.547883043   15.241685162 XXXX 1      oap1    O  -0.800
Ca10     4.264958550   32.615121337   16.962055625 XXXX 1      ca+h    Ca  1.500
O26     -0.720844039   32.663505002   12.117521736 XXXX 1      oap2    O  -1.100
H2      -0.366357931   33.233248132   11.470364275 XXXX 1      hop     H   0.200
end
O5      21.094599317   32.929786797    2.075502836 XXXX 1      oap1    O  -0.750
O8      20.587198113   33.343152045    4.397611909 XXXX 1      oap1    O  -0.750
P5      21.616379928   32.715393111    3.492152941 XXXX 1      pap     P   1.000
O21     22.917031718   33.395694767    3.818680843 XXXX 1      oap1    O  -0.650
O22     21.665266442   31.261827550    3.835397174 XXXX 1      oap1    O  -0.750
Ca10    24.461845969   32.642097317    5.653077317 XXXX 1      ca+h    Ca  1.500
H       23.242476353   33.925756306    3.138534082 XXXX 1      hop     H   0.400
end
O5      17.708127295   33.469878589    7.874578255 XXXX 1      oap1    O  -0.800
O8      15.987737164   33.328340592    9.689262745 XXXX 1      oap1    O  -0.800
P5      17.473572181   32.944169068    9.301582768 XXXX 1      pap     P   1.000
O21     18.418925345   33.830272038   10.182184975 XXXX 1      oap1    O  -0.800
O22     17.720979181   31.400177884    9.348206294 XXXX 1      oap1    O  -0.800
Ca10    20.339720963   32.840486377   11.317699736 XXXX 1      ca+h    Ca  1.500
O25     14.993810611   32.748280119    6.505961253 XXXX 1      oap2    O  -1.100
O26     17.149154638   32.511051577    3.546880180 XXXX 1      oap2    O  -1.100
H1      15.484621554   32.622475414    5.725362146 XXXX 1      hop     H   0.200
H2      16.760594515   32.788544847    2.741157198 XXXX 1      hop     H   0.200
end
O5      13.235969155   33.359586414   13.538352142 XXXX 1      oap1    O  -0.800
O8      11.953658930   33.485893188   15.643818545 XXXX 1      oap1    O  -0.800
P5      13.266676674   33.037976883   15.074937119 XXXX 1      pap     P   1.000
O21     14.391350146   33.946286642   15.575894173 XXXX 1      oap1    O  -0.800
O22     13.574490100   31.588224424   15.306084737 XXXX 1      oap1    O  -0.800
Ca10    15.908436314   32.644399301   16.865575879 XXXX 1      ca+h    Ca  1.500
O25      9.851761821   32.767168972   13.527261305 XXXX 1      oap2    O  -1.100
O26     12.025490861   32.868658052   10.679161163 XXXX 1      oap2    O  -1.100
H1       9.333112125   32.608648395   14.305373164 XXXX 1      hop     H   0.200
H2      11.546755691   32.863069347   11.489606370 XXXX 1      hop     H   0.200
end
O5       9.249712333   33.628441111   19.145954340 XXXX 1      oap1    O  -0.800
O8       7.754085996   33.394598923   21.067792480 XXXX 1      oap1    O  -0.800
P5       9.053204106   32.916580496   20.511799711 XXXX 1      pap     P   1.000
O21     10.098040312   33.558718100   21.468183349 XXXX 1      oap1    O  -0.800
O22      9.113615531   31.352953900   20.427293059 XXXX 1      oap1    O  -0.800
Ca10    12.013305255   32.607085449   22.661191080 XXXX 1      ca+h    Ca  1.500
O25      5.787146127   32.666109703   18.886224453 XXXX 1      oap2    O  -1.100
O26      7.912329793   32.577933642   16.211538182 XXXX 1      oap2    O  -1.100
H1       5.312179363   32.693360452   19.657280614 XXXX 1      hop     H   0.200
H2       7.219348794   32.951805726   16.797635476 XXXX 1      hop     H   0.200
end
O5       4.697252225   33.235554106   24.573973841 XXXX 1      oap1    O  -0.800
O8       3.626951939   33.187388077   26.821398779 XXXX 1      oap1    O  -0.800
P5       4.960788782   32.847772748   26.067736231 XXXX 1      pap     P   1.000
O21      6.078925689   33.755384931   26.694226322 XXXX 1      oap1    O  -0.800
O22      5.312350716   31.359276148   26.126071216 XXXX 1      oap1    O  -0.800
Ca10     7.806841725   32.556165209   28.226968351 XXXX 1      ca+h    Ca  1.500
O25      1.524844390   32.562696626   24.707031311 XXXX 1      oap2    O  -1.100
O26      3.663953523   32.713734522   21.808585530 XXXX 1      oap2    O  -1.100
H1       0.973895258   32.860195833   25.398829817 XXXX 1      hop     H   0.200
H2       3.385685558   33.448546993   22.299685956 XXXX 1      hop     H   0.200
end
O5       0.590945471   32.874757515   30.639625336 XXXX 1      oap1    O  -0.800
O8      -0.017985719   32.809970883   33.101678426 XXXX 1      oap1    O  -0.800
P5       1.147937170   32.845284291   32.084619893 XXXX 1      pap     P   1.000
O21      1.967126550   34.067490420   32.410853569 XXXX 1      oap1    O  -0.800
O22      2.020066246   31.587329814   32.364996717 XXXX 1      oap1    O  -0.800
Ca10     3.906743278   32.292584024   33.427234974 XXXX 1      ca+h    Ca  1.500
O26     -0.407035277   32.861035101   27.633133702 XXXX 1      oap2    O  -1.100
H2      -1.143783721   32.349963366   27.942321654 XXXX 1      hop     H   0.200
end
O5      32.998406677   33.674364225    2.225827385 XXXX 1      oap1    O  -0.650
O8      31.970277621   33.491599568    4.566334430 XXXX 1      oap1    O  -0.750
P5      33.281369690   33.371596534    3.671695611 XXXX 1      pap     P   1.000
O21     34.330748946   34.350351957    4.163789750 XXXX 1      oap1    O  -0.750
O22     33.947160198   32.046038745    3.925581302 XXXX 1      oap1    O  -0.750
H       32.871483834   34.590119881    2.138594141 XXXX 1      hop     H   0.400
end
O5      28.887833696   33.339037363    7.833745300 XXXX 1      oap1    O  -0.800
O8      27.764626858   33.622734430    9.990782421 XXXX 1      oap1    O  -0.800
P5      29.057347889   33.092656534    9.346931891 XXXX 1      pap     P   1.000
O21     30.247522495   33.865448097    9.956290265 XXXX 1      oap1    O  -0.800
O22     29.169998132   31.556598723    9.597854228 XXXX 1      oap1    O  -0.800
Ca10    31.894887771   32.611908207   11.165513734 XXXX 1      ca+h    Ca  1.500
O25     25.768660131   32.773779343    7.682310627 XXXX 1      oap2    O  -1.100
O26     27.718105742   32.706762337    4.826439487 XXXX 1      oap2    O  -1.100
H1      25.446443196   32.813405495    8.629433531 XXXX 1      hop     H   0.200
H2      27.050895761   32.360394970    5.440933629 XXXX 1      hop     H   0.200
end
O5      25.102637753   33.439767767   13.432616556 XXXX 1      oap1    O  -0.800
O8      23.590538765   33.561737920   15.524913874 XXXX 1      oap1    O  -0.800
P5      24.903340300   33.033577117   14.951547567 XXXX 1      pap     P   1.000
O21     26.001253424   33.771591908   15.760658999 XXXX 1      oap1    O  -0.800
O22     24.950965484   31.484208567   15.088367924 XXXX 1      oap1    O  -0.800
Ca10    27.780877131   32.655920237   16.930110879 XXXX 1      ca+h    Ca  1.500
O25     21.585534551   32.910227137   13.363197989 XXXX 1      oap2    O  -1.100
O26     23.823974113   32.925280192   10.780684120 XXXX 1      oap2    O  -1.100
H1      21.120921613   32.975923937   14.138591511 XXXX 1      hop     H   0.200
H2      23.520228135   32.946277617   11.733363437 XXXX 1      hop     H   0.200
end
O5      20.731632460   33.294590191   19.063964302 XXXX 1      oap1    O  -0.800
O8      19.500939362   33.409244342   21.219426946 XXXX 1      oap1    O  -0.800
P5      20.777158575   32.908864597   20.580564849 XXXX 1      pap     P   1.000
O21     21.913064436   33.712321756   21.266826025 XXXX 1      oap1    O  -0.800
O22     21.002904640   31.412680698   20.742218945 XXXX 1      oap1    O  -0.800
Ca10    23.588181633   32.729361428   22.558708595 XXXX 1      ca+h    Ca  1.500
O25     17.322612532   32.729584217   19.013685379 XXXX 1      oap2    O  -1.100
O26     19.749949698   32.832590093   15.903736155 XXXX 1      oap2    O  -1.100
H1      16.535219144   32.220664269   19.010547712 XXXX 1      hop     H   0.200
H2      18.930942786   33.072649753   16.389670743 XXXX 1      hop     H   0.200
end
O5      16.751827152   33.549139574   24.592023046 XXXX 1      oap1    O  -0.800
O8      15.558030729   33.632162369   26.782364601 XXXX 1      oap1    O  -0.800
P5      16.750248370   33.014497717   26.053510818 XXXX 1      pap     P   1.000
O21     17.962961768   33.521765255   26.785335135 XXXX 1      oap1    O  -0.800
O22     16.661905124   31.491939857   25.964474725 XXXX 1      oap1    O  -0.800
Ca10    19.601558633   32.637609488   28.256453027 XXXX 1      ca+h    Ca  1.500
O25     13.232959894   32.675310292   24.774910922 XXXX 1      oap2    O  -1.100
O26     15.202653930   32.781050877   21.927533353 XXXX 1      oap2    O  -1.100
H1      12.544295422   32.577368188   25.373405536 XXXX 1      hop     H   0.200
H2      14.525053830   33.020593638   22.609142663 XXXX 1      hop     H   0.200
end
O5      13.291845707   33.826572965   31.802843372 XXXX 1      oap1    O  -0.800
O8      11.150844873   32.768805597   31.145314704 XXXX 1      oap1    O  -0.800
P5      12.293416920   32.750269599   32.231017970 XXXX 1      pap     P   1.000
O21     11.613772442   33.126497127   33.614512288 XXXX 1      oap1    O  -0.800
O22     12.953399520   31.383479961   32.238847927 XXXX 1      oap1    O  -0.800
O25      8.212785352   33.048008102   30.792631510 XXXX 1      oap2    O  -1.100
O26     11.207259330   32.770653171   27.579252376 XXXX 1      oap2    O  -1.100
H1       7.550745503   32.367234844   30.804508727 XXXX 1      hop     H   0.200
H2      10.959019539   32.142970387   28.170333867 XXXX 1      hop     H   0.200
end
O5      32.683647879   33.541399435   19.052468139 XXXX 1      oap1    O  -0.800
O8      31.169536556   33.432833193   20.998783165 XXXX 1      oap1    O  -0.800
P5      32.526926327   33.073272070   20.519494333 XXXX 1      pap     P   1.000
O21     33.571538033   33.805034634   21.337422447 XXXX 1      oap1    O  -0.800
O22     32.656895443   31.518254833   20.668909214 XXXX 1      oap1    O  -0.800
O25     27.946252313   32.795565892   20.562304571 XXXX 1      oap2    O  -1.100
O26     30.153133174   32.908011691   17.482253814 XXXX 1      oap2    O  -1.100
H1      27.748336099   32.616592032   19.679016723 XXXX 1      hop     H   0.200
H2      30.849482627   32.918613303   16.780590174 XXXX 1      hop     H   0.200
end
O5      28.709743983   33.782752862   24.695840803 XXXX 1      oap1    O  -0.800
O8      26.961008638   33.523740654   26.492270079 XXXX 1      oap1    O  -0.800
P5      28.407772455   33.216473013   26.074171362 XXXX 1      pap     P   1.000
O21     29.295279107   33.937525948   27.050861183 XXXX 1      oap1    O  -0.800
O22     28.590201743   31.687080529   26.094583974 XXXX 1      oap1    O  -0.800
Ca10    31.022408554   32.741831210   28.290576894 XXXX 1      ca+h    Ca  1.500
O25     23.687436293   32.874475939   26.006093210 XXXX 1      oap2    O  -1.100
O26     25.904155649   32.858844946   23.598442590 XXXX 1      oap2    O  -1.100
H1      24.218681094   33.003445940   25.219574258 XXXX 1      hop     H   0.200
H2      26.090773752   32.888119776   22.686687162 XXXX 1      hop     H   0.200
end
O5      23.334892488   33.474819899   31.877152828 XXXX 1      oap1    O  -0.800
O8      23.863280123   32.533051627   34.132790278 XXXX 1      oap1    O  -0.800
P5      24.431946763   33.048945809   32.875322312 XXXX 1      pap     P   1.000
O21     25.491750619   34.119990830   33.155797702 XXXX 1      oap1    O  -0.800
O22     25.175034038   31.806117374   32.324382349 XXXX 1      oap1    O  -0.800
Ca10    27.297313251   32.420001544   33.770228996 XXXX 1      ca+h    Ca  1.500
O25     19.490316081   32.435043042   32.257547214 XXXX 1      oap2    O  -1.100
O26     21.940795665   32.737001595   29.283185132 XXXX 1      oap2    O  -1.100
H1      19.895266995   32.629087265   31.430320415 XXXX 1      hop     H   0.200
H2      22.320746626   33.206046858   28.551909322 XXXX 1      hop     H   0.200
end
O6       1.876937839    2.661329899    4.788306897 XXXX 1      oap1    O  -0.800
O9       0.882407008    2.114367179    6.930525950 XXXX 1      oap1    O  -0.800
P6       1.207629827    3.276012322    6.002069176 XXXX 1      pap     P   1.000
O23     -0.043364403    4.165789911    5.637330084 XXXX 1      oap1    O  -0.800
O24      2.232308153    4.121697563    6.727035685 XXXX 1      oap1    O  -0.800
end
O6       1.456508294    2.131285553   22.105408964 XXXX 1      oap1    O  -0.800
O9      -0.144891033    2.291299015   23.950863084 XXXX 1      oap1    O  -0.800
Ca1      1.542422434    2.881724058   17.039755432 XXXX 1      ca+h    Ca  1.500
P6       0.602778424    3.094720200   22.898586834 XXXX 1      pap     P   1.000
O23     -0.360091268    3.796618965   21.938993749 XXXX 1      oap1    O  -0.800
O24      1.514061993    4.126858799   23.588605859 XXXX 1      oap1    O  -0.800
end
O6       9.066947723   10.006235112    2.029000855 XXXX 1      oap1    O  -0.650
O9      10.397479343    9.277910382    3.928756628 XXXX 1      oap1    O  -0.750
Ca10    11.117046247    7.169911060    4.853550401 XXXX 1      ca+h    Ca  1.500
P6       9.524809877   10.401343270    3.369238196 XXXX 1      pap     P   1.000
O23      8.393771435   10.758158477    4.365951744 XXXX 1      oap1    O  -0.750
O24     10.398109485   11.764007900    3.388225968 XXXX 1      oap1    O  -0.750
H        8.142325554    9.923595962    2.281660141 XXXX 1      hop     H   0.400
end
O6       1.613313060   10.265482894   13.547843193 XXXX 1      oap1    O  -0.800
O9      -0.098375861   10.457257276   15.336850738 XXXX 1      oap1    O  -0.800
Ca1      1.923501133   11.055664671    8.572610123 XXXX 1      ca+h    Ca  1.500
Ca10     0.635031938    8.172969270   14.151235982 XXXX 1      ca+h    Ca  1.500
P6       0.789622508   11.282406600   14.379836904 XXXX 1      pap     P   1.000
O23     -0.085706427   12.073247267   13.405203715 XXXX 1      oap1    O  -0.800
O24      1.792048166   12.170892698   15.172279890 XXXX 1      oap1    O  -0.800
end
O6       2.434242473   18.259396826    5.549033016 XXXX 1      oap1    O  -0.800
O9       0.145973790   18.791042299    6.568320592 XXXX 1      oap1    O  -0.800
Ca10     1.051598923   16.170560273    5.677635871 XXXX 1      ca+h    Ca  1.500
P6       1.426166585   19.335543705    5.979923278 XXXX 1      pap     P   1.000
O23      1.181399538   20.409707457    4.907625136 XXXX 1      oap1    O  -0.800
O24      2.207196474   20.193269530    6.987384819 XXXX 1      oap1    O  -0.800
end
O6      22.592653024   10.690365455    2.431599662 XXXX 1      oap1    O  -0.650
O9      20.605873583   10.421136567    3.888092588 XXXX 1      oap1    O  -0.750
Ca8     19.779572863   13.862069017    2.541525207 XXXX 1      ca+h    Ca  1.500
P6      21.298535337   11.356010542    2.862768734 XXXX 1      pap     P   1.000
O23     20.451364740   11.899947313    1.658813254 XXXX 1      oap1    O  -0.750
O24     21.690936557   12.527297160    3.682923881 XXXX 1      oap1    O  -0.750
H       22.537794196   10.460396431    1.527707745 XXXX 1      hop     H   0.400
end
O6       0.909167354   10.163609497   30.188508870 XXXX 1      oap1    O  -0.800
O9      -0.808305210   10.494844718   31.909694611 XXXX 1      oap1    O  -0.800
Ca1      0.965151984   11.032744437   25.182914535 XXXX 1      ca+h    Ca  1.500
Ca10    -0.244509685    8.189009493   30.926864810 XXXX 1      ca+h    Ca  1.500
P6       0.209309805   11.257925007   31.046639377 XXXX 1      pap     P   1.000
O23     -0.612232915   12.214960943   30.141752263 XXXX 1      oap1    O  -0.800
O24      1.175578247   12.029212852   31.986389123 XXXX 1      oap1    O  -0.800
end
O6       1.225522596   18.451770272   21.886726342 XXXX 1      oap1    O  -0.800
O9      -0.413409607   18.604690234   23.721318728 XXXX 1      oap1    O  -0.800
Ca1      1.523794462   19.140238931   16.895584763 XXXX 1      ca+h    Ca  1.500
Ca10     0.248919039   16.330635642   22.565446312 XXXX 1      ca+h    Ca  1.500
P6       0.490680229   19.450923742   22.765606143 XXXX 1      pap     P   1.000
O23     -0.530495808   20.256606510   21.972202449 XXXX 1      oap1    O  -0.800
O24      1.476317598   20.356817200   23.510735983 XXXX 1      oap1    O  -0.800
end
O6      10.108779349   28.446797209    3.825212500 XXXX 1      oap1    O  -0.750
O9       8.267637929   26.794069104    4.083452273 XXXX 1      oap1    O  -0.750
Ca8      8.233059652   30.792137712    2.191299920 XXXX 1      ca+h    Ca  1.500
P6       9.165320749   27.527776966    3.057322924 XXXX 1      pap     P   1.000
O23      9.956747039   26.582728741    2.223656836 XXXX 1      oap1    O  -0.650
O24      8.170880695   28.377473978    2.184033199 XXXX 1      oap1    O  -0.750
H        9.577014681   25.737487298    2.322676577 XXXX 1      hop     H   0.400
end
O6       1.586047744   26.755375344   13.163291291 XXXX 1      oap1    O  -0.800
O9       0.253933745   26.718936190   15.245927751 XXXX 1      oap1    O  -0.800
Ca1      1.805878081   27.201405082    8.542045997 XXXX 1      ca+h    Ca  1.500
Ca10     0.678110103   24.450014342   14.040481381 XXXX 1      ca+h    Ca  1.500
P6       0.933610870   27.630521611   14.248613406 XXXX 1      pap     P   1.000
O23     -0.156761388   28.348514519   13.490700877 XXXX 1      oap1    O  -0.800
O24      1.886790737   28.592834374   14.948589677 XXXX 1      oap1    O  -0.800
end
O6      32.863972254   10.474449310    2.199421443 XXXX 1      oap1    O  -0.750
O9      31.226865253   10.688737558    3.878375343 XXXX 1      oap1    O  -0.750
Ca8     27.102863108   14.567152153    3.803538476 XXXX 1      ca+h    Ca  1.500
Ca10    32.095355070    8.402398789    3.064314246 XXXX 1      ca+h    Ca  1.500
P6      32.269620361   11.552503250    3.143047032 XXXX 1      pap     P   1.000
O23     31.512890521   12.637269790    2.374454585 XXXX 1      oap1    O  -0.650
O24     33.276665184   12.126245370    4.165053376 XXXX 1      oap1    O  -0.750
H       31.844153120   13.483540184    2.677696933 XXXX 1      hop     H   0.400
end
O6      22.219971868   26.577258781    2.173518406 XXXX 1      oap1    O  -0.650
O9      21.868030903   28.174795588    4.115217148 XXXX 1      oap1    O  -0.750
Ca8     18.945013658   29.506071344    2.500925994 XXXX 1      ca+h    Ca  1.500
P6      21.324501117   27.701543182    2.710006003 XXXX 1      pap     P   1.000
O23     19.807646446   27.312233922    2.902345560 XXXX 1      oap1    O  -0.750
O24     21.321860016   28.938777479    1.789619866 XXXX 1      oap1    O  -0.750
H       23.144924020   26.775916493    2.245412241 XXXX 1      hop     H   0.400
end
O6       0.758484134   27.079305066   31.514223519 XXXX 1      oap1    O  -0.800
O9      -1.143661937   28.140391351   32.784220475 XXXX 1      oap1    O  -0.800
Ca1      1.060216793   27.324157568   25.339987536 XXXX 1      ca+h    Ca  1.500
Ca10     0.164261009   24.512044597   31.106105772 XXXX 1      ca+h    Ca  1.500
P6      -0.260037343   28.231339318   31.505141437 XXXX 1      pap     P   1.000
O23     -1.104251161   28.199382025   30.217175504 XXXX 1      oap1    O  -0.800
O24      0.422221956   29.608412392   31.569684964 XXXX 1      oap1    O  -0.800
end
O6      34.723242899   27.781597629    3.321696206 XXXX 1      oap1    O  -0.750
O9      32.434577840   27.247574798    4.092482158 XXXX 1      oap1    O  -0.750
P6      33.237384874   28.025895633    2.941565047 XXXX 1      pap     P   1.000
O23     32.853794975   27.519629780    1.522816578 XXXX 1      oap1    O  -0.650
O24     33.078579954   29.521294393    3.167204707 XXXX 1      oap1    O  -0.750
H       32.274838676   28.122694545    1.111026929 XXXX 1      hop     H   0.400
end
Ca1     -0.141161525   19.022784502   33.301107242 XXXX 1      ca+h    Ca  1.500
end
Ca2     35.117725746   14.131851624    3.035863798 XXXX 1      ca+h    Ca  1.500
Ca3     32.812205720   13.901105092    5.690779107 XXXX 1      ca+h    Ca  1.500
Ca9     34.962484965   10.620663387    4.873846030 XXXX 1      ca+h    Ca  1.500
O25     33.668768341    8.437274745    4.947937156 XXXX 1      oap2    O  -1.100
H1      32.974857167    8.229182091    5.557472604 XXXX 1      hop     H   0.200
end
Ca2     35.430435594   30.112288856    2.811877267 XXXX 1      ca+h    Ca  1.500
Ca3     32.838980167   30.501556140    5.318372765 XXXX 1      ca+h    Ca  1.500
Ca9     34.580685468   26.468343579    5.251337421 XXXX 1      ca+h    Ca  1.500
O25     33.531278885   24.164743991    5.777653305 XXXX 1      oap2    O  -1.100
H1      32.671105171   24.440613621    5.444062891 XXXX 1      hop     H   0.200
end
Ca10     1.025403788   32.915854399    5.355859870 XXXX 1      ca+h    Ca  1.500
end
Ca10     0.220727420   32.574966658   22.690792042 XXXX 1      ca+h    Ca  1.500
end
O25     32.174931141   32.871696807   15.028134869 XXXX 1      oap2    O  -1.100
H1      32.464718714   33.459948530   14.319324617 XXXX 1      hop     H   0.200
end
O25     32.228959096   32.775440306   30.341112157 XXXX 1      oap2    O  -1.100
H1      32.264381228   32.754708148   31.321242564 XXXX 1      hop     H   0.200
end
end
