!BIOSYM archive 3
PBC=ON
Materials Studio Generated CAR File
!DATE Mon Jun 22 20:35:42 2009
PBC   12.0317    6.9269   12.6712   90.0000   90.2700   90.0000 (P1)
S1      11.992529615    0.166245601    3.205777893 XXXX 1      s'      S   0.500
S2       5.946823914    3.629695601    9.541307547 XXXX 1      s'      S   0.500
S3      -0.020541017    0.166245601    9.465281415 XXXX 1      s'      S   0.500
S4       6.025164684    3.629695601    3.129751761 XXXX 1      s'      S   0.500
S5       8.674019325    1.323037898    5.283831677 XXXX 1      s'      S   0.500
S6       2.628313624    4.786487898   11.619361331 XXXX 1      s'      S   0.500
S7       3.297969273    1.323037898    7.387227631 XXXX 1      s'      S   0.500
S8       9.343674974    4.786487898    1.051697977 XXXX 1      s'      S   0.500
S9       3.315554225    1.413087574    1.102382128 XXXX 1      s'      S   0.500
S10      9.301548524    4.876537574    7.437911782 XXXX 1      s'      S   0.500
S11      8.656434373    1.413087574   11.568677180 XXXX 1      s'      S   0.500
S12      2.670440074    4.876537574    5.233147526 XXXX 1      s'      S   0.500
Ca1      8.629385846    1.226061307    1.989356378 XXXX 1      ca+g    Ca  1.500
Ca2      2.583680145    4.689511307    8.324886032 XXXX 1      ca+g    Ca  1.500
Ca3      3.342602752    1.226061307   10.681702930 XXXX 1      ca+g    Ca  1.500
Ca4      9.388308453    4.689511307    4.346173276 XXXX 1      ca+g    Ca  1.500
Ca5      3.144214494    1.510064164    4.270147144 XXXX 1      ca+g    Ca  1.500
Ca6      9.130208793    4.973514164   10.605676798 XXXX 1      ca+g    Ca  1.500
Ca7      8.827774104    1.510064164    8.400912164 XXXX 1      ca+g    Ca  1.500
Ca8      2.841779805    4.973514164    2.065382510 XXXX 1      ca+g    Ca  1.500
O1      12.879173271    1.080596422    3.991383652 XXXX 1      oc11    O  -0.500
O2       6.833467570    4.544046422   10.326913306 XXXX 1      oc11    O  -0.500
O3      -0.907184673    1.080596422    8.679675656 XXXX 1      oc11    O  -0.500
O4       5.138521028    4.544046422    2.344146002 XXXX 1      oc11    O  -0.500
O5      12.778889349   -0.706543787    2.293461662 XXXX 1      oc11    O  -0.500
O6       6.733183648    2.756906213    8.628991316 XXXX 1      oc11    O  -0.500
O7      -0.806900751   -0.706543787   10.377597646 XXXX 1      oc11    O  -0.500
O8       5.238804950    2.756906213    4.042067992 XXXX 1      oc11    O  -0.500
O9      11.070447603    0.900496967    2.280790766 XXXX 1      oc11    O  -0.500
O10      5.024741902    4.363946967    8.616320420 XXXX 1      oc11    O  -0.500
O11      0.901540995    0.900496967   10.390268542 XXXX 1      oc11    O  -0.500
O12      6.947246696    4.363946967    4.054738888 XXXX 1      oc11    O  -0.500
O13     11.230233324   -0.727324477    4.118094124 XXXX 1      oc11    O  -0.500
O14      5.184527623    2.736125523   10.453623778 XXXX 1      oc11    O  -0.500
O15      0.741755274   -0.727324477    8.552965184 XXXX 1      oc11    O  -0.500
O16      6.787460975    2.736125523    2.217435530 XXXX 1      oc11    O  -0.500
O17      8.859510410    2.341292197    4.219462804 XXXX 1      oc11    O  -0.500
O18      2.813804709    5.804742197   10.554992458 XXXX 1      oc11    O  -0.500
O19      3.112478188    2.341292197    8.451596504 XXXX 1      oc11    O  -0.500
O20      9.158183889    5.804742197    2.116066850 XXXX 1      oc11    O  -0.500
O21      7.538740522    1.607040754    6.196147908 XXXX 1      oc11    O  -0.500
O22      1.493034821    5.070490754   12.531677562 XXXX 1      oc11    O  -0.500
O23      4.433248076    1.607040754    6.474911400 XXXX 1      oc11    O  -0.500
O24     10.478953777    5.070490754    0.139381746 XXXX 1      oc11    O  -0.500
O25      9.897132615    1.246842050    6.158134842 XXXX 1      oc11    O  -0.500
O26      3.851426914    4.710292050   12.493664496 XXXX 1      oc11    O  -0.500
O27      2.074855983    1.246842050    6.512924466 XXXX 1      oc11    O  -0.500
O28      8.120561684    4.710292050    0.177394812 XXXX 1      oc11    O  -0.500
O29      8.472585182   -0.020780700    4.624936768 XXXX 1      oc11    O  -0.500
O30      2.426879481    3.442669300   10.960466422 XXXX 1      oc11    O  -0.500
O31      3.499403416   -0.020780700    8.046122540 XXXX 1      oc11    O  -0.500
O32      9.545109117    3.442669300    1.710592886 XXXX 1      oc11    O  -0.500
O33      2.710326865    2.521391549    1.875316802 XXXX 1      oc11    O  -0.500
O34      8.696321164    5.984841549    8.210846456 XXXX 1      oc11    O  -0.500
O35      9.261661733    2.521391549   10.795742506 XXXX 1      oc11    O  -0.500
O36      3.275667434    5.984841549    4.460212852 XXXX 1      oc11    O  -0.500
O37      4.522605394    1.690163619    0.278763303 XXXX 1      oc11    O  -0.500
O38     10.508599693    5.153613619    6.614292957 XXXX 1      oc11    O  -0.500
O39      7.449383204    1.690163619   12.392296005 XXXX 1      oc11    O  -0.500
O40      1.463388905    5.153613619    6.056766351 XXXX 1      oc11    O  -0.500
O41      2.333731889    0.907423881    0.088697418 XXXX 1      oc11    O  -0.500
O42      8.319726188    4.370873881    6.424227072 XXXX 1      oc11    O  -0.500
O43      9.638256709    0.907423881   12.582361890 XXXX 1      oc11    O  -0.500
O44      3.652262410    4.370873881    6.246832236 XXXX 1      oc11    O  -0.500
O45      3.587864704    0.290929796    2.040040529 XXXX 1      oc11    O  -0.500
O46      9.573859003    3.754379796    8.375570183 XXXX 1      oc11    O  -0.500
O47      8.384123894    0.290929796   10.631018779 XXXX 1      oc11    O  -0.500
O48      2.398129595    3.754379796    4.295489125 XXXX 1      oc11    O  -0.500
O49      0.550740875    3.484230845    8.236188248 XXXX 1      o2*     O  -0.820
O50      6.596446576    6.947680845    1.900658594 XXXX 1      o2*     O  -0.820
O51     11.421247723    3.484230845    4.434871060 XXXX 1      o2*     O  -0.820
O52      5.375542022    6.947680845   10.770400714 XXXX 1      o2*     O  -0.820
H1      -0.591882029    3.020128327    0.494171323 XXXX 1      h1o     H   0.410
H2       5.394112270    6.483578327    6.829700977 XXXX 1      h1o     H   0.410
H3       0.591882029    3.020128327   -0.494171323 XXXX 1      h1o     H   0.410
H4       6.577876328    6.483578327    5.841358331 XXXX 1      h1o     H   0.410
H5      -0.292015509    3.927552105    8.350227824 XXXX 1      h1o     H   0.410
H6       5.753690192    7.391002105    2.014698170 XXXX 1      h1o     H   0.410
H7      12.264004107    3.927552105    4.320831484 XXXX 1      h1o     H   0.410
H8       6.218298406    7.391002105   10.656361138 XXXX 1      h1o     H   0.410
H9       0.547576168    2.770760041    8.907754808 XXXX 1      h1o     H   0.410
H10      6.593281869    6.234210041    2.572225154 XXXX 1      h1o     H   0.410
H11     11.424412430    2.770760041    3.763304500 XXXX 1      h1o     H   0.410
H12      5.378706729    6.234210041   10.098834154 XXXX 1      h1o     H   0.410
Ca9     -0.029855701    0.103903498    6.335529654 XXXX 1      ca+g    Ca  1.500
Ca10     6.015850000    3.567353498    0.000000000 XXXX 1      ca+g    Ca  1.500
Ca11     0.000000000    0.000000000    0.000000000 XXXX 1      ca+g    Ca  1.500
Ca12     5.985994299    3.463450000    6.335529654 XXXX 1      ca+g    Ca  1.500
O53     -0.000000000    2.417488148    0.000000000 XXXX 1      o2*     O  -0.820
O54      5.985994299    5.880938148    6.335529654 XXXX 1      o2*     O  -0.820
end
end
