!BIOSYM archive 3
PBC=ON
Materials Studio Generated CAR File
!DATE Sun Mar 01 13:45:31 2009
PBC    6.7350    7.4250   27.9870   90.0000   90.0000  123.2500 (P1)
Ca1      3.233487052    2.639005575    7.981892395 XXXX 1      ca+t    Ca  1.500
Ca2     -0.051936153    2.657633794    6.008808858 XXXX 1      ca+t    Ca  1.500
Si1      3.479814159    2.396837983    4.903322411 XXXX 1      sc2     Si  1.000
Si2      2.974516950    4.657068530    2.913446599 XXXX 1      sc3     Si  1.000
Si3      1.091799484    5.967257301    4.900523664 XXXX 1      sc2     Si  1.000
O1       2.980328186    3.179225601    3.492777505 XXXX 1      oc12    O  -0.500
O2       4.349166357    1.173581242    4.315595471 XXXX 1      oc12    O  -0.500
O3       4.291043153    3.440021412    5.793309063 XXXX 1      oc13    O  -1.000
O4       2.263335803    1.869036831    5.779315327 XXXX 1      oc13    O  -1.000
O5       4.956198627    1.552360884   26.638026598 XXXX 1      oc22    O  -1.000
O6       4.345661317    5.513980295    3.288472492 XXXX 1      oc14    O  -0.660
O7       0.154990633    2.763193950    3.627115294 XXXX 1      o*      O  -0.820
O8       1.610738547    5.340105337    3.503972495 XXXX 1      oc12    O  -0.500
O9       0.019667273    5.116565965    5.784912821 XXXX 1      oc13    O  -1.000
O10      2.408347178    6.414335721    5.790510316 XXXX 1      oc13    O  -1.000
O11      3.267591631    4.775047561   26.419727952 XXXX 1      o*      O  -0.820
O12      1.137226577    1.316398022    0.083961001 XXXX 1      o*      O  -0.820
Ca3      1.873414217    6.172168268    0.053175301 XXXX 1      ca+t    Ca  1.500
O13      3.190262777    2.663843139    0.000000000 XXXX 1      o*      O  -0.820
Ca4     -0.134012948    2.639005575   21.975392395 XXXX 1      ca+t    Ca  1.500
Ca5      3.315563847    2.657633794   20.002308858 XXXX 1      ca+t    Ca  1.500
Si4      0.112314159    2.396837983   18.896822411 XXXX 1      sc2     Si  1.000
Si5     -0.392983050    4.657068530   16.906946599 XXXX 1      sc3     Si  1.000
Si6     -2.275700516    5.967257301   18.894023664 XXXX 1      sc2     Si  1.000
O14     -0.387171814    3.179225601   17.486277505 XXXX 1      oc12    O  -0.500
O15      0.981666357    1.173581242   18.309095471 XXXX 1      oc12    O  -0.500
O16      0.923543153    3.440021412   19.786809063 XXXX 1      oc13    O  -1.000
O17     -1.104164197    1.869036831   19.772815327 XXXX 1      oc13    O  -1.000
O18      1.588698627    1.552360884   12.644526598 XXXX 1      oc22    O  -1.000
O19      0.978161317    5.513980295   17.281972492 XXXX 1      oc14    O  -0.660
O20      3.522490633    2.763193950   17.620615294 XXXX 1      o*      O  -0.820
O21     -1.756761453    5.340105337   17.497472495 XXXX 1      oc12    O  -0.500
O22     -3.347832727    5.116565965   19.778412821 XXXX 1      oc13    O  -1.000
O23     -0.959152822    6.414335721   19.784010316 XXXX 1      oc13    O  -1.000
O24     -0.099908369    4.775047561   12.426227952 XXXX 1      o*      O  -0.820
Ca6      1.197948437    5.743717928   20.005107605 XXXX 1      ca+t    Ca  1.500
Ca7     -2.087474768    5.762346147   21.978191142 XXXX 1      ca+t    Ca  1.500
Si7      1.444275545    5.501550336   23.083677589 XXXX 1      sc2     Si  1.000
Si8      5.010055564    1.552356177   25.073553401 XXXX 1      sc3     Si  1.000
Si9      3.127338099    2.862544947   23.086476336 XXXX 1      sc2     Si  1.000
O25      5.015866801    0.074513247   24.494222495 XXXX 1      oc12    O  -0.500
O26      2.313627743    4.278293596   23.671404529 XXXX 1      oc12    O  -0.500
O27      2.255481767    6.544709059   22.193690937 XXXX 1      oc13    O  -1.000
O28      0.227797188    4.973749185   22.207684673 XXXX 1      oc13    O  -1.000
O29      2.920637242    4.657068530    1.348973402 XXXX 1      oc22    O  -1.000
O30      6.381199931    2.409267941   24.698527508 XXXX 1      oc14    O  -0.660
O31     -1.880547981    5.867906304   24.359884706 XXXX 1      o*      O  -0.820
O32      3.646277162    2.235392983   24.483027505 XXXX 1      oc12    O  -0.500
O33      2.055205887    2.011853611   22.202087179 XXXX 1      oc13    O  -1.000
O34      4.443908563    3.309628075   22.196489684 XXXX 1      oc13    O  -1.000
O35      5.303130246    1.670335208    1.567272048 XXXX 1      o*      O  -0.820
O36     -0.898312038    4.421110376   27.903038999 XXXX 1      o*      O  -0.820
Ca8     -2.169551563    5.743717928    6.011607605 XXXX 1      ca+t    Ca  1.500
Ca9      1.280025232    5.762346147    7.984691142 XXXX 1      ca+t    Ca  1.500
Si10    -1.923224455    5.501550336    9.090177589 XXXX 1      sc2     Si  1.000
Si11     1.642555564    1.552356177   11.080053401 XXXX 1      sc3     Si  1.000
Si12    -0.240161901    2.862544947    9.092976336 XXXX 1      sc2     Si  1.000
O37      1.648366801    0.074513247   10.500722495 XXXX 1      oc12    O  -0.500
O38     -1.053872257    4.278293596    9.677904529 XXXX 1      oc12    O  -0.500
O39     -1.112018233    6.544709059    8.200190937 XXXX 1      oc13    O  -1.000
O40     -3.139702812    4.973749185    8.214184673 XXXX 1      oc13    O  -1.000
O41     -0.446862758    4.657068530   15.342473402 XXXX 1      oc22    O  -1.000
O42      3.013699931    2.409267941   10.705027508 XXXX 1      oc14    O  -0.660
O43      1.486952019    5.867906304   10.366384706 XXXX 1      o*      O  -0.820
O44      0.278777162    2.235392983   10.489527505 XXXX 1      oc12    O  -0.500
O45     -1.312294113    2.011853611    8.208587179 XXXX 1      oc13    O  -1.000
O46      1.076408563    3.309628075    8.202989684 XXXX 1      oc13    O  -1.000
O47      1.935630246    1.670335208   15.560772048 XXXX 1      o*      O  -0.820
O48      5.303913032    1.782100187   14.077461001 XXXX 1      o*      O  -0.820
O49      2.469187962    4.421110376   13.909538999 XXXX 1      o*      O  -0.820
Ca10     0.541452832    3.067455915   13.940324699 XXXX 1      ca+t    Ca  1.500
O50     -2.212775838    5.768555492   13.993500000 XXXX 1      o*      O  -0.820
H1       6.843423414    2.791026938   25.423346563 XXXX 1      hoy     H   0.410
H2       1.430525643    5.904306616   16.556567616 XXXX 1      hoy     H   0.410
H3       3.708867862    2.395688885   11.336226581 XXXX 1      hoy     H   0.410
H4       4.832797315    5.838106161    2.550392443 XXXX 1      hoy     H   0.410
H5       5.633734561    1.725693551    2.498299190 XXXX 1      h*      H   0.410
H6       4.415089614    2.070426667    1.712690205 XXXX 1      h*      H   0.410
H7       0.008252917    3.636783065    3.197921326 XXXX 1      h*      H   0.410
H8       1.104902920    2.630613652    3.386507348 XXXX 1      h*      H   0.410
H9       1.162266619    2.165800931    0.576324689 XXXX 1      h*      H   0.410
H10      2.065062472    1.387643098   -0.248548595 XXXX 1      h*      H   0.410
H11      4.050916407    2.387323001   -0.412339625 XXXX 1      h*      H   0.410
H12      3.374956980    3.497716686    0.507734712 XXXX 1      h*      H   0.410
H13      1.111816101    5.629565999   11.240697981 XXXX 1      h*      H   0.410
H14      2.396056689    6.146588746   10.628428401 XXXX 1      h*      H   0.410
H15     -0.922999932    5.245847360   12.704850912 XXXX 1      h*      H   0.410
H16     -0.388250759    4.517718454   11.510968959 XXXX 1      h*      H   0.410
H17      2.846418908    4.684891624   13.042448887 XXXX 1      h*      H   0.410
H18      3.194873805    4.828636100   14.441054179 XXXX 1      h*      H   0.410
H19      5.190633325    0.816023550   13.947312897 XXXX 1      h*      H   0.410
H20      4.388458636    2.030670687   14.334808815 XXXX 1      h*      H   0.410
H21      1.826378664    0.698217974   15.649539152 XXXX 1      h*      H   0.410
H22      2.118707184    1.882665435   16.507602957 XXXX 1      h*      H   0.410
H23     -1.385155150    5.579857540   14.515919081 XXXX 1      h*      H   0.410
H24     -2.091466083    6.677009171   13.603581679 XXXX 1      h*      H   0.410
H25      3.430063302    3.657098547   17.219969855 XXXX 1      h*      H   0.410
H26      4.458053774    2.578700569   17.360758008 XXXX 1      h*      H   0.410
H27     -2.028047378    6.722494509   24.823259273 XXXX 1      h*      H   0.410
H28     -0.954140885    5.693698441   24.654904704 XXXX 1      h*      H   0.410
H29     -1.022468524    3.464821043   27.728846518 XXXX 1      h*      H   0.410
H30     -1.789048763    4.762334560   27.666951214 XXXX 1      h*      H   0.410
H31      3.145948272    3.797287460   26.448947827 XXXX 1      h*      H   0.410
H32      3.405903734    4.880643320   25.446882538 XXXX 1      h*      H   0.410
end
end
