!BIOSYM archive 3
PBC=ON
Materials Studio Generated CAR File
!DATE Thu May 31 03:51:33 2012
PBC    4.9780    4.9780    6.9480   90.0000   90.0000   90.0000 (P1)
O        1.193525280    0.513928720    1.239801120 XXXX 1      oc23    O  -0.550
SI       1.493599120    1.493599120    0.000000000 XXXX 1      sc4     Si  1.100
O1       3.784474720    4.464071280    4.713801120 XXXX 2      oc23    O  -0.550
O2       4.464071280    3.784474720    2.234198880 XXXX 2      oc23    O  -0.550
Si1      3.484400880    3.484400880    3.474000000 XXXX 2      sc4     Si  1.100
O1       1.975071280    3.682525280    2.976801120 XXXX 3      oc23    O  -0.550
O2       1.295474720    3.002928720    0.497198880 XXXX 3      oc23    O  -0.550
Si1      0.995400880    3.982599120    1.737000000 XXXX 3      sc4     Si  1.100
O1       3.002928720    1.295474720    6.450801120 XXXX 4      oc23    O  -0.550
O2       3.682525280    1.975071280    3.971198880 XXXX 4      oc23    O  -0.550
Si1      3.982599120    0.995400880    5.211000000 XXXX 4      sc4     Si  1.100
O        5.491928720    1.193525280    5.708198880 XXXX 5      oc23    O  -0.550
end
end
