!BIOSYM archive 3
PBC=ON
Materials Studio Generated CAR File
!DATE Thu May 31 03:59:54 2012
PBC    8.5450    4.9780   12.1430   90.0000   90.0000   90.0000 (P1)
O1       3.267037928    0.513928720   11.036117208 XXXX 1      oc23    O  -0.550
O2       9.063246866    0.513928720    2.942951221 XXXX 1      oc23    O  -0.550
O3       6.166258781    0.513928720    6.989513392 XXXX 1      oc23    O  -0.550
O4       1.952018440    4.464071280    6.906659768 XXXX 1      oc23    O  -0.550
O5       7.600030355    4.464071280   10.953221939 XXXX 1      oc23    O  -0.550
O6       4.851239293    4.464071280    2.860055952 XXXX 1      oc23    O  -0.550
O7       5.134218580    3.682525280   11.412440952 XXXX 1      oc23    O  -0.550
O8       2.385427519    3.682525280    3.319274964 XXXX 1      oc23    O  -0.550
O9       8.033439434    3.682525280    7.365837136 XXXX 1      oc23    O  -0.550
O10      2.908843745    1.295474720    8.553617110 XXXX 1      oc23    O  -0.550
O11      8.705052683    1.295474720    0.460451123 XXXX 1      oc23    O  -0.550
O12      5.808064598    1.295474720    4.507013294 XXXX 1      oc23    O  -0.550
O13      2.722754457    3.002928720   10.520746197 XXXX 1      oc23    O  -0.550
O14     -0.026036605    3.002928720    2.427580210 XXXX 1      oc23    O  -0.550
O15      5.621975311    3.002928720    6.474142381 XXXX 1      oc23    O  -0.550
O16      1.288982883    1.975071280    6.557037650 XXXX 1      oc23    O  -0.550
O17      6.936994798    1.975071280   10.603599821 XXXX 1      oc23    O  -0.550
O18      4.188203736    1.975071280    2.510433834 XXXX 1      oc23    O  -0.550
O19      6.654015511    1.193525280    2.051214821 XXXX 1      oc23    O  -0.550
O20      0.855573805    1.193525280   10.144422453 XXXX 1      oc23    O  -0.550
O21      3.754794658    1.193525280    6.097818637 XXXX 1      oc23    O  -0.550
O22      0.332157578    3.784474720    4.910080308 XXXX 1      oc23    O  -0.550
O23      5.980169494    3.784474720    8.956642479 XXXX 1      oc23    O  -0.550
O24      3.231378432    3.784474720    0.863476492 XXXX 1      oc23    O  -0.550
Si1      8.232413421    1.493599120    1.976911744 XXXX 1      sc4     Si  1.100
Si2      2.433971715    1.493599120   10.070119376 XXXX 1      sc4     Si  1.100
Si3      5.333192568    1.493599120    6.023515560 XXXX 1      sc4     Si  1.100
Si4      0.769422161    3.484400880    6.428520492 XXXX 1      sc4     Si  1.100
Si5      6.417434076    3.484400880   10.475082664 XXXX 1      sc4     Si  1.100
Si6      3.668643014    3.484400880    2.381916676 XXXX 1      sc4     Si  1.100
Si7      3.555820670    3.982599120   11.486744029 XXXX 1      sc4     Si  1.100
Si8      0.807029608    3.982599120    3.393578042 XXXX 1      sc4     Si  1.100
Si9      6.455041524    3.982599120    7.440140213 XXXX 1      sc4     Si  1.100
Si10     2.471579162    0.995400880    7.035176925 XXXX 1      sc4     Si  1.100
Si11     8.119591078    0.995400880   11.081739097 XXXX 1      sc4     Si  1.100
Si12     5.370800016    0.995400880    2.988573109 XXXX 1      sc4     Si  1.100
end
end
