!BIOSYM archive 3
PBC=ON

!DATE Wed Oct  8 01:58:53 2003
PBC   15.2630   15.2630   15.2630   90.0000   90.0000   90.0000 (P1)
CA1      0.000000000    0.000000000    0.000000000 XXX  1      ca+a    Ca  1.500
CA2      7.631499767    0.000000000    0.000000000 XXX  1      ca+a    Ca  1.500
CA3      3.908854246    3.908854246    3.908854246 XXX  1      ca+a    Ca  1.500
CA4      5.723625183    5.723625183    5.723625183 XXX  1      ca+a    Ca  1.500
CA5      2.115451813    5.743466854    1.941453576 XXX  1      ca+a    Ca  1.500
CA6      5.799940109    5.857939243    1.845296741 XXX  1      ca+a    Ca  1.500
AL1      3.855433702    0.202997893    0.300681114 XXX  1      ac1     Al  1.200
AL2      3.730277300    3.563910484    0.070209801 XXX  1      ac1     Al  1.200
O1       4.238534927    1.894138336    0.157208905 XXX  1      oc3     O  -0.750
O2       7.379660606    2.007084608    3.870696783 XXX  1      oc3     O  -0.750
O3       4.066063404    4.336218357    1.601088643 XXX  1      oc4     O  -1.350
O4       3.586805105    6.176936150    4.458322525 XXX  1      oc4     O  -1.350
O5       5.328313351   -0.587625504   -0.265576214 XXX  1      oc4     O  -1.350
O6       2.303186655   -0.158735201   -0.369364589 XXX  1      oc4     O  -1.350
CA1      7.631499767    0.000000000    7.631499767 XXX  2      ca+a    Ca  1.500
CA2      0.000000000    0.000000000    7.631499767 XXX  2      ca+a    Ca  1.500
CA3      3.722645760   11.354146004   11.540353775 XXX  2      ca+a    Ca  1.500
CA4      1.907874823    9.539374352   13.355125427 XXX  2      ca+a    Ca  1.500
CA5      5.516047955    9.519533157    9.572953224 XXX  2      ca+a    Ca  1.500
CA6      1.831559896    9.405060768    9.476797104 XXX  2      ca+a    Ca  1.500
AL1      3.776066303   15.060002327    7.932180882 XXX  2      ac1     Al  1.200
AL2      3.901222706   11.699089050    7.701709747 XXX  2      ac1     Al  1.200
O1       3.392965078   13.368861198    7.788708687 XXX  2      oc3     O  -0.750
O2      15.514839172   13.255915642   11.502196312 XXX  2      oc3     O  -0.750
O3       3.565436602   10.926781654    9.232588768 XXX  2      oc4     O  -1.350
O4       4.044694901    9.086063385   12.089822769 XXX  2      oc4     O  -1.350
O5       2.303186655   15.850625038    7.365923882 XXX  2      oc4     O  -1.350
O6       5.328313351   15.421734810    7.262135506 XXX  2      oc4     O  -1.350
CA7      0.000000000    7.631499767    7.631499767 XXX  2      ca+a    Ca  1.500
CA8      7.631499767    7.631499767    7.631499767 XXX  2      ca+a    Ca  1.500
CA9     11.354146004   11.540353775    3.722645760 XXX  2      ca+a    Ca  1.500
CA10     9.539374352   13.355125427    1.907874823 XXX  2      ca+a    Ca  1.500
CA11    13.147547722   13.374966621    5.690046310 XXX  2      ca+a    Ca  1.500
CA12     9.463059425   13.489439011    5.786203384 XXX  2      ca+a    Ca  1.500
AL3     11.407566071    7.834497929    7.330818653 XXX  2      ac1     Al  1.200
AL4     11.532722473   11.195410728    7.561290264 XXX  2      ac1     Al  1.200
O7      11.024464607    9.525638580    7.474291325 XXX  2      oc3     O  -0.750
O8       7.883339405    9.638584137    3.760803223 XXX  2      oc3     O  -0.750
O9      11.196936607   11.967718124    6.030411243 XXX  2      oc4     O  -1.350
O10     11.676195145   -1.454563856    3.173177481 XXX  2      oc4     O  -1.350
O11      9.934686661    7.043874264    7.897076130 XXX  2      oc4     O  -1.350
O12     12.959813118    7.472764969    8.000864983 XXX  2      oc4     O  -1.350
CA13     7.631499767    7.631499767    0.000000000 XXX  2      ca+a    Ca  1.500
CA14     0.000000000    7.631499767    0.000000000 XXX  2      ca+a    Ca  1.500
CA15    11.540353775    3.722645760   11.354146004 XXX  2      ca+a    Ca  1.500
CA16    13.355125427    1.907874823    9.539374352 XXX  2      ca+a    Ca  1.500
CA17     9.746952057    1.888033152   13.321546555 XXX  2      ca+a    Ca  1.500
CA18    13.431440353    1.773560762   13.417703629 XXX  2      ca+a    Ca  1.500
AL5     11.486933708    7.428502083   14.962318420 XXX  2      ac1     Al  1.200
AL6     11.361777306    4.067589283   15.192790031 XXX  2      ac1     Al  1.200
O13     11.870035172    5.737361431   15.105791092 XXX  2      oc3     O  -0.750
O14     -0.251839399    5.624415398   11.392303467 XXX  2      oc3     O  -0.750
O15     11.697563171    3.295281649   13.661911011 XXX  2      oc4     O  -1.350
O16     11.218304634   16.717563629   10.804677010 XXX  2      oc4     O  -1.350
O17     12.959813118    8.219125748   15.528575897 XXX  2      oc4     O  -1.350
O18      9.934686661    7.790235043   15.632364273 XXX  2      oc4     O  -1.350
CA19     1.941453576    2.115451813    5.743466854 XXX  2      ca+a    Ca  1.500
CA20     1.845296741    5.799940109    5.857939243 XXX  2      ca+a    Ca  1.500
AL7      0.300681114    3.855433702    0.202997893 XXX  2      ac1     Al  1.200
AL8      0.070209801    3.730277300    3.563910484 XXX  2      ac1     Al  1.200
O19      0.157208905    4.238534927    1.894138336 XXX  2      oc3     O  -0.750
O20      3.870696783    7.379660606    2.007084608 XXX  2      oc3     O  -0.750
O21      1.601088643    4.066063404    4.336218357 XXX  2      oc4     O  -1.350
O22      4.458322525    3.586805105    6.176936150 XXX  2      oc4     O  -1.350
O23     -0.265576214    5.328313351   -0.587625504 XXX  2      oc4     O  -1.350
O24     -0.369364589    2.303186655   -0.158735201 XXX  2      oc4     O  -1.350
CA21     9.572953224    5.516047955    9.519533157 XXX  2      ca+a    Ca  1.500
CA22     9.476797104    1.831559896    9.405060768 XXX  2      ca+a    Ca  1.500
AL9      7.932180882    3.776066303   15.060002327 XXX  2      ac1     Al  1.200
AL10     7.701709747    3.901222706   11.699089050 XXX  2      ac1     Al  1.200
O25      7.788708687    3.392965078   13.368861198 XXX  2      oc3     O  -0.750
O26     11.502196312   15.514839172   13.255915642 XXX  2      oc3     O  -0.750
O27      9.232588768    3.565436602   10.926781654 XXX  2      oc4     O  -1.350
O28     12.089822769    4.044694901    9.086063385 XXX  2      oc4     O  -1.350
O29      7.365923882    2.303186655   15.850625038 XXX  2      oc4     O  -1.350
O30      7.262135506    5.328313351   15.421734810 XXX  2      oc4     O  -1.350
CA23     5.690046310   13.147547722   13.374966621 XXX  2      ca+a    Ca  1.500
CA24     5.786203384    9.463059425   13.489439011 XXX  2      ca+a    Ca  1.500
AL11     7.330818653   11.407566071    7.834497929 XXX  2      ac1     Al  1.200
AL12     7.561290264   11.532722473   11.195410728 XXX  2      ac1     Al  1.200
O31      7.474291325   11.024464607    9.525638580 XXX  2      oc3     O  -0.750
O32      3.760803223    7.883339405    9.638584137 XXX  2      oc3     O  -0.750
O33      6.030411243   11.196936607   11.967718124 XXX  2      oc4     O  -1.350
O34      3.173177481   11.676195145   -1.454563856 XXX  2      oc4     O  -1.350
O35      7.897076130    9.934686661    7.043874264 XXX  2      oc4     O  -1.350
O36      8.000864983   12.959813118    7.472764969 XXX  2      oc4     O  -1.350
CA25    13.321546555    9.746952057    1.888033152 XXX  2      ca+a    Ca  1.500
CA26    13.417703629   13.431440353    1.773560762 XXX  2      ca+a    Ca  1.500
AL13    14.962318420   11.486933708    7.428502083 XXX  2      ac1     Al  1.200
AL14    15.192790031   11.361777306    4.067589283 XXX  2      ac1     Al  1.200
O37     15.105791092   11.870035172    5.737361431 XXX  2      oc3     O  -0.750
O38     11.392303467   -0.251839399    5.624415398 XXX  2      oc3     O  -0.750
O39     13.661911011   11.697563171    3.295281649 XXX  2      oc4     O  -1.350
O40     10.804677010   11.218304634   16.717563629 XXX  2      oc4     O  -1.350
O41     15.528575897   12.959813118    8.219125748 XXX  2      oc4     O  -1.350
O42     15.632364273    9.934686661    7.790235043 XXX  2      oc4     O  -1.350
CA27     5.743466854    1.941453576    2.115451813 XXX  2      ca+a    Ca  1.500
CA28     5.857939243    1.845296741    5.799940109 XXX  2      ca+a    Ca  1.500
AL15     0.202997893    0.300681114    3.855433702 XXX  2      ac1     Al  1.200
AL16     3.563910484    0.070209801    3.730277300 XXX  2      ac1     Al  1.200
O43      1.894138336    0.157208905    4.238534927 XXX  2      oc3     O  -0.750
O44      2.007084608    3.870696783    7.379660606 XXX  2      oc3     O  -0.750
O45      4.336218357    1.601088643    4.066063404 XXX  2      oc4     O  -1.350
O46      6.176936150    4.458322525    3.586805105 XXX  2      oc4     O  -1.350
O47     -0.587625504   -0.265576214    5.328313351 XXX  2      oc4     O  -1.350
O48     -0.158735201   -0.369364589    2.303186655 XXX  2      oc4     O  -1.350
CA29     9.519533157    9.572953224    5.516047955 XXX  2      ca+a    Ca  1.500
CA30     9.405060768    9.476797104    1.831559896 XXX  2      ca+a    Ca  1.500
AL17    15.060002327    7.932180882    3.776066303 XXX  2      ac1     Al  1.200
AL18    11.699089050    7.701709747    3.901222706 XXX  2      ac1     Al  1.200
O49     13.368861198    7.788708687    3.392965078 XXX  2      oc3     O  -0.750
O50     13.255915642   11.502196312   15.514839172 XXX  2      oc3     O  -0.750
O51     10.926781654    9.232588768    3.565436602 XXX  2      oc4     O  -1.350
O52      9.086063385   12.089822769    4.044694901 XXX  2      oc4     O  -1.350
O53     15.850625038    7.365923882    2.303186655 XXX  2      oc4     O  -1.350
O54     15.421734810    7.262135506    5.328313351 XXX  2      oc4     O  -1.350
CA31    13.374966621    5.690046310   13.147547722 XXX  2      ca+a    Ca  1.500
CA32    13.489439011    5.786203384    9.463059425 XXX  2      ca+a    Ca  1.500
AL19     7.834497929    7.330818653   11.407566071 XXX  2      ac1     Al  1.200
AL20    11.195410728    7.561290264   11.532722473 XXX  2      ac1     Al  1.200
O55      9.525638580    7.474291325   11.024464607 XXX  2      oc3     O  -0.750
O56      9.638584137    3.760803223    7.883339405 XXX  2      oc3     O  -0.750
O57     11.967718124    6.030411243   11.196936607 XXX  2      oc4     O  -1.350
O58     -1.454563856    3.173177481   11.676195145 XXX  2      oc4     O  -1.350
O59      7.043874264    7.897076130    9.934686661 XXX  2      oc4     O  -1.350
O60      7.472764969    8.000864983   12.959813118 XXX  2      oc4     O  -1.350
CA33     1.888033152   13.321546555    9.746952057 XXX  2      ca+a    Ca  1.500
CA34     1.773560762   13.417703629   13.431440353 XXX  2      ca+a    Ca  1.500
AL21     7.428502083   14.962318420   11.486933708 XXX  2      ac1     Al  1.200
AL22     4.067589283   15.192790031   11.361777306 XXX  2      ac1     Al  1.200
O61      5.737361431   15.105791092   11.870035172 XXX  2      oc3     O  -0.750
O62      5.624415398   11.392303467   -0.251839399 XXX  2      oc3     O  -0.750
O63      3.295281649   13.661911011   11.697563171 XXX  2      oc4     O  -1.350
O64     16.717563629   10.804677010   11.218304634 XXX  2      oc4     O  -1.350
O65      8.219125748   15.528575897   12.959813118 XXX  2      oc4     O  -1.350
O66      7.790235043   15.632364273    9.934686661 XXX  2      oc4     O  -1.350
CA35    11.354146004   11.354146004   11.354146004 XXX  2      ca+a    Ca  1.500
CA36     9.539374352    9.539374352    9.539374352 XXX  2      ca+a    Ca  1.500
CA37    13.147547722    9.519533157   13.321546555 XXX  2      ca+a    Ca  1.500
CA38     9.463059425    9.405060768   13.417703629 XXX  2      ca+a    Ca  1.500
AL23    11.407566071   15.060002327   14.962318420 XXX  2      ac1     Al  1.200
AL24    11.532722473   11.699089050   15.192790031 XXX  2      ac1     Al  1.200
O67     11.024464607   13.368861198   15.105791092 XXX  2      oc3     O  -0.750
O68      7.883339405   13.255915642   11.392303467 XXX  2      oc3     O  -0.750
O69     11.196936607   10.926781654   13.661911011 XXX  2      oc4     O  -1.350
O70     11.676195145    9.086063385   10.804677010 XXX  2      oc4     O  -1.350
O71      9.934686661   15.850625038   15.528575897 XXX  2      oc4     O  -1.350
O72     12.959813118   15.421734810   15.632364273 XXX  2      oc4     O  -1.350
CA39    11.540353775    3.908854246    3.722645760 XXX  2      ca+a    Ca  1.500
CA40    13.355125427    5.723625183    1.907874823 XXX  2      ca+a    Ca  1.500
CA41     9.746952057    5.743466854    5.690046310 XXX  2      ca+a    Ca  1.500
CA42    13.431440353    5.857939243    5.786203384 XXX  2      ca+a    Ca  1.500
AL25    11.486933708    0.202997893    7.330818653 XXX  2      ac1     Al  1.200
AL26    11.361777306    3.563910484    7.561290264 XXX  2      ac1     Al  1.200
O73     11.870035172    1.894138336    7.474291325 XXX  2      oc3     O  -0.750
O74     -0.251839399    2.007084608    3.760803223 XXX  2      oc3     O  -0.750
O75     11.697563171    4.336218357    6.030411243 XXX  2      oc4     O  -1.350
O76     11.218304634    6.176936150    3.173177481 XXX  2      oc4     O  -1.350
O77     12.959813118   -0.587625504    7.897076130 XXX  2      oc4     O  -1.350
O78      9.934686661   -0.158735201    8.000864983 XXX  2      oc4     O  -1.350
CA43     3.908854246    3.722645760   11.540353775 XXX  2      ca+a    Ca  1.500
CA44     5.723625183    1.907874823   13.355125427 XXX  2      ca+a    Ca  1.500
CA45     2.115451813    1.888033152    9.572953224 XXX  2      ca+a    Ca  1.500
CA46     5.799940109    1.773560762    9.476797104 XXX  2      ca+a    Ca  1.500
AL27     3.855433702    7.428502083    7.932180882 XXX  2      ac1     Al  1.200
AL28     3.730277300    4.067589283    7.701709747 XXX  2      ac1     Al  1.200
O79      4.238534927    5.737361431    7.788708687 XXX  2      oc3     O  -0.750
O80      7.379660606    5.624415398   11.502196312 XXX  2      oc3     O  -0.750
O81      4.066063404    3.295281649    9.232588768 XXX  2      oc4     O  -1.350
O82      3.586805105   16.717563629   12.089822769 XXX  2      oc4     O  -1.350
O83      5.328313351    8.219125748    7.365923882 XXX  2      oc4     O  -1.350
O84      2.303186655    7.790235043    7.262135506 XXX  2      oc4     O  -1.350
CA47     3.722645760   11.540353775    3.908854246 XXX  2      ca+a    Ca  1.500
CA48     1.907874823   13.355125427    5.723625183 XXX  2      ca+a    Ca  1.500
CA49     5.516047955   13.374966621    1.941453576 XXX  2      ca+a    Ca  1.500
CA50     1.831559896   13.489439011    1.845296741 XXX  2      ca+a    Ca  1.500
AL29     3.776066303    7.834497929    0.300681114 XXX  2      ac1     Al  1.200
AL30     3.901222706   11.195410728    0.070209801 XXX  2      ac1     Al  1.200
O85      3.392965078    9.525638580    0.157208905 XXX  2      oc3     O  -0.750
O86     15.514839172    9.638584137    3.870696783 XXX  2      oc3     O  -0.750
O87      3.565436602   11.967718124    1.601088643 XXX  2      oc4     O  -1.350
O88      4.044694901   -1.454563856    4.458322525 XXX  2      oc4     O  -1.350
O89      2.303186655    7.043874264   -0.265576214 XXX  2      oc4     O  -1.350
O90      5.328313351    7.472764969   -0.369364589 XXX  2      oc4     O  -1.350
CA51    13.321546555   13.147547722    9.519533157 XXX  2      ca+a    Ca  1.500
CA52    13.417703629    9.463059425    9.405060768 XXX  2      ca+a    Ca  1.500
AL31    14.962318420   11.407566071   15.060002327 XXX  2      ac1     Al  1.200
AL32    15.192790031   11.532722473   11.699089050 XXX  2      ac1     Al  1.200
O91     15.105791092   11.024464607   13.368861198 XXX  2      oc3     O  -0.750
O92     11.392303467    7.883339405   13.255915642 XXX  2      oc3     O  -0.750
O93     13.661911011   11.196936607   10.926781654 XXX  2      oc4     O  -1.350
O94     10.804677010   11.676195145    9.086063385 XXX  2      oc4     O  -1.350
O95     15.528575897    9.934686661   15.850625038 XXX  2      oc4     O  -1.350
O96     15.632364273   12.959813118   15.421734810 XXX  2      oc4     O  -1.350
CA53     5.690046310    9.746952057    5.743466854 XXX  2      ca+a    Ca  1.500
CA54     5.786203384   13.431440353    5.857939243 XXX  2      ca+a    Ca  1.500
AL33     7.330818653   11.486933708    0.202997893 XXX  2      ac1     Al  1.200
AL34     7.561290264   11.361777306    3.563910484 XXX  2      ac1     Al  1.200
O97      7.474291325   11.870035172    1.894138336 XXX  2      oc3     O  -0.750
O98      3.760803223   -0.251839399    2.007084608 XXX  2      oc3     O  -0.750
O99      6.030411243   11.697563171    4.336218357 XXX  2      oc4     O  -1.350
O100     3.173177481   11.218304634    6.176936150 XXX  2      oc4     O  -1.350
O101     7.897076130   12.959813118   -0.587625504 XXX  2      oc4     O  -1.350
O102     8.000864983    9.934686661   -0.158735201 XXX  2      oc4     O  -1.350
CA55     9.572953224    2.115451813    1.888033152 XXX  2      ca+a    Ca  1.500
CA56     9.476797104    5.799940109    1.773560762 XXX  2      ca+a    Ca  1.500
AL35     7.932180882    3.855433702    7.428502083 XXX  2      ac1     Al  1.200
AL36     7.701709747    3.730277300    4.067589283 XXX  2      ac1     Al  1.200
O103     7.788708687    4.238534927    5.737361431 XXX  2      oc3     O  -0.750
O104    11.502196312    7.379660606    5.624415398 XXX  2      oc3     O  -0.750
O105     9.232588768    4.066063404    3.295281649 XXX  2      oc4     O  -1.350
O106    12.089822769    3.586805105   16.717563629 XXX  2      oc4     O  -1.350
O107     7.365923882    5.328313351    8.219125748 XXX  2      oc4     O  -1.350
O108     7.262135506    2.303186655    7.790235043 XXX  2      oc4     O  -1.350
CA57     1.941453576    5.516047955   13.374966621 XXX  2      ca+a    Ca  1.500
CA58     1.845296741    1.831559896   13.489439011 XXX  2      ca+a    Ca  1.500
AL37     0.300681114    3.776066303    7.834497929 XXX  2      ac1     Al  1.200
AL38     0.070209801    3.901222706   11.195410728 XXX  2      ac1     Al  1.200
O109     0.157208905    3.392965078    9.525638580 XXX  2      oc3     O  -0.750
O110     3.870696783   15.514839172    9.638584137 XXX  2      oc3     O  -0.750
O111     1.601088643    3.565436602   11.967718124 XXX  2      oc4     O  -1.350
O112     4.458322525    4.044694901   -1.454563856 XXX  2      oc4     O  -1.350
O113    -0.265576214    2.303186655    7.043874264 XXX  2      oc4     O  -1.350
O114    -0.369364589    5.328313351    7.472764969 XXX  2      oc4     O  -1.350
CA59     9.519533157   13.321546555   13.147547722 XXX  2      ca+a    Ca  1.500
CA60     9.405060768   13.417703629    9.463059425 XXX  2      ca+a    Ca  1.500
AL39    15.060002327   14.962318420   11.407566071 XXX  2      ac1     Al  1.200
AL40    11.699089050   15.192790031   11.532722473 XXX  2      ac1     Al  1.200
O115    13.368861198   15.105791092   11.024464607 XXX  2      oc3     O  -0.750
O116    13.255915642   11.392303467    7.883339405 XXX  2      oc3     O  -0.750
O117    10.926781654   13.661911011   11.196936607 XXX  2      oc4     O  -1.350
O118     9.086063385   10.804677010   11.676195145 XXX  2      oc4     O  -1.350
O119    15.850625038   15.528575897    9.934686661 XXX  2      oc4     O  -1.350
O120    15.421734810   15.632364273   12.959813118 XXX  2      oc4     O  -1.350
CA61     5.743466854    5.690046310    9.746952057 XXX  2      ca+a    Ca  1.500
CA62     5.857939243    5.786203384   13.431440353 XXX  2      ca+a    Ca  1.500
AL41     0.202997893    7.330818653   11.486933708 XXX  2      ac1     Al  1.200
AL42     3.563910484    7.561290264   11.361777306 XXX  2      ac1     Al  1.200
O121     1.894138336    7.474291325   11.870035172 XXX  2      oc3     O  -0.750
O122     2.007084608    3.760803223   -0.251839399 XXX  2      oc3     O  -0.750
O123     4.336218357    6.030411243   11.697563171 XXX  2      oc4     O  -1.350
O124     6.176936150    3.173177481   11.218304634 XXX  2      oc4     O  -1.350
O125    -0.587625504    7.897076130   12.959813118 XXX  2      oc4     O  -1.350
O126    -0.158735201    8.000864983    9.934686661 XXX  2      oc4     O  -1.350
CA63     1.888033152    9.572953224    2.115451813 XXX  2      ca+a    Ca  1.500
CA64     1.773560762    9.476797104    5.799940109 XXX  2      ca+a    Ca  1.500
AL43     7.428502083    7.932180882    3.855433702 XXX  2      ac1     Al  1.200
AL44     4.067589283    7.701709747    3.730277300 XXX  2      ac1     Al  1.200
O127     5.737361431    7.788708687    4.238534927 XXX  2      oc3     O  -0.750
O128     5.624415398   11.502196312    7.379660606 XXX  2      oc3     O  -0.750
O129     3.295281649    9.232588768    4.066063404 XXX  2      oc4     O  -1.350
O130    16.717563629   12.089822769    3.586805105 XXX  2      oc4     O  -1.350
O131     8.219125748    7.365923882    5.328313351 XXX  2      oc4     O  -1.350
O132     7.790235043    7.262135506    2.303186655 XXX  2      oc4     O  -1.350
CA65    13.374966621    1.941453576    5.516047955 XXX  2      ca+a    Ca  1.500
CA66    13.489439011    1.845296741    1.831559896 XXX  2      ca+a    Ca  1.500
AL45     7.834497929    0.300681114    3.776066303 XXX  2      ac1     Al  1.200
AL46    11.195410728    0.070209801    3.901222706 XXX  2      ac1     Al  1.200
O133     9.525638580    0.157208905    3.392965078 XXX  2      oc3     O  -0.750
O134     9.638584137    3.870696783   15.514839172 XXX  2      oc3     O  -0.750
O135    11.967718124    1.601088643    3.565436602 XXX  2      oc4     O  -1.350
O136    -1.454563856    4.458322525    4.044694901 XXX  2      oc4     O  -1.350
O137     7.043874264   -0.265576214    2.303186655 XXX  2      oc4     O  -1.350
O138     7.472764969   -0.369364589    5.328313351 XXX  2      oc4     O  -1.350
end
end
