!BIOSYM archive 3
PBC=ON

!DATE Wed Oct  8 07:01:09 2003
PBC   15.2504   15.2504   15.2504   90.0000   90.0000   90.0000 (P1)
CA1     -0.000000059   -0.000000059   -0.000000059 XXX  1      ca+a    Ca  1.500
CA2      7.625185013   -0.000000057   -0.000000058 XXX  1      ca+a    Ca  1.500
CA3      3.762089968    3.762089968    3.762089968 XXX  1      ca+a    Ca  1.500
CA4      5.449703217    5.449703217    5.449703217 XXX  1      ca+a    Ca  1.500
CA5      2.098360300    5.809020519    1.964022875 XXX  1      ca+a    Ca  1.500
CA6      5.864394665    5.575065613    1.774809122 XXX  1      ca+a    Ca  1.500
AL1      3.848273993    0.243091658    0.222721756 XXX  1      ac1     Al  1.200
AL2      3.610236168    3.564901114    0.011934254 XXX  1      ac1     Al  1.200
O1       4.195170879    1.940733194    0.135345593 XXX  1      oc3     O  -0.750
O2       7.361180782    1.880051851    4.011808872 XXX  1      oc3     O  -0.750
O3       3.895329714    4.377516747    1.544488907 XXX  1      oc4     O  -1.350
O4       3.536360979    6.092103004    4.242426872 XXX  1      oc4     O  -1.350
O5       5.321499825   -0.569713354   -0.255481631 XXX  1      oc4     O  -1.350
O6       2.319735765    0.046556033   -0.599182785 XXX  1      oc4     O  -1.350
CA1      7.625185013   -0.000000056    7.625185013 XXX  2      ca+a    Ca  1.500
CA2     -0.000000055   -0.000000056    7.625185013 XXX  2      ca+a    Ca  1.500
CA3      3.863095045   11.488280296   11.387274742 XXX  2      ca+a    Ca  1.500
CA4      2.175482035    9.800666809   13.074888229 XXX  2      ca+a    Ca  1.500
CA5      5.526824474    9.441349983    9.589207649 XXX  2      ca+a    Ca  1.500
CA6      1.760790229    9.675304413    9.399993896 XXX  2      ca+a    Ca  1.500
AL1      3.776911020   15.007278442    7.847906590 XXX  2      ac1     Al  1.200
AL2      4.014948845   11.685468674    7.637119293 XXX  2      ac1     Al  1.200
O1       3.430013895   13.309637070    7.760530949 XXX  2      oc3     O  -0.750
O2      15.514374733   13.370318413   11.636993408 XXX  2      oc3     O  -0.750
O3       3.729855299   10.872853279    9.169673920 XXX  2      oc4     O  -1.350
O4       4.088824272    9.158267021   11.867611885 XXX  2      oc4     O  -1.350
O5       2.303685427   15.820083618    7.369703293 XXX  2      oc4     O  -1.350
O6       5.305449009   15.203814507    7.026002407 XXX  2      oc4     O  -1.350
CA7     -0.000000055    7.625185013    7.625185013 XXX  2      ca+a    Ca  1.500
CA8      7.625185013    7.625185013    7.625185013 XXX  2      ca+a    Ca  1.500
CA9     11.488280296   11.387274742    3.863095045 XXX  2      ca+a    Ca  1.500
CA10     9.800666809   13.074888229    2.175482035 XXX  2      ca+a    Ca  1.500
CA11    13.152009964   13.434205055    5.661162376 XXX  2      ca+a    Ca  1.500
CA12     9.385975838   13.200250626    5.850375652 XXX  2      ca+a    Ca  1.500
AL3     11.402095795    7.868276596    7.402463436 XXX  2      ac1     Al  1.200
AL4     11.640133858   11.190086365    7.613250732 XXX  2      ac1     Al  1.200
O7      11.055199623    9.565917969    7.489839554 XXX  2      oc3     O  -0.750
O8       7.889189243    9.505236626    3.613376379 XXX  2      oc3     O  -0.750
O9      11.355040550   12.002701759    6.080696106 XXX  2      oc4     O  -1.350
O10     11.714009285   -1.533082247    3.382758379 XXX  2      oc4     O  -1.350
O11      9.928870201    7.055471897    7.880666733 XXX  2      oc4     O  -1.350
O12     12.930634499    7.671741009    8.224368095 XXX  2      oc4     O  -1.350
CA13     7.625185013    7.625185013   -0.000000058 XXX  2      ca+a    Ca  1.500
CA14    -0.000000056    7.625185013   -0.000000057 XXX  2      ca+a    Ca  1.500
CA15    11.387274742    3.863095045   11.488280296 XXX  2      ca+a    Ca  1.500
CA16    13.074888229    2.175482035    9.800666809 XXX  2      ca+a    Ca  1.500
CA17     9.723545074    1.816164732   13.286347389 XXX  2      ca+a    Ca  1.500
CA18    13.489580154    2.050119638   13.475561142 XXX  2      ca+a    Ca  1.500
AL5     11.473459244    7.382093430   15.027648926 XXX  2      ac1     Al  1.200
AL6     11.235421181    4.060284138   15.238435745 XXX  2      ac1     Al  1.200
O13     11.820356369    5.684451580   15.115024567 XXX  2      oc3     O  -0.750
O14     -0.264004409    5.745133400   11.238561630 XXX  2      oc3     O  -0.750
O15     11.520514488    3.247668505   13.705881119 XXX  2      oc4     O  -1.350
O16     11.161545753   16.783452988   11.007943153 XXX  2      oc4     O  -1.350
O17     12.946684837    8.194898605   15.505851746 XXX  2      oc4     O  -1.350
O18      9.944920540    7.578629017   15.849553108 XXX  2      oc4     O  -1.350
CA19     1.964022875    2.098360300    5.809020519 XXX  2      ca+a    Ca  1.500
CA20     1.774809122    5.864394665    5.575065613 XXX  2      ca+a    Ca  1.500
AL7      0.222721756    3.848273993    0.243091658 XXX  2      ac1     Al  1.200
AL8      0.011934256    3.610236168    3.564901114 XXX  2      ac1     Al  1.200
O19      0.135345593    4.195170879    1.940733194 XXX  2      oc3     O  -0.750
O20      4.011808872    7.361180782    1.880051851 XXX  2      oc3     O  -0.750
O21      1.544489026    3.895329714    4.377516747 XXX  2      oc4     O  -1.350
O22      4.242426872    3.536360979    6.092103004 XXX  2      oc4     O  -1.350
O23     -0.255481631    5.321499825   -0.569713354 XXX  2      oc4     O  -1.350
O24     -0.599182785    2.319735765    0.046556033 XXX  2      oc4     O  -1.350
CA21     9.589207649    5.526824474    9.441349983 XXX  2      ca+a    Ca  1.500
CA22     9.399993896    1.760790229    9.675304413 XXX  2      ca+a    Ca  1.500
AL9      7.847906590    3.776911020   15.007278442 XXX  2      ac1     Al  1.200
AL10     7.637119293    4.014948845   11.685468674 XXX  2      ac1     Al  1.200
O25      7.760530949    3.430013895   13.309637070 XXX  2      oc3     O  -0.750
O26     11.636993408   15.514374733   13.370318413 XXX  2      oc3     O  -0.750
O27      9.169673920    3.729855299   10.872853279 XXX  2      oc4     O  -1.350
O28     11.867611885    4.088824272    9.158267021 XXX  2      oc4     O  -1.350
O29      7.369703293    2.303685427   15.820083618 XXX  2      oc4     O  -1.350
O30      7.026002407    5.305449009   15.203814507 XXX  2      oc4     O  -1.350
CA23     5.661162376   13.152009964   13.434205055 XXX  2      ca+a    Ca  1.500
CA24     5.850375652    9.385975838   13.200250626 XXX  2      ca+a    Ca  1.500
AL11     7.402463436   11.402095795    7.868276596 XXX  2      ac1     Al  1.200
AL12     7.613250732   11.640133858   11.190086365 XXX  2      ac1     Al  1.200
O31      7.489839554   11.055199623    9.565917969 XXX  2      oc3     O  -0.750
O32      3.613376379    7.889189243    9.505236626 XXX  2      oc3     O  -0.750
O33      6.080696106   11.355040550   12.002701759 XXX  2      oc4     O  -1.350
O34      3.382758379   11.714009285   -1.533082247 XXX  2      oc4     O  -1.350
O35      7.880666733    9.928870201    7.055471897 XXX  2      oc4     O  -1.350
O36      8.224368095   12.930634499    7.671741009 XXX  2      oc4     O  -1.350
CA25    13.286347389    9.723545074    1.816164732 XXX  2      ca+a    Ca  1.500
CA26    13.475561142   13.489580154    2.050119638 XXX  2      ca+a    Ca  1.500
AL13    15.027648926   11.473459244    7.382093430 XXX  2      ac1     Al  1.200
AL14    15.238435745   11.235421181    4.060284138 XXX  2      ac1     Al  1.200
O37     15.115024567   11.820356369    5.684451580 XXX  2      oc3     O  -0.750
O38     11.238561630   -0.264004409    5.745133400 XXX  2      oc3     O  -0.750
O39     13.705881119   11.520514488    3.247668505 XXX  2      oc4     O  -1.350
O40     11.007943153   11.161545753   16.783452988 XXX  2      oc4     O  -1.350
O41     15.505851746   12.946684837    8.194898605 XXX  2      oc4     O  -1.350
O42     15.849553108    9.944920540    7.578629017 XXX  2      oc4     O  -1.350
CA27     5.809020519    1.964022875    2.098360300 XXX  2      ca+a    Ca  1.500
CA28     5.575065613    1.774809122    5.864394665 XXX  2      ca+a    Ca  1.500
AL15     0.243091658    0.222721756    3.848273993 XXX  2      ac1     Al  1.200
AL16     3.564901114    0.011934255    3.610236168 XXX  2      ac1     Al  1.200
O43      1.940733194    0.135345593    4.195170879 XXX  2      oc3     O  -0.750
O44      1.880051851    4.011808872    7.361180782 XXX  2      oc3     O  -0.750
O45      4.377516747    1.544489026    3.895329714 XXX  2      oc4     O  -1.350
O46      6.092103004    4.242426872    3.536360979 XXX  2      oc4     O  -1.350
O47     -0.569713354   -0.255481631    5.321499825 XXX  2      oc4     O  -1.350
O48      0.046556033   -0.599182785    2.319735765 XXX  2      oc4     O  -1.350
CA29     9.441349983    9.589207649    5.526824474 XXX  2      ca+a    Ca  1.500
CA30     9.675304413    9.399993896    1.760790229 XXX  2      ca+a    Ca  1.500
AL17    15.007278442    7.847906590    3.776911020 XXX  2      ac1     Al  1.200
AL18    11.685468674    7.637119293    4.014948845 XXX  2      ac1     Al  1.200
O49     13.309637070    7.760530949    3.430013895 XXX  2      oc3     O  -0.750
O50     13.370318413   11.636993408   15.514374733 XXX  2      oc3     O  -0.750
O51     10.872853279    9.169673920    3.729855299 XXX  2      oc4     O  -1.350
O52      9.158267021   11.867611885    4.088824272 XXX  2      oc4     O  -1.350
O53     15.820083618    7.369703293    2.303685427 XXX  2      oc4     O  -1.350
O54     15.203814507    7.026002407    5.305449009 XXX  2      oc4     O  -1.350
CA31    13.434205055    5.661162376   13.152009964 XXX  2      ca+a    Ca  1.500
CA32    13.200250626    5.850375652    9.385975838 XXX  2      ca+a    Ca  1.500
AL19     7.868276596    7.402463436   11.402095795 XXX  2      ac1     Al  1.200
AL20    11.190086365    7.613250732   11.640133858 XXX  2      ac1     Al  1.200
O55      9.565917969    7.489839554   11.055199623 XXX  2      oc3     O  -0.750
O56      9.505236626    3.613376379    7.889189243 XXX  2      oc3     O  -0.750
O57     12.002701759    6.080696106   11.355040550 XXX  2      oc4     O  -1.350
O58     -1.533082247    3.382758379   11.714009285 XXX  2      oc4     O  -1.350
O59      7.055471897    7.880666733    9.928870201 XXX  2      oc4     O  -1.350
O60      7.671741009    8.224368095   12.930634499 XXX  2      oc4     O  -1.350
CA33     1.816164732   13.286347389    9.723545074 XXX  2      ca+a    Ca  1.500
CA34     2.050119638   13.475561142   13.489580154 XXX  2      ca+a    Ca  1.500
AL21     7.382093430   15.027648926   11.473459244 XXX  2      ac1     Al  1.200
AL22     4.060284138   15.238435745   11.235421181 XXX  2      ac1     Al  1.200
O61      5.684451580   15.115024567   11.820356369 XXX  2      oc3     O  -0.750
O62      5.745133400   11.238561630   -0.264004409 XXX  2      oc3     O  -0.750
O63      3.247668505   13.705881119   11.520514488 XXX  2      oc4     O  -1.350
O64     16.783452988   11.007943153   11.161545753 XXX  2      oc4     O  -1.350
O65      8.194898605   15.505851746   12.946684837 XXX  2      oc4     O  -1.350
O66      7.578629017   15.849553108    9.944920540 XXX  2      oc4     O  -1.350
CA35    11.488280296   11.488280296   11.488280296 XXX  2      ca+a    Ca  1.500
CA36     9.800666809    9.800666809    9.800666809 XXX  2      ca+a    Ca  1.500
CA37    13.152009964    9.441349983   13.286347389 XXX  2      ca+a    Ca  1.500
CA38     9.385975838    9.675304413   13.475561142 XXX  2      ca+a    Ca  1.500
AL23    11.402095795   15.007278442   15.027647972 XXX  2      ac1     Al  1.200
AL24    11.640133858   11.685468674   15.238435745 XXX  2      ac1     Al  1.200
O67     11.055198669   13.309637070   15.115024567 XXX  2      oc3     O  -0.750
O68      7.889189243   13.370318413   11.238561630 XXX  2      oc3     O  -0.750
O69     11.355040550   10.872853279   13.705881119 XXX  2      oc4     O  -1.350
O70     11.714009285    9.158267021   11.007943153 XXX  2      oc4     O  -1.350
O71      9.928870201   15.820083618   15.505851746 XXX  2      oc4     O  -1.350
O72     12.930634499   15.203814507   15.849553108 XXX  2      oc4     O  -1.350
CA39    11.387274742    3.762089968    3.863095045 XXX  2      ca+a    Ca  1.500
CA40    13.074888229    5.449703217    2.175481796 XXX  2      ca+a    Ca  1.500
CA41     9.723545074    5.809020519    5.661162376 XXX  2      ca+a    Ca  1.500
CA42    13.489580154    5.575065613    5.850375652 XXX  2      ca+a    Ca  1.500
AL25    11.473459244    0.243091673    7.402463436 XXX  2      ac1     Al  1.200
AL26    11.235421181    3.564901114    7.613250732 XXX  2      ac1     Al  1.200
O73     11.820356369    1.940733314    7.489839554 XXX  2      oc3     O  -0.750
O74     -0.264004409    1.880051851    3.613376379 XXX  2      oc3     O  -0.750
O75     11.520514488    4.377516747    6.080696106 XXX  2      oc4     O  -1.350
O76     11.161545753    6.092103004    3.382758379 XXX  2      oc4     O  -1.350
O77     12.946684837   -0.569713354    7.880666733 XXX  2      oc4     O  -1.350
O78      9.944920540    0.046556041    8.224368095 XXX  2      oc4     O  -1.350
CA43     3.762089968    3.863095045   11.387274742 XXX  2      ca+a    Ca  1.500
CA44     5.449703217    2.175481796   13.074888229 XXX  2      ca+a    Ca  1.500
CA45     2.098360300    1.816164732    9.589207649 XXX  2      ca+a    Ca  1.500
CA46     5.864394665    2.050119638    9.399993896 XXX  2      ca+a    Ca  1.500
AL27     3.848273993    7.382093430    7.847906590 XXX  2      ac1     Al  1.200
AL28     3.610236168    4.060283661    7.637119293 XXX  2      ac1     Al  1.200
O79      4.195170879    5.684451580    7.760530949 XXX  2      oc3     O  -0.750
O80      7.361180782    5.745133400   11.636993408 XXX  2      oc3     O  -0.750
O81      3.895329714    3.247668505    9.169673920 XXX  2      oc4     O  -1.350
O82      3.536360979   16.783452988   11.867611885 XXX  2      oc4     O  -1.350
O83      5.321499825    8.194898605    7.369703293 XXX  2      oc4     O  -1.350
O84      2.319735765    7.578629017    7.026002407 XXX  2      oc4     O  -1.350
CA47     3.863095045   11.387274742    3.762089968 XXX  2      ca+a    Ca  1.500
CA48     2.175481796   13.074888229    5.449703217 XXX  2      ca+a    Ca  1.500
CA49     5.526824474   13.434205055    1.964022875 XXX  2      ca+a    Ca  1.500
CA50     1.760790229   13.200250626    1.774809122 XXX  2      ca+a    Ca  1.500
AL29     3.776911020    7.868276596    0.222721711 XXX  2      ac1     Al  1.200
AL30     4.014948845   11.190086365    0.011934164 XXX  2      ac1     Al  1.200
O85      3.430014133    9.565917969    0.135345608 XXX  2      oc3     O  -0.750
O86     15.514374733    9.505236626    4.011808872 XXX  2      oc3     O  -0.750
O87      3.729855299   12.002701759    1.544489026 XXX  2      oc4     O  -1.350
O88      4.088824272   -1.533082247    4.242426872 XXX  2      oc4     O  -1.350
O89      2.303685427    7.055471897   -0.255481631 XXX  2      oc4     O  -1.350
O90      5.305449009    7.671741009   -0.599182785 XXX  2      oc4     O  -1.350
CA51    13.286347389   13.152009964    9.441349983 XXX  2      ca+a    Ca  1.500
CA52    13.475561142    9.385975838    9.675304413 XXX  2      ca+a    Ca  1.500
AL31    15.027647972   11.402095795   15.007278442 XXX  2      ac1     Al  1.200
AL32    15.238435745   11.640133858   11.685468674 XXX  2      ac1     Al  1.200
O91     15.115024567   11.055198669   13.309637070 XXX  2      oc3     O  -0.750
O92     11.238561630    7.889189243   13.370318413 XXX  2      oc3     O  -0.750
O93     13.705881119   11.355040550   10.872853279 XXX  2      oc4     O  -1.350
O94     11.007943153   11.714009285    9.158267021 XXX  2      oc4     O  -1.350
O95     15.505851746    9.928870201   15.820083618 XXX  2      oc4     O  -1.350
O96     15.849553108   12.930634499   15.203814507 XXX  2      oc4     O  -1.350
CA53     5.661162376    9.723545074    5.809020519 XXX  2      ca+a    Ca  1.500
CA54     5.850375652   13.489580154    5.575065613 XXX  2      ca+a    Ca  1.500
AL33     7.402463436   11.473459244    0.243091673 XXX  2      ac1     Al  1.200
AL34     7.613250732   11.235421181    3.564901114 XXX  2      ac1     Al  1.200
O97      7.489839554   11.820356369    1.940733194 XXX  2      oc3     O  -0.750
O98      3.613376379   -0.264004409    1.880051851 XXX  2      oc3     O  -0.750
O99      6.080696106   11.520514488    4.377516747 XXX  2      oc4     O  -1.350
O100     3.382758379   11.161545753    6.092103004 XXX  2      oc4     O  -1.350
O101     7.880666733   12.946684837   -0.569713354 XXX  2      oc4     O  -1.350
O102     8.224368095    9.944920540    0.046556041 XXX  2      oc4     O  -1.350
CA55     9.589207649    2.098360300    1.816164732 XXX  2      ca+a    Ca  1.500
CA56     9.399993896    5.864394665    2.050119638 XXX  2      ca+a    Ca  1.500
AL35     7.847906590    3.848273993    7.382093430 XXX  2      ac1     Al  1.200
AL36     7.637119293    3.610236168    4.060283661 XXX  2      ac1     Al  1.200
O103     7.760530949    4.195170879    5.684451580 XXX  2      oc3     O  -0.750
O104    11.636993408    7.361180782    5.745133400 XXX  2      oc3     O  -0.750
O105     9.169673920    3.895329714    3.247668505 XXX  2      oc4     O  -1.350
O106    11.867611885    3.536360979   16.783452988 XXX  2      oc4     O  -1.350
O107     7.369703293    5.321499825    8.194898605 XXX  2      oc4     O  -1.350
O108     7.026002407    2.319735765    7.578629017 XXX  2      oc4     O  -1.350
CA57     1.964022875    5.526824474   13.434205055 XXX  2      ca+a    Ca  1.500
CA58     1.774809122    1.760790229   13.200250626 XXX  2      ca+a    Ca  1.500
AL37     0.222721711    3.776911020    7.868276596 XXX  2      ac1     Al  1.200
AL38     0.011934168    4.014948845   11.190086365 XXX  2      ac1     Al  1.200
O109     0.135345608    3.430014133    9.565917969 XXX  2      oc3     O  -0.750
O110     4.011808872   15.514374733    9.505236626 XXX  2      oc3     O  -0.750
O111     1.544489026    3.729855299   12.002701759 XXX  2      oc4     O  -1.350
O112     4.242426872    4.088824272   -1.533082247 XXX  2      oc4     O  -1.350
O113    -0.255481631    2.303685427    7.055471897 XXX  2      oc4     O  -1.350
O114    -0.599182785    5.305449009    7.671741009 XXX  2      oc4     O  -1.350
CA59     9.441349983   13.286347389   13.152009964 XXX  2      ca+a    Ca  1.500
CA60     9.675304413   13.475561142    9.385975838 XXX  2      ca+a    Ca  1.500
AL39    15.007278442   15.027647972   11.402095795 XXX  2      ac1     Al  1.200
AL40    11.685468674   15.238435745   11.640133858 XXX  2      ac1     Al  1.200
O115    13.309637070   15.115024567   11.055198669 XXX  2      oc3     O  -0.750
O116    13.370318413   11.238561630    7.889189243 XXX  2      oc3     O  -0.750
O117    10.872853279   13.705881119   11.355040550 XXX  2      oc4     O  -1.350
O118     9.158267021   11.007943153   11.714009285 XXX  2      oc4     O  -1.350
O119    15.820083618   15.505851746    9.928870201 XXX  2      oc4     O  -1.350
O120    15.203814507   15.849553108   12.930634499 XXX  2      oc4     O  -1.350
CA61     5.809020519    5.661162376    9.723545074 XXX  2      ca+a    Ca  1.500
CA62     5.575065613    5.850375652   13.489580154 XXX  2      ca+a    Ca  1.500
AL41     0.243091673    7.402463436   11.473459244 XXX  2      ac1     Al  1.200
AL42     3.564901114    7.613250732   11.235421181 XXX  2      ac1     Al  1.200
O121     1.940733314    7.489839554   11.820356369 XXX  2      oc3     O  -0.750
O122     1.880051851    3.613376379   -0.264004409 XXX  2      oc3     O  -0.750
O123     4.377516747    6.080696106   11.520514488 XXX  2      oc4     O  -1.350
O124     6.092103004    3.382758379   11.161545753 XXX  2      oc4     O  -1.350
O125    -0.569713354    7.880666733   12.946684837 XXX  2      oc4     O  -1.350
O126     0.046556044    8.224368095    9.944920540 XXX  2      oc4     O  -1.350
CA63     1.816164732    9.589207649    2.098360300 XXX  2      ca+a    Ca  1.500
CA64     2.050119638    9.399993896    5.864394665 XXX  2      ca+a    Ca  1.500
AL43     7.382093430    7.847906590    3.848273993 XXX  2      ac1     Al  1.200
AL44     4.060283661    7.637119293    3.610236168 XXX  2      ac1     Al  1.200
O127     5.684451580    7.760530949    4.195170879 XXX  2      oc3     O  -0.750
O128     5.745133400   11.636993408    7.361180782 XXX  2      oc3     O  -0.750
O129     3.247668505    9.169673920    3.895329714 XXX  2      oc4     O  -1.350
O130    16.783452988   11.867611885    3.536360979 XXX  2      oc4     O  -1.350
O131     8.194898605    7.369703293    5.321499825 XXX  2      oc4     O  -1.350
O132     7.578629017    7.026002407    2.319735765 XXX  2      oc4     O  -1.350
CA65    13.434205055    1.964022875    5.526824474 XXX  2      ca+a    Ca  1.500
CA66    13.200250626    1.774809122    1.760790229 XXX  2      ca+a    Ca  1.500
AL45     7.868276596    0.222721711    3.776911020 XXX  2      ac1     Al  1.200
AL46    11.190086365    0.011934165    4.014948845 XXX  2      ac1     Al  1.200
O133     9.565917969    0.135345608    3.430013895 XXX  2      oc3     O  -0.750
O134     9.505236626    4.011808872   15.514374733 XXX  2      oc3     O  -0.750
O135    12.002701759    1.544489026    3.729855299 XXX  2      oc4     O  -1.350
O136    -1.533082247    4.242426872    4.088824272 XXX  2      oc4     O  -1.350
O137     7.055471897   -0.255481631    2.303685427 XXX  2      oc4     O  -1.350
O138     7.671741009   -0.599182785    5.305449009 XXX  2      oc4     O  -1.350
end
end
