!BIOSYM archive 3
PBC=OFF
Materials Studio Generated CAR File
!DATE Tue Apr 15 10:14:11 2014
O1       2.271672422    7.232153703    0.604981170 XXXX 1      oap1    O  -0.650
O2       1.623349412    7.816965961    2.975623276 XXXX 1      oap1    O  -0.650
P1       1.154632371    7.810137677    1.518738729 XXXX 1      pap     P   0.800
O3      -0.063047319    6.860346643    1.346913629 XXXX 1      oap1    O  -0.650
O4       0.760068000    9.224595600    1.090411385 XXXX 1      oap1    O  -0.650
Na1      1.203660868    5.351315407    0.370529157 XXXX 1      na+     Na  1.000
H1      -0.154859967    9.209422066    0.903406335 XXXX 1      hop     H   0.400
H        1.947690703    8.674230767    3.155034771 XXXX 1      hop     H   0.400
end
end
