!BIOSYM archive 3
PBC=ON
Materials Studio Generated CAR File
!DATE Tue May 05 05:13:40 2015
PBC   37.6680   34.3750  132.6214   90.0000   90.0000   90.0000 (P1)
O1       9.340533077   31.797093577   32.841939807 XXXX 1      oap1    O  -0.650
O2      10.634425747   26.271044814   32.811319983 XXXX 1      oap1    O  -0.600
O3      12.065831860   19.857648417   33.287366473 XXXX 1      oap1    O  -0.600
O4       8.591964194   13.366236238   32.493902305 XXXX 1      oap1    O  -0.650
O5      21.460403067   33.452985464   33.051817918 XXXX 1      oap1    O  -0.600
O6      19.810781906   29.108799397   32.970843539 XXXX 1      oap1    O  -0.650
O7      19.735914255   17.630028478   33.702567998 XXXX 1      oap1    O  -0.600
O8      22.643152376   12.158528060   34.255501857 XXXX 1      oap1    O  -0.600
O9      28.998548542   32.338913468   33.062589237 XXXX 1      oap1    O  -0.600
O10     30.524760717   28.080532608   33.453483296 XXXX 1      oap1    O  -0.600
O11     30.119298941   20.004227297   32.747846961 XXXX 1      oap1    O  -0.600
O12     29.913105951   15.302388148   34.062229048 XXXX 1      oap1    O  -0.650
O13     12.413291869   31.797934532   30.812212897 XXXX 1      oap1    O  -0.800
O14     12.838143557   24.746073330   31.258487614 XXXX 1      oap1    O  -0.800
O15     12.369819480   17.629246826   31.237601027 XXXX 1      oap1    O  -0.800
O16     12.512367714   11.138545230   30.979533549 XXXX 1      oap1    O  -0.800
O17     21.975017740   31.384179831   31.123899411 XXXX 1      oap1    O  -0.800
O18     21.913448679   24.704512387   30.988498253 XXXX 1      oap1    O  -0.800
O19     21.524870801   17.762806668   30.918814033 XXXX 1      oap1    O  -0.800
O20     22.063188862   10.866209169   31.488238375 XXXX 1      oap1    O  -0.800
O21     31.130074589   31.472719135   31.263021812 XXXX 1      oap1    O  -0.800
O22     31.590209346   24.722126693   31.099876359 XXXX 1      oap1    O  -0.800
O23     31.096158000   17.854546693   31.045018843 XXXX 1      oap1    O  -0.800
O24     31.176743106   10.981072217   31.145944249 XXXX 1      oap1    O  -0.800
O25     15.919413544   32.342322474   34.208496522 XXXX 1      oap1    O  -0.600
O26     18.397300211   23.206598704   33.594166218 XXXX 1      oap1    O  -0.600
O27     17.695395455   14.662992382   33.500343999 XXXX 1      oap1    O  -0.600
O28     14.840999508   12.526900600   34.655892603 XXXX 1      oap1    O  -0.600
O29     24.752082344   30.074285539   34.253048225 XXXX 1      oap1    O  -0.600
O30     26.439165765   23.743105044   32.431712213 XXXX 1      oap1    O  -0.600
O31     26.807032569   16.196254357   32.778971234 XXXX 1      oap1    O  -0.600
O32     26.292494749   12.284375682   34.270310692 XXXX 1      oap1    O  -0.600
O33     36.210210971   30.444725846   32.539373928 XXXX 1      oap1    O  -0.600
O34     36.185409343   24.652284860   32.946439386 XXXX 1      oap1    O  -0.600
O35     36.348289615   18.792852938   34.106286508 XXXX 1      oap1    O  -0.600
O36     36.179921590   10.604823794   33.019735228 XXXX 1      oap1    O  -0.600
O37     12.006265016   29.296047330   30.869886269 XXXX 1      oap1    O  -0.800
O38     12.241266806   22.190809502   31.249774724 XXXX 1      oap1    O  -0.800
O39     12.654181431   14.997427001   31.423886874 XXXX 1      oap1    O  -0.800
O40     12.612864002    8.637368328   31.122735565 XXXX 1      oap1    O  -0.800
O41     21.869501319   28.901715454   31.297424751 XXXX 1      oap1    O  -0.800
O42     21.406428148   22.329014565   31.129275255 XXXX 1      oap1    O  -0.800
O43     21.597635444   15.262486263   31.014884722 XXXX 1      oap1    O  -0.800
O44     21.724754146    8.282918237   31.348880785 XXXX 1      oap1    O  -0.800
O45     31.270813806   29.023094315   31.174403823 XXXX 1      oap1    O  -0.800
O46     31.405771942   22.126845896   30.928613761 XXXX 1      oap1    O  -0.800
O47     31.260432836   15.315145507   31.426506311 XXXX 1      oap1    O  -0.800
O48     31.195259312    8.490790064   31.194677072 XXXX 1      oap1    O  -0.800
O49     17.057399812   31.276867311   32.282766973 XXXX 1      oap1    O  -0.600
O50     17.733716938   20.723127548   34.074420457 XXXX 1      oap1    O  -0.600
O51     16.937543908   16.997969148   32.943531885 XXXX 1      oap1    O  -0.600
O52     14.876650473   10.056207812   34.931557567 XXXX 1      oap1    O  -0.600
O53     26.924772661   30.221983230   32.993964425 XXXX 1      oap1    O  -0.600
O54     25.478676296   23.196356887   34.575091974 XXXX 1      oap1    O  -0.600
O55     25.014903974   15.676779707   34.527606750 XXXX 1      oap1    O  -0.600
O56     26.608829516   10.447076337   32.576472988 XXXX 1      oap1    O  -0.600
O57     34.424260332   30.335422877   34.401787308 XXXX 1      oap1    O  -0.600
O58     36.732883593   22.309035477   32.498382819 XXXX 1      oap1    O  -0.600
O59     34.274116923   17.435942762   33.594146095 XXXX 1      oap1    O  -0.600
O60     34.790746817    8.725464069   33.760681790 XXXX 1      oap1    O  -0.600
O61     11.452622006   31.754649305   34.297267753 XXXX 1      oap1    O  -0.600
O62     10.229932505   24.044297849   33.901230732 XXXX 1      oap1    O  -0.650
O63     14.251167307   20.737296488   34.082588578 XXXX 1      oap1    O  -0.600
O64      9.392984734   11.566072852   33.978309017 XXXX 1      oap1    O  -0.600
O65     21.928900560   31.033347108   33.587498027 XXXX 1      oap1    O  -0.650
O66     19.949912655   26.644951041   32.344553709 XXXX 1      oap1    O  -0.600
O67     21.955172533   16.701323021   33.856301236 XXXX 1      oap1    O  -0.600
O68     21.028115174   13.864372384   33.234076514 XXXX 1      oap1    O  -0.600
O69     31.271075201   31.478845073   33.656342041 XXXX 1      oap1    O  -0.650
O70     32.160539257   26.189760239   33.730748472 XXXX 1      oap1    O  -0.600
O71     28.256182899   18.510435480   33.357108080 XXXX 1      oap1    O  -0.600
O72     32.251952626   15.357475176   34.963282031 XXXX 1      oap1    O  -0.600
Ca1     13.715646039   13.366083743   32.763071990 XXXX 1      ca+h    Ca  1.500
Ca2     23.336573034   35.273158439   33.091089628 XXXX 1      ca+h    Ca  1.500
Ca3     23.587828447   28.496755368   32.953122175 XXXX 1      ca+h    Ca  1.500
Ca4     25.080949088   21.599583023   32.898426971 XXXX 1      ca+h    Ca  1.500
Ca5     23.341338672   15.069318525   32.941122095 XXXX 1      ca+h    Ca  1.500
Ca6     32.898696284   35.501336590   32.766637839 XXXX 1      ca+h    Ca  1.500
Ca7     33.096612863   28.925847282   32.991562398 XXXX 1      ca+h    Ca  1.500
Ca8     33.739950312   15.187522349   33.125733862 XXXX 1      ca+h    Ca  1.500
Ca9     13.396341470   32.130918029   32.949360071 XXXX 1      ca+h    Ca  1.500
Ca10    14.429325885   24.903826477   33.011806800 XXXX 1      ca+h    Ca  1.500
Ca11    14.032133335   18.661048911   32.649996330 XXXX 1      ca+h    Ca  1.500
Ca12    24.342061836   11.165067747   32.842955279 XXXX 1      ca+h    Ca  1.500
Ca13    33.878597681   25.058158529   32.770734896 XXXX 1      ca+h    Ca  1.500
Ca14    32.481400541   18.945885137   32.637441411 XXXX 1      ca+h    Ca  1.500
Ca15     8.284840605   26.329153471   32.099290241 XXXX 1      ca+h    Ca  1.500
Ca16    17.191522134   34.053426140   32.613377310 XXXX 1      ca+h    Ca  1.500
Ca17    18.256862783   19.090582746   32.503280924 XXXX 1      ca+h    Ca  1.500
Ca18    17.852995539   12.205745884   32.236290518 XXXX 1      ca+h    Ca  1.500
Ca19    27.098675798   33.352664723   31.990195159 XXXX 1      ca+h    Ca  1.500
P1      10.393146600   32.671397530   33.579689195 XXXX 1      pap     P   1.000
P2      10.908172617   25.368308070   34.107074676 XXXX 1      pap     P   1.000
P3      12.698179434   20.941475643   34.188263463 XXXX 1      pap     P   1.000
P4       9.711341231   13.015001245   33.473563438 XXXX 1      pap     P   1.000
P5      22.010700710   32.460845308   34.106071178 XXXX 1      pap     P   1.000
P6      20.120602233   27.723980420   33.482212200 XXXX 1      pap     P   1.000
P7      21.198221338   17.985392031   34.026205341 XXXX 1      pap     P   1.000
P8      21.136930433   12.461098946   33.953158767 XXXX 1      pap     P   1.000
P9      30.341761719   32.725810599   33.777339608 XXXX 1      pap     P   1.000
P10     30.639154389   26.578644633   33.775831364 XXXX 1      pap     P   1.000
P11     28.752255356   19.967769628   33.517028927 XXXX 1      pap     P   1.000
P12     30.972126838   16.142035595   34.850128359 XXXX 1      pap     P   1.000
O73      9.797914849   33.660220941   34.616408328 XXXX 1      oap1    O  -0.650
O74     10.328067298   25.977727984   35.370443424 XXXX 1      oap1    O  -0.650
O75     12.237280094   20.685017132   35.639949750 XXXX 1      oap1    O  -0.650
O76      9.792600639   14.033067250   34.601368369 XXXX 1      oap1    O  -0.650
O77     21.191106777   32.624293536   35.352872482 XXXX 1      oap1    O  -0.650
O78     19.237906943   27.368737535   34.669980082 XXXX 1      oap1    O  -0.650
O79     21.319393452   18.430670989   35.434499467 XXXX 1      oap1    O  -0.650
O80     20.322766457   12.600353902   35.221609196 XXXX 1      oap1    O  -0.650
O81     30.093785576   33.004476692   35.248828851 XXXX 1      oap1    O  -0.650
O82     29.937785785   25.810124742   32.687993586 XXXX 1      oap1    O  -0.650
O83     27.765046457   21.024023267   33.020283452 XXXX 1      oap1    O  -0.650
O84     30.422847773   16.546947561   36.251864414 XXXX 1      oap1    O  -0.650
O85     11.282509925   33.439100237   32.500271529 XXXX 1      oap1    O  -0.600
O86     12.462315944   25.112356790   34.291614282 XXXX 1      oap1    O  -0.600
O87     12.213598740   22.307971751   33.588763563 XXXX 1      oap1    O  -0.650
O88     11.124532860   12.964951215   32.766009148 XXXX 1      oap1    O  -0.600
O89     23.477308104   32.989606866   34.434622859 XXXX 1      oap1    O  -0.600
O90     21.555139603   27.753965754   34.062751736 XXXX 1      oap1    O  -0.600
O91     21.845565295   18.930975138   33.016132816 XXXX 1      oap1    O  -0.650
O92     20.512401338   11.456208987   33.024361256 XXXX 1      oap1    O  -0.650
O93     30.984310249   33.904628327   33.065089784 XXXX 1      oap1    O  -0.600
O94     30.090730625   26.338705151   35.238469632 XXXX 1      oap1    O  -0.650
O95     29.002303252   20.114940164   34.987477229 XXXX 1      oap1    O  -0.650
O96     31.266960139   17.402317301   34.026001828 XXXX 1      oap1    O  -0.600
Ca20    10.593036053    9.939268542   32.037995120 XXXX 1      ca+h    Ca  1.500
Ca21    20.226891710   24.077381103   32.419751669 XXXX 1      ca+h    Ca  1.500
Ca22    19.572550900   15.613395944   32.306373017 XXXX 1      ca+h    Ca  1.500
Ca23    29.109695152   29.788625263   32.208931563 XXXX 1      ca+h    Ca  1.500
Ca24    29.148311913   16.781588561   32.019467130 XXXX 1      ca+h    Ca  1.500
P13     13.080057287   30.375969283   30.611305906 XXXX 1      pap     P   1.000
P14     13.259952579   23.301161906   30.884471113 XXXX 1      pap     P   1.000
P15     13.215481453   16.364594687   30.931347109 XXXX 1      pap     P   1.000
P16     13.205804681    9.905130657   30.403754706 XXXX 1      pap     P   1.000
P17     22.647886477   30.080691011   30.659522974 XXXX 1      pap     P   1.000
P18     22.514478878   23.321028228   30.686774465 XXXX 1      pap     P   1.000
P19     22.373154883   16.495507916   30.522873652 XXXX 1      pap     P   1.000
P20     22.597954729    9.531072562   30.856724282 XXXX 1      pap     P   1.000
P21     31.940809372   30.352258041   30.641102176 XXXX 1      pap     P   1.000
P22     32.210989425   23.385683597   30.621668934 XXXX 1      pap     P   1.000
P23     31.893389123   16.553037042   30.760777801 XXXX 1      pap     P   1.000
P24     31.930991883    9.742107867   30.714775958 XXXX 1      pap     P   1.000
O97     14.286891731   30.328595961   31.609513132 XXXX 1      oap1    O  -0.800
O98     14.565904233   23.175053716   31.660439690 XXXX 1      oap1    O  -0.800
O99     14.587454531   16.601000028   31.629002879 XXXX 1      oap1    O  -0.800
O100    14.689510425    9.999750975   30.766109135 XXXX 1      oap1    O  -0.800
O101    24.068484258   30.087142425   31.216268304 XXXX 1      oap1    O  -0.800
O102    23.861861358   22.981015222   31.303568249 XXXX 1      oap1    O  -0.800
O103    23.740801652   16.488999171   31.167851422 XXXX 1      oap1    O  -0.800
O104    24.064934351    9.464263397   31.349783074 XXXX 1      oap1    O  -0.800
O105    33.386184764   30.459711932   31.185133237 XXXX 1      oap1    O  -0.800
O106    33.627341868   23.306909166   31.337333067 XXXX 1      oap1    O  -0.800
O107    33.318528222   16.702466755   31.285987189 XXXX 1      oap1    O  -0.800
O108    33.289321064    9.643941304   31.350975990 XXXX 1      oap1    O  -0.800
O109    13.601071794   30.218647414   29.159099426 XXXX 1      oap1    O  -0.800
O110    13.565995289   23.234186042   29.387063938 XXXX 1      oap1    O  -0.800
O111    13.434749299   16.377805897   29.385445394 XXXX 1      oap1    O  -0.800
O112    12.946489174    9.735128206   28.833032993 XXXX 1      oap1    O  -0.800
O113    22.642747051   30.049312895   29.154233006 XXXX 1      oap1    O  -0.800
O114    22.614638344   23.256771805   29.089660577 XXXX 1      oap1    O  -0.800
O115    22.378985128   16.448211819   28.977876605 XXXX 1      oap1    O  -0.800
O116    22.525507914    9.733238485   29.332050639 XXXX 1      oap1    O  -0.800
O117    31.889946025   30.335577183   29.129723755 XXXX 1      oap1    O  -0.800
O118    32.397925975   23.429623453   29.030796664 XXXX 1      oap1    O  -0.800
O119    31.991194581   16.409497081   29.224927640 XXXX 1      oap1    O  -0.800
O120    32.068543124    9.603948211   29.176510050 XXXX 1      oap1    O  -0.800
Ca25    16.159220367   30.322210407   30.156984324 XXXX 1      ca+h    Ca  1.500
Ca26    16.518572136   23.231293225   30.229196107 XXXX 1      ca+h    Ca  1.500
Ca27    16.379098549   16.565235538   30.097110257 XXXX 1      ca+h    Ca  1.500
Ca28    16.882024530    9.661645875   30.068787546 XXXX 1      ca+h    Ca  1.500
Ca29    26.130815584   30.173015979   30.234488246 XXXX 1      ca+h    Ca  1.500
Ca30    26.375880935   23.309899441   30.007140028 XXXX 1      ca+h    Ca  1.500
Ca31    25.972346261   16.534584896   30.278240011 XXXX 1      ca+h    Ca  1.500
Ca32    26.260288967    9.714560048   30.337294666 XXXX 1      ca+h    Ca  1.500
Ca33    35.480815840   30.319256789   30.197809552 XXXX 1      ca+h    Ca  1.500
Ca34    35.350801858   23.493347365   29.767757689 XXXX 1      ca+h    Ca  1.500
Ca35    35.344152050   16.675127651   30.218888302 XXXX 1      ca+h    Ca  1.500
Ca36    35.434707144    9.760375987   30.165744316 XXXX 1      ca+h    Ca  1.500
P25     16.527339178   31.031023542   33.755729149 XXXX 1      pap     P   1.000
P26     17.292342091   22.090878799   33.533342191 XXXX 1      pap     P   1.000
P27     16.689140728   15.785957127   33.907030106 XXXX 1      pap     P   1.000
P28     15.551680469   11.388886612   35.323412626 XXXX 1      pap     P   1.000
P29     26.081534984   30.860589596   34.079522800 XXXX 1      pap     P   1.000
P30     26.153898482   24.386182661   33.839216882 XXXX 1      pap     P   1.000
P31     26.561446926   15.890443196   34.290193371 XXXX 1      pap     P   1.000
P32     27.408207026   11.537995447   33.451434180 XXXX 1      pap     P   1.000
P33     35.725251863   31.072420009   33.878031301 XXXX 1      pap     P   1.000
P34     37.325901281   23.761128904   32.367194013 XXXX 1      pap     P   1.000
P35     35.370924759   17.772984555   34.662121000 XXXX 1      pap     P   1.000
P36     36.221134856    9.095091068   33.326255672 XXXX 1      pap     P   1.000
O121    15.479321919   29.928349191   33.581932083 XXXX 1      oap1    O  -0.650
O122    17.001307786   21.816207908   32.065927196 XXXX 1      oap1    O  -0.650
O123    16.974613654   16.267051480   35.335434380 XXXX 1      oap1    O  -0.650
O124    15.539417989   11.457897308   36.826406755 XXXX 1      oap1    O  -0.650
O125    26.837689905   30.847530495   35.423090494 XXXX 1      oap1    O  -0.650
O126    25.277377894   25.580184265   33.705195968 XXXX 1      oap1    O  -0.650
O127    27.033394442   17.169360862   35.031832023 XXXX 1      oap1    O  -0.650
O128    28.476115097   10.938753605   34.320046254 XXXX 1      oap1    O  -0.650
O129    35.405927653   32.534024061   33.526137644 XXXX 1      oap1    O  -0.650
O130    38.634783600   23.834781212   33.162604436 XXXX 1      oap1    O  -0.650
O131    34.590604982   18.403356388   35.839530072 XXXX 1      oap1    O  -0.650
O132    37.314599601    8.842789565   34.411393432 XXXX 1      oap1    O  -0.650
O133    17.616963865   30.575927963   34.724756233 XXXX 1      oap1    O  -0.650
O134    16.003763446   22.653816784   34.132481068 XXXX 1      oap1    O  -0.650
O135    15.209781688   15.449810806   33.664062070 XXXX 1      oap1    O  -0.650
O136    16.973830083   11.390038114   34.683831508 XXXX 1      oap1    O  -0.650
O137    25.662735697   32.377779589   33.824761464 XXXX 1      oap1    O  -0.650
O138    27.531131614   24.694732976   34.428926305 XXXX 1      oap1    O  -0.650
O139    27.358348855   14.715810771   34.708101281 XXXX 1      oap1    O  -0.650
O140    28.158332623   12.487596941   32.450295757 XXXX 1      oap1    O  -0.650
O141    36.818099029   31.043117728   34.938546618 XXXX 1      oap1    O  -0.650
O142    37.503553149   24.165752093   30.836298283 XXXX 1      oap1    O  -0.650
O143    36.002748016   16.438626318   35.100148586 XXXX 1      oap1    O  -0.650
O144    36.578832769    8.327698673   32.021996041 XXXX 1      oap1    O  -0.650
O145     9.246596250   31.766035893   30.263949001 XXXX 1      oap2    O  -1.100
O146     9.286088928   24.974570916   30.460706799 XXXX 1      oap2    O  -1.100
O147     9.142840635   18.128295039   30.142324379 XXXX 1      oap2    O  -1.100
O148     9.564827892   11.364647742   30.331940162 XXXX 1      oap2    O  -1.100
O149    18.749739280   33.571199672   30.847323083 XXXX 1      oap2    O  -1.100
O150    18.782948871   24.248357678   30.563431376 XXXX 1      oap2    O  -1.100
O151    18.616567378   17.183100899   30.711314358 XXXX 1      oap2    O  -1.100
O152    18.882205030   11.093433017   30.288600282 XXXX 1      oap2    O  -1.100
O153    28.309291702   31.437475802   30.660460333 XXXX 1      oap2    O  -1.100
O154    28.463594777   24.847741680   30.071327927 XXXX 1      oap2    O  -1.100
O155    28.314841703   18.178986640   30.176308499 XXXX 1      oap2    O  -1.100
O156    28.331458154   11.368753918   30.241884127 XXXX 1      oap2    O  -1.100
O157     9.268748013   28.046551873   30.671366761 XXXX 1      oap2    O  -1.100
O158     9.522043549   21.615289666   30.501951213 XXXX 1      oap2    O  -1.100
O159     9.697850155   14.689512338   30.408719520 XXXX 1      oap2    O  -1.100
O160     9.646478070    8.404771024   30.475484534 XXXX 1      oap2    O  -1.100
O161    19.197895018   28.323415450   29.907357786 XXXX 1      oap2    O  -1.100
O162    18.956628503   20.337628451   30.570544947 XXXX 1      oap2    O  -1.100
O163    18.823146695   13.939687167   30.889781725 XXXX 1      oap2    O  -1.100
O164    17.121563952    9.889024816   32.623915355 XXXX 1      oap2    O  -1.100
O165    28.458642580   28.267217344   30.523195218 XXXX 1      oap2    O  -1.100
O166    28.196295231   21.409218563   30.456425544 XXXX 1      oap2    O  -1.100
O167    28.324616825   15.078637917   30.471925424 XXXX 1      oap2    O  -1.100
O168    28.201247387    7.355682816   30.843170906 XXXX 1      oap2    O  -1.100
H1      10.082382419   31.966216164   30.540001130 XXXX 1      hop     H   0.200
H2      10.030105645   24.608028295   30.861487966 XXXX 1      hop     H   0.200
H3       8.916600312   18.680319893   30.913147066 XXXX 1      hop     H   0.200
H4       9.132475213   11.940707349   31.021833197 XXXX 1      hop     H   0.200
H5      18.537540945   32.696911384   30.627987015 XXXX 1      hop     H   0.200
H6      18.479918113   25.157503763   30.775008596 XXXX 1      hop     H   0.200
H7      19.090253362   17.951621754   30.433288818 XXXX 1      hop     H   0.200
H8      19.291099853   10.539613906   30.879480414 XXXX 1      hop     H   0.200
H9      28.722584776   32.037924824   29.998327793 XXXX 1      hop     H   0.200
H10     28.871425390   24.360854058   30.740042744 XXXX 1      hop     H   0.200
H11     27.512864219   18.623688692   30.495564791 XXXX 1      hop     H   0.200
H12     28.925705815   11.035439369   30.975271344 XXXX 1      hop     H   0.200
H13      9.897756630   28.647317851   31.101969473 XXXX 1      hop     H   0.200
H14      9.535779256   21.797743724   31.455706933 XXXX 1      hop     H   0.200
H15     10.077702188   15.236537755   31.078369150 XXXX 1      hop     H   0.200
H16      9.344260108    7.661139718   30.944050730 XXXX 1      hop     H   0.200
H17     18.806509879   28.442552480   30.777016570 XXXX 1      hop     H   0.200
H18     18.675683717   21.249088564   30.632068266 XXXX 1      hop     H   0.200
H19     17.881295216   13.941582034   30.629231131 XXXX 1      hop     H   0.200
H20     17.477059733    9.011730741   32.679251762 XXXX 1      hop     H   0.200
H21     27.933448842   27.568332124   30.932225754 XXXX 1      hop     H   0.200
H22     28.561938184   22.258887543   30.737168232 XXXX 1      hop     H   0.200
H23     27.816177847   14.590980714   31.088549901 XXXX 1      hop     H   0.200
H24     28.850585667    8.050944109   31.088037991 XXXX 1      hop     H   0.200
H25      9.512148953   33.174163087   35.348945520 XXXX 1      hop     H   0.400
H26     11.108131553   26.145344028   35.811545140 XXXX 1      hop     H   0.400
H27     11.298687570   20.746952337   35.681717428 XXXX 1      hop     H   0.400
H28      8.953633512   14.556264571   34.677629761 XXXX 1      hop     H   0.400
H29      9.510965571   31.813190347   31.874939808 XXXX 1      hop     H   0.400
H30     10.980486420   23.472664895   33.880558185 XXXX 1      hop     H   0.400
H31     12.510562227   22.310929230   32.677194491 XXXX 1      hop     H   0.400
H32      8.845192551   14.009152833   31.844713423 XXXX 1      hop     H   0.400
H33     15.072547786   30.001686553   32.685825302 XXXX 1      hop     H   0.400
H34     18.255559918   30.092118492   34.234852343 XXXX 1      hop     H   0.400
H35     16.475984731   21.001241440   32.012547698 XXXX 1      hop     H   0.400
H36     15.496167353   21.952719152   34.167893866 XXXX 1      hop     H   0.400
H37     17.687722310   15.690973190   35.617208318 XXXX 1      hop     H   0.400
H38     15.077676575   15.990368195   32.891711159 XXXX 1      hop     H   0.400
H39     14.839893437   10.875579581   36.993039573 XXXX 1      hop     H   0.400
H40     16.995593290   10.630727489   34.090991059 XXXX 1      hop     H   0.400
H41     21.211348293   31.757171335   35.653347387 XXXX 1      hop     H   0.400
H42     19.419748778   27.902383185   35.354309224 XXXX 1      hop     H   0.400
H43     22.006133702   17.991041714   35.901596230 XXXX 1      hop     H   0.400
H44     20.812934797   12.190550929   35.904070270 XXXX 1      hop     H   0.400
H45     22.035456496   31.132130980   32.614193887 XXXX 1      hop     H   0.400
H46     20.497675135   29.285428286   32.311709636 XXXX 1      hop     H   0.400
H47     22.033546517   18.366654430   32.250046600 XXXX 1      hop     H   0.400
H48     21.166478308   11.027515527   32.485538863 XXXX 1      hop     H   0.400
H49     26.334285814   30.438945804   36.133521944 XXXX 1      hop     H   0.400
H50     24.730319019   32.534283202   34.030382103 XXXX 1      hop     H   0.400
H51     25.217885112   25.831293616   32.712973816 XXXX 1      hop     H   0.400
H52     28.114727262   24.016951027   34.128497266 XXXX 1      hop     H   0.400
H53     27.543795941   17.753777018   34.400881482 XXXX 1      hop     H   0.400
H54     26.902687571   13.896939498   34.545524600 XXXX 1      hop     H   0.400
H55     28.323965936   11.235629502   35.127597862 XXXX 1      hop     H   0.400
H56     28.194973323   11.990212841   31.600207969 XXXX 1      hop     H   0.400
H57     30.242194798   32.150966064   35.712200681 XXXX 1      hop     H   0.400
H58     30.542061279   25.215529904   32.282144336 XXXX 1      hop     H   0.400
H59     27.982643539   21.373224564   32.161142154 XXXX 1      hop     H   0.400
H60     31.141717453   16.756243745   36.753443622 XXXX 1      hop     H   0.400
H61     29.518170337   14.643705477   34.669670310 XXXX 1      hop     H   0.400
H62     29.260323003   26.584689112   35.339146792 XXXX 1      hop     H   0.400
H63     28.354330079   19.708690395   35.481145433 XXXX 1      hop     H   0.400
H64     31.299323091   31.593486578   32.631270842 XXXX 1      hop     H   0.400
H65     34.531707167   32.729725777   33.018829034 XXXX 1      hop     H   0.400
H66     36.320862525   31.095759244   35.726915537 XXXX 1      hop     H   0.400
H67     39.193081023   23.332484460   32.587856167 XXXX 1      hop     H   0.400
H68     34.944188171   18.084185612   36.616463752 XXXX 1      hop     H   0.400
H69     37.552871918   25.162321603   30.905356845 XXXX 1      hop     H   0.400
H70     36.079763113   15.820646756   34.379598876 XXXX 1      hop     H   0.400
H71     37.215647892    7.579219135   32.202263266 XXXX 1      hop     H   0.400
H72     37.909078736    9.595641214   34.314802497 XXXX 1      hop     H   0.400
end
O1      13.342651747    6.667958366   33.887188458 XXXX 1      oap1    O  -0.600
O2      22.608909055    5.021105662   35.163225257 XXXX 1      oap1    O  -0.600
O3      28.778448133    5.239749658   34.000136209 XXXX 1      oap1    O  -0.600
O4      12.716212904    4.502081167   31.113374579 XXXX 1      oap1    O  -0.800
O5      21.813334541    4.028055985   31.184561046 XXXX 1      oap1    O  -0.800
O6      31.040584491    4.095986129   31.109638414 XXXX 1      oap1    O  -0.800
O7      16.427237511    4.092732062   33.667111804 XXXX 1      oap1    O  -0.600
O8      26.097880062    3.883918490   33.465056090 XXXX 1      oap1    O  -0.600
O9      35.462131125    1.700731261   33.212545233 XXXX 1      oap1    O  -0.600
O10     12.144828470    2.052730166   30.935590163 XXXX 1      oap1    O  -0.800
O11     21.836430287    1.456695664   31.200537766 XXXX 1      oap1    O  -0.800
O12     31.262344529    1.555739941   31.152027440 XXXX 1      oap1    O  -0.800
O13     17.393248441    2.122263528   32.428043435 XXXX 1      oap1    O  -0.600
O14     26.351284350    1.555792075   32.404481323 XXXX 1      oap1    O  -0.600
O15     33.681819949    3.138132619   34.134027758 XXXX 1      oap1    O  -0.600
O16     12.367720242    8.992476817   33.774388308 XXXX 1      oap1    O  -0.600
O17     22.480759523    2.726135331   34.183006390 XXXX 1      oap1    O  -0.600
O18     30.703970828    3.834111159   33.399776849 XXXX 1      oap1    O  -0.650
Ca1     14.688882929    8.903650323   32.808198829 XXXX 1      ca+h    Ca  1.500
Ca2     32.890287218    7.856417157   32.807221151 XXXX 1      ca+h    Ca  1.500
Ca3     14.235264401    4.702174484   32.904658139 XXXX 1      ca+h    Ca  1.500
Ca4     23.592593237    4.669048377   32.924082198 XXXX 1      ca+h    Ca  1.500
Ca5     27.355912468    5.502038704   32.233782193 XXXX 1      ca+h    Ca  1.500
P1      12.061929558    7.497927313   33.934721736 XXXX 1      pap     P   1.000
P2      21.913223229    3.639243577   35.350181755 XXXX 1      pap     P   1.000
P3      30.323260498    5.162255500   34.045213372 XXXX 1      pap     P   1.000
O19     11.432530161    7.332120914   35.311523814 XXXX 1      oap1    O  -0.650
O20     20.451690513    3.846705799   35.154166260 XXXX 1      oap1    O  -0.650
O21     30.959469079    5.300150070   35.422808406 XXXX 1      oap1    O  -0.650
O22     11.048611895    7.037694643   32.890938295 XXXX 1      oap1    O  -0.650
O23     22.301909673    3.123357998   36.771640911 XXXX 1      oap1    O  -0.650
O24     30.977728824    6.288233131   33.126381099 XXXX 1      oap1    O  -0.600
P4      13.226494064    3.111931050   30.711044781 XXXX 1      pap     P   1.000
P5      22.483622953    2.770037133   30.706282948 XXXX 1      pap     P   1.000
P6      31.921647305    2.871604890   30.588921922 XXXX 1      pap     P   1.000
O25     14.533817457    2.851364507   31.490521925 XXXX 1      oap1    O  -0.800
O26     23.927093183    2.894187957   31.209488737 XXXX 1      oap1    O  -0.800
O27     33.405800549    2.784885809   31.041265379 XXXX 1      oap1    O  -0.800
O28     13.586219464    3.010174659   29.184753612 XXXX 1      oap1    O  -0.800
O29     22.479872916    2.726990044   29.185409478 XXXX 1      oap1    O  -0.800
O30     31.937469437    2.889389662   29.026465841 XXXX 1      oap1    O  -0.800
Ca6     16.525866165    2.840443926   30.226541642 XXXX 1      ca+h    Ca  1.500
Ca7     26.174937552    2.718376740   30.153936588 XXXX 1      ca+h    Ca  1.500
Ca8     35.761165681    2.979978250   30.282318299 XXXX 1      ca+h    Ca  1.500
P7      17.699987840    3.222410130   33.495766473 XXXX 1      pap     P   1.000
P8      26.434871017    2.415211541   33.658575662 XXXX 1      pap     P   1.000
P9      35.162126478    3.122551223   33.742350419 XXXX 1      pap     P   1.000
O31     18.100154012    2.652676056   34.843134628 XXXX 1      oap1    O  -0.650
O32     25.400376972    1.842367721   34.675258297 XXXX 1      oap1    O  -0.650
O33     35.275421110    4.098972990   32.544692903 XXXX 1      oap1    O  -0.650
O34     18.833705863    4.115360077   32.883813853 XXXX 1      oap1    O  -0.650
O35     27.866403489    2.332808738   34.250949123 XXXX 1      oap1    O  -0.650
O36     36.092872901    3.503793676   34.926436253 XXXX 1      oap1    O  -0.650
O37      9.510353329    4.820246670   30.463979820 XXXX 1      oap2    O  -1.100
O38     18.811952725    8.041143023   30.106105053 XXXX 1      oap2    O  -1.100
O39     28.289597614    3.672123413   30.711094778 XXXX 1      oap2    O  -1.100
O40      9.611560333    1.259668309   30.207486223 XXXX 1      oap2    O  -1.100
O41     18.597832906    4.211182805   30.476932206 XXXX 1      oap2    O  -1.100
O42     28.438954708    0.385809007   30.426392152 XXXX 1      oap2    O  -1.100
H1      10.008628372    4.425341474   31.186250199 XXXX 1      hop     H   0.200
H2      19.064763488    8.480109341   30.864718894 XXXX 1      hop     H   0.200
H3      28.978700603    3.333562978   31.353058457 XXXX 1      hop     H   0.200
H4       9.485789763    0.937236045   31.100480307 XXXX 1      hop     H   0.200
H5      18.140509385    4.979873373   30.757134699 XXXX 1      hop     H   0.200
H6      28.840172163    1.190727970   30.792502019 XXXX 1      hop     H   0.200
H7      11.227045759    8.174311456   35.686819118 XXXX 1      hop     H   0.400
H8      10.169221791    7.270990416   33.210141884 XXXX 1      hop     H   0.400
H9      18.974957910    2.879468197   35.124070704 XXXX 1      hop     H   0.400
H10     18.800852752    4.125893268   31.855124629 XXXX 1      hop     H   0.400
H11     20.226304823    4.721676461   35.291883403 XXXX 1      hop     H   0.400
H12     21.796860392    2.382272439   37.019014354 XXXX 1      hop     H   0.400
H13     25.885852017    1.872454442   35.453738092 XXXX 1      hop     H   0.400
H14     28.295610767    3.128777674   33.961174016 XXXX 1      hop     H   0.400
H15     31.586480437    4.601303124   35.468994300 XXXX 1      hop     H   0.400
H16     30.954614449    4.010039919   32.508106348 XXXX 1      hop     H   0.400
H17     36.497715759    4.285388091   34.671425677 XXXX 1      hop     H   0.400
H18     34.503102222    4.651304712   32.505990375 XXXX 1      hop     H   0.400
end
O1      24.391955298   34.882082400    8.273283238 XXXX 1      oap1    O  -0.800
O2      24.463188118   27.745590704    8.246870068 XXXX 1      oap1    O  -0.800
O3      24.182639876   21.094300148    8.994507589 XXXX 1      oap1    O  -0.800
O4      24.369785155   14.328129379    8.666409305 XXXX 1      oap1    O  -0.800
O5      19.613092108   34.921114701   17.093156787 XXXX 1      oap1    O  -0.800
O6      19.570891494   27.952279554   17.054508673 XXXX 1      oap1    O  -0.800
O7      19.515297801   21.366331824   16.952011517 XXXX 1      oap1    O  -0.800
O8      19.484130266   14.236973996   16.787828740 XXXX 1      oap1    O  -0.800
O9      15.076655139   35.122981472   25.515000229 XXXX 1      oap1    O  -0.800
O10     15.031713748   28.271414873   25.237982587 XXXX 1      oap1    O  -0.800
O11     14.847555288   21.288765219   25.122096155 XXXX 1      oap1    O  -0.800
O12     15.017280462   14.468334035   25.106176530 XXXX 1      oap1    O  -0.800
O13     33.818560717   34.964943893    8.462415409 XXXX 1      oap1    O  -0.800
O14     33.859639338   28.042733558    8.685642030 XXXX 1      oap1    O  -0.800
O15     33.785059042   20.976681324    8.443506508 XXXX 1      oap1    O  -0.800
O16     33.829179299   14.297298333    9.142672314 XXXX 1      oap1    O  -0.800
O17     28.956767753   34.959953017   17.108839831 XXXX 1      oap1    O  -0.800
O18     29.031945964   28.156380504   16.941780704 XXXX 1      oap1    O  -0.800
O19     29.082632280   21.010514182   16.690564943 XXXX 1      oap1    O  -0.800
O20     29.074586168   14.224513079   16.848635005 XXXX 1      oap1    O  -0.800
O21     24.395387442   34.907903634   25.317828632 XXXX 1      oap1    O  -0.800
O22     24.386726492   28.095996783   25.272166433 XXXX 1      oap1    O  -0.800
O23     24.251868306   21.221561905   25.322365751 XXXX 1      oap1    O  -0.800
O24     24.386161927   14.398859296   25.213235409 XXXX 1      oap1    O  -0.800
O25     33.790643217   34.855566061   25.266874588 XXXX 1      oap1    O  -0.800
O26     33.703916822   28.034733140   25.036706444 XXXX 1      oap1    O  -0.800
O27     33.945646386   21.223256192   25.139520246 XXXX 1      oap1    O  -0.800
O28     33.682601863   14.296476721   24.929452095 XXXX 1      oap1    O  -0.800
O29     29.653314217   35.074939886    5.133165220 XXXX 1      oap1    O  -0.800
O30     29.845294414   27.998937768    5.110876941 XXXX 1      oap1    O  -0.800
O31     30.286909681   20.952560813    5.443667011 XXXX 1      oap1    O  -0.800
O32     30.157301090   14.022753969    5.075369412 XXXX 1      oap1    O  -0.800
O33     25.067221285   34.983679558   13.316027425 XXXX 1      oap1    O  -0.800
O34     25.155403098   28.089093831   13.466171167 XXXX 1      oap1    O  -0.800
O35     25.293947895   21.085290291   13.467093995 XXXX 1      oap1    O  -0.800
O36     25.759301311   14.098605452   13.848350894 XXXX 1      oap1    O  -0.800
O37     20.469739899   34.956165513   21.446450217 XXXX 1      oap1    O  -0.800
O38     20.627517119   28.006483948   21.564367522 XXXX 1      oap1    O  -0.800
O39     20.387298093   21.370716346   21.573694419 XXXX 1      oap1    O  -0.800
O40     20.834890729   14.432314631   21.705508646 XXXX 1      oap1    O  -0.800
O41     16.379648104   34.927333351   30.143263974 XXXX 1      oap1    O  -0.800
O42     16.163802688   27.939157707   29.950227069 XXXX 1      oap1    O  -0.800
O43     15.643012232   21.154563790   29.574900815 XXXX 1      oap1    O  -0.800
O44     16.200540907   14.297309129   29.593715103 XXXX 1      oap1    O  -0.800
O45     34.880849099   34.828528554   13.345285906 XXXX 1      oap1    O  -0.800
O46     34.691891042   27.998869748   13.322352883 XXXX 1      oap1    O  -0.800
O47     34.617440818   21.208160693   13.311944115 XXXX 1      oap1    O  -0.800
O48     34.898338134   14.375561505   13.513028889 XXXX 1      oap1    O  -0.800
O49     30.048619132   34.936420103   21.425731075 XXXX 1      oap1    O  -0.800
O50     30.345157797   27.920515437   21.528828835 XXXX 1      oap1    O  -0.800
O51     29.957760209   21.286724726   21.474760295 XXXX 1      oap1    O  -0.800
O52     30.104483864   14.386075032   21.619848211 XXXX 1      oap1    O  -0.800
O53     25.365997684   34.991904251   29.582128232 XXXX 1      oap1    O  -0.800
O54     25.541647103   27.968631753   29.765539612 XXXX 1      oap1    O  -0.800
O55     25.498987619   21.159603339   29.978506078 XXXX 1      oap1    O  -0.800
O56     25.348903119   14.384795561   29.813739004 XXXX 1      oap1    O  -0.800
O57     35.409564158   34.849971706   30.175763206 XXXX 1      oap1    O  -0.800
O58     34.816450476   28.174531424   29.561686108 XXXX 1      oap1    O  -0.800
O59     34.636257920   21.296482226   29.448023918 XXXX 1      oap1    O  -0.800
O60     34.798896930   14.421364419   29.499575929 XXXX 1      oap1    O  -0.800
O61     26.633442806   34.881278775    1.641360458 XXXX 1      oap1    O  -0.600
O62     24.180394282   29.330294597    3.181580089 XXXX 1      oap1    O  -0.600
O63     24.311123890   19.866993559    2.771661950 XXXX 1      oap1    O  -0.600
O64     24.977035628   13.613425707    3.743987981 XXXX 1      oap1    O  -0.600
O65     20.865785969   34.997906346   12.203042078 XXXX 1      oap1    O  -0.800
O66     21.001721278   28.109580969   12.050860566 XXXX 1      oap1    O  -0.800
O67     21.045731955   21.312078399   11.831860193 XXXX 1      oap1    O  -0.800
O68     20.942111406   14.460352855   11.981153790 XXXX 1      oap1    O  -0.800
O69     16.054801455   34.897346672   20.234329304 XXXX 1      oap1    O  -0.800
O70     16.143919580   27.982386551   20.341285975 XXXX 1      oap1    O  -0.800
O71     16.268468518   21.219733443   20.135895806 XXXX 1      oap1    O  -0.800
O72     16.313481902   14.398936632   20.029943269 XXXX 1      oap1    O  -0.800
O73     11.712311211   35.014750590   28.162521237 XXXX 1      oap1    O  -0.800
O74     11.497427415   28.025698881   28.329421196 XXXX 1      oap1    O  -0.800
O75     11.626317391   21.188331503   28.395931314 XXXX 1      oap1    O  -0.800
O76     11.650319400   14.493173344   28.182374179 XXXX 1      oap1    O  -0.800
O77     35.720178536   35.922627918    2.631858040 XXXX 1      oap1    O  -0.600
O78     33.488941703   31.065948440    2.219013414 XXXX 1      oap1    O  -0.600
O79     37.192733842   17.452571312    2.163702484 XXXX 1      oap1    O  -0.600
O80     36.349468395   13.351731104    2.490154590 XXXX 1      oap1    O  -0.600
O81     30.088639562   34.847166489   12.019743046 XXXX 1      oap1    O  -0.800
O82     30.463333566   28.016663480   11.671564745 XXXX 1      oap1    O  -0.800
O83     30.343175972   21.122255279   12.119187517 XXXX 1      oap1    O  -0.800
O84     30.387200036   14.323005861   11.923380395 XXXX 1      oap1    O  -0.800
O85     25.580449172   34.910795385   20.108097500 XXXX 1      oap1    O  -0.800
O86     25.686202002   28.154889019   20.037859272 XXXX 1      oap1    O  -0.800
O87     25.730195945   21.195336828   20.018194495 XXXX 1      oap1    O  -0.800
O88     25.779521544   14.470406137   20.153743656 XXXX 1      oap1    O  -0.800
O89     20.624700417   34.766435243   28.681232082 XXXX 1      oap1    O  -0.800
O90     21.124724779   28.087587910   28.000810972 XXXX 1      oap1    O  -0.800
O91     20.881734869   21.190649637   28.237055980 XXXX 1      oap1    O  -0.800
O92     20.830931541   14.215011543   28.546241198 XXXX 1      oap1    O  -0.800
O93     34.917108342   34.874391958   20.222304945 XXXX 1      oap1    O  -0.800
O94     35.053010940   28.064317909   20.122502566 XXXX 1      oap1    O  -0.800
O95     35.253959216   21.336885853   20.187296387 XXXX 1      oap1    O  -0.800
O96     34.724000041   14.270687664   20.270192669 XXXX 1      oap1    O  -0.800
O97     30.266248970   34.954968906   28.290050390 XXXX 1      oap1    O  -0.800
O98     30.300882751   28.100446866   28.295653668 XXXX 1      oap1    O  -0.800
O99     30.447649244   21.305510938   28.138388073 XXXX 1      oap1    O  -0.800
O100    30.334765254   14.342459005   28.467109808 XXXX 1      oap1    O  -0.800
O101    30.882768148   30.568724354    3.449980056 XXXX 1      oap1    O  -0.600
O102    35.202174211   25.362073474    3.944268155 XXXX 1      oap1    O  -0.650
O103    32.544056105   17.132981957    4.995692687 XXXX 1      oap1    O  -0.650
O104    29.706128162    9.673904288    2.058908405 XXXX 1      oap1    O  -0.600
O105    27.283789954   31.517998568   10.994265018 XXXX 1      oap1    O  -0.800
O106    27.461918897   24.518988211   11.608576070 XXXX 1      oap1    O  -0.800
O107    27.375503233   17.681700458   11.388407694 XXXX 1      oap1    O  -0.800
O108    27.459316015   10.828582707   11.376943743 XXXX 1      oap1    O  -0.800
O109    22.690647576   31.425979699   19.748298252 XXXX 1      oap1    O  -0.800
O110    22.692283062   24.680847364   19.232696943 XXXX 1      oap1    O  -0.800
O111    22.555798166   17.801874133   19.440808288 XXXX 1      oap1    O  -0.800
O112    22.698606926   10.881030499   19.380214543 XXXX 1      oap1    O  -0.800
O113    17.880996131   31.232361340   28.276534928 XXXX 1      oap1    O  -0.800
O114    18.026204741   24.677266993   27.548051417 XXXX 1      oap1    O  -0.800
O115    18.108767625   17.838684802   27.697404940 XXXX 1      oap1    O  -0.800
O116    18.154764736   10.867928748   27.597749856 XXXX 1      oap1    O  -0.800
O117    36.691310897   31.480782827   11.073327476 XXXX 1      oap1    O  -0.800
O118    36.949378385   24.488089266   11.072899653 XXXX 1      oap1    O  -0.800
O119    37.014886995   17.628406388   11.062982875 XXXX 1      oap1    O  -0.800
O120    36.785426530   10.666248993   11.709003680 XXXX 1      oap1    O  -0.800
O121    32.024107254   31.367312854   19.821501961 XXXX 1      oap1    O  -0.800
O122    32.113801676   24.694739860   19.260140057 XXXX 1      oap1    O  -0.800
O123    32.253837414   17.805465078   19.473305499 XXXX 1      oap1    O  -0.800
O124    32.306067274   10.842900008   19.472624282 XXXX 1      oap1    O  -0.800
O125    27.426605827   31.453360339   27.930093150 XXXX 1      oap1    O  -0.800
O126    27.528828175   24.527941218   27.466304604 XXXX 1      oap1    O  -0.800
O127    27.512660881   17.890333169   27.456449807 XXXX 1      oap1    O  -0.800
O128    27.426157621   11.029822623   27.281496943 XXXX 1      oap1    O  -0.800
O129    36.984419804   31.608036078   27.811875861 XXXX 1      oap1    O  -0.800
O130    36.709994387   24.771869215   27.708336162 XXXX 1      oap1    O  -0.800
O131    36.875306301   17.765382724   27.677967206 XXXX 1      oap1    O  -0.800
O132    36.832652169   10.869279109   27.580657967 XXXX 1      oap1    O  -0.800
O133    26.096039457   31.252285951    6.845681626 XXXX 1      oap1    O  -0.800
O134    26.319843241   24.343699356    6.718933906 XXXX 1      oap1    O  -0.800
O135    26.232407227   17.648267734    6.617001191 XXXX 1      oap1    O  -0.800
O136    26.419978726   10.730486210    6.902619016 XXXX 1      oap1    O  -0.800
O137    21.757143125   31.474330059   14.951048923 XXXX 1      oap1    O  -0.800
O138    21.522989814   24.540909110   14.771367543 XXXX 1      oap1    O  -0.800
O139    21.833064174   17.801032112   14.978838768 XXXX 1      oap1    O  -0.800
O140    21.793859957   10.929237361   15.001786317 XXXX 1      oap1    O  -0.800
O141    16.951957362   31.586503548   23.075958177 XXXX 1      oap1    O  -0.800
O142    17.038612356   24.767586985   23.046917707 XXXX 1      oap1    O  -0.800
O143    17.121130798   17.773518652   23.215096490 XXXX 1      oap1    O  -0.800
O144    17.212836945   11.015012986   22.916328883 XXXX 1      oap1    O  -0.800
O145    35.754981068   31.443645824    6.327214476 XXXX 1      oap1    O  -0.800
O146    35.797499405   24.408487177    6.718405233 XXXX 1      oap1    O  -0.800
O147    35.622154464   17.682994636    6.767771262 XXXX 1      oap1    O  -0.800
O148    35.693481742   10.943239465    6.561989141 XXXX 1      oap1    O  -0.800
O149    31.059411424   31.442520999   14.830320359 XXXX 1      oap1    O  -0.800
O150    31.167313051   24.641289510   14.912809552 XXXX 1      oap1    O  -0.800
O151    30.845977641   17.578539771   14.449897526 XXXX 1      oap1    O  -0.800
O152    31.267655944   11.011270078   14.650730716 XXXX 1      oap1    O  -0.800
O153    26.478390363   31.568566779   22.974415326 XXXX 1      oap1    O  -0.800
O154    26.520115992   24.585572666   23.031822485 XXXX 1      oap1    O  -0.800
O155    26.549115540   17.964960539   23.051138307 XXXX 1      oap1    O  -0.800
O156    26.440869426   10.949598144   23.111361685 XXXX 1      oap1    O  -0.800
O157    35.592223139   31.446439064   22.743619375 XXXX 1      oap1    O  -0.800
O158    35.812883612   24.760299200   22.946633606 XXXX 1      oap1    O  -0.800
O159    35.753912265   17.857456958   22.893478906 XXXX 1      oap1    O  -0.800
O160    35.713344426   10.859859182   22.910910272 XXXX 1      oap1    O  -0.800
O161    30.881718534   31.456132633    8.069804796 XXXX 1      oap1    O  -0.800
O162    30.991320532   24.494370868    8.147430423 XXXX 1      oap1    O  -0.800
O163    31.391562989   17.572787555    7.949757350 XXXX 1      oap1    O  -0.800
O164    30.796780722   10.960803022    8.046531576 XXXX 1      oap1    O  -0.800
O165    26.099140183   31.503030042   16.281028600 XXXX 1      oap1    O  -0.800
O166    26.368076403   24.470996549   16.137445417 XXXX 1      oap1    O  -0.800
O167    26.370931221   17.604763373   16.180958543 XXXX 1      oap1    O  -0.800
O168    26.572725828   10.542131991   16.224193164 XXXX 1      oap1    O  -0.800
O169    21.497340474   31.494863300   24.579457882 XXXX 1      oap1    O  -0.800
O170    21.351396222   24.641648549   24.381079076 XXXX 1      oap1    O  -0.800
O171    21.489686109   17.725634655   24.300697320 XXXX 1      oap1    O  -0.800
O172    21.609993163   10.978610640   24.514713275 XXXX 1      oap1    O  -0.800
O173    35.523014533   31.578351895   16.111224274 XXXX 1      oap1    O  -0.800
O174    35.590160586   24.712944435   16.253869013 XXXX 1      oap1    O  -0.800
O175    35.858833697   17.832407749   16.068938326 XXXX 1      oap1    O  -0.800
O176    35.665126645   10.789648746   16.152755267 XXXX 1      oap1    O  -0.800
O177    30.869659676   31.484068413   24.424516446 XXXX 1      oap1    O  -0.800
O178    30.779956640   24.773473896   24.221096363 XXXX 1      oap1    O  -0.800
O179    31.075282221   17.816048589   24.294324541 XXXX 1      oap1    O  -0.800
O180    30.819804536   10.914078263   24.441511178 XXXX 1      oap1    O  -0.800
O181    29.231411070   29.133472121    2.118585025 XXXX 1      oap1    O  -0.600
O182    33.491632229   25.824835646    2.148788113 XXXX 1      oap1    O  -0.600
O183    33.015849341   15.669714725    3.006514098 XXXX 1      oap1    O  -0.600
O184    31.782423884    9.049825848    3.520907987 XXXX 1      oap1    O  -0.600
O185    27.429067785   29.111984042   11.580291546 XXXX 1      oap1    O  -0.800
O186    27.435504383   22.086023635   11.464651608 XXXX 1      oap1    O  -0.800
O187    27.534579455   15.224157356   11.048898786 XXXX 1      oap1    O  -0.800
O188    27.483589803    8.357547791   11.354615210 XXXX 1      oap1    O  -0.800
O189    22.580779854   28.947774029   19.566275322 XXXX 1      oap1    O  -0.800
O190    22.809950200   22.292657158   19.337528473 XXXX 1      oap1    O  -0.800
O191    22.893304602   15.352918801   19.470590013 XXXX 1      oap1    O  -0.800
O192    22.821986479    8.399458540   19.629096097 XXXX 1      oap1    O  -0.800
O193    17.925095796   28.933103130   27.390618953 XXXX 1      oap1    O  -0.800
O194    17.952406715   22.295389687   27.830751014 XXXX 1      oap1    O  -0.800
O195    17.940491280   15.370927014   27.851726311 XXXX 1      oap1    O  -0.800
O196    17.976060555    8.370769320   27.481275150 XXXX 1      oap1    O  -0.800
O197    36.877875255   29.013085423   11.372060423 XXXX 1      oap1    O  -0.800
O198    36.927556426   22.048796080   11.246531483 XXXX 1      oap1    O  -0.800
O199    36.868910767   15.154745835   11.154908073 XXXX 1      oap1    O  -0.800
O200    36.700599445    8.257288147   11.112523154 XXXX 1      oap1    O  -0.800
O201    32.251010582   29.019037725   19.341802646 XXXX 1      oap1    O  -0.800
O202    32.286046853   22.298139999   19.612836862 XXXX 1      oap1    O  -0.800
O203    32.224373784   15.315323808   19.280553941 XXXX 1      oap1    O  -0.800
O204    31.993351131    8.423025738   19.204051880 XXXX 1      oap1    O  -0.800
O205    27.207408970   29.074825245   27.748115855 XXXX 1      oap1    O  -0.800
O206    27.405037750   22.132312566   27.592270790 XXXX 1      oap1    O  -0.800
O207    27.415388952   15.408595047   27.757725607 XXXX 1      oap1    O  -0.800
O208    27.489772561    8.782990412   28.184208541 XXXX 1      oap1    O  -0.800
O209    36.974650659   29.152323009   27.483829343 XXXX 1      oap1    O  -0.800
O210    36.794346529   22.379419077   27.787316538 XXXX 1      oap1    O  -0.800
O211    36.847105781   15.342314834   27.701390444 XXXX 1      oap1    O  -0.800
O212    36.797408808    8.545565326   28.087746181 XXXX 1      oap1    O  -0.800
O213    26.412032310   28.713978678    6.464679633 XXXX 1      oap1    O  -0.800
O214    26.418086853   21.953388394    6.982293474 XXXX 1      oap1    O  -0.800
O215    26.623306871   15.129006884    6.697265424 XXXX 1      oap1    O  -0.800
O216    26.400958797    8.299914664    6.729479965 XXXX 1      oap1    O  -0.800
O217    21.482715457   29.092584738   14.717392019 XXXX 1      oap1    O  -0.800
O218    21.642596561   22.133915426   14.755478032 XXXX 1      oap1    O  -0.800
O219    21.328494557   15.387444450   14.728921905 XXXX 1      oap1    O  -0.800
O220    21.633242630    8.524619133   14.830381658 XXXX 1      oap1    O  -0.800
O221    16.959541784   29.149124509   23.143589386 XXXX 1      oap1    O  -0.800
O222    16.967149990   22.286756690   23.031981759 XXXX 1      oap1    O  -0.800
O223    17.161058366   15.339638528   23.033878633 XXXX 1      oap1    O  -0.800
O224    16.987551367    8.565315932   23.061069528 XXXX 1      oap1    O  -0.800
O225    35.986724024   28.927461777    6.484527112 XXXX 1      oap1    O  -0.800
O226    35.901299219   22.002949405    6.555216101 XXXX 1      oap1    O  -0.800
O227    35.789995685   15.253340812    6.686054498 XXXX 1      oap1    O  -0.800
O228    35.744129513    8.449098349    6.882501284 XXXX 1      oap1    O  -0.800
O229    30.859149192   28.948963668   14.630781738 XXXX 1      oap1    O  -0.800
O230    31.166418954   22.214191070   14.977819313 XXXX 1      oap1    O  -0.800
O231    31.156752869   15.135137819   14.848241280 XXXX 1      oap1    O  -0.800
O232    31.022475429    8.484672242   14.904017963 XXXX 1      oap1    O  -0.800
O233    26.419529701   29.024601699   23.088818060 XXXX 1      oap1    O  -0.800
O234    26.412979661   22.137933048   22.963872555 XXXX 1      oap1    O  -0.800
O235    26.319544399   15.529011121   22.895941018 XXXX 1      oap1    O  -0.800
O236    26.470217850    8.447177238   23.133901187 XXXX 1      oap1    O  -0.800
O237    35.936429012   29.020407699   22.972065540 XXXX 1      oap1    O  -0.800
O238    36.025280192   22.217948981   23.011722269 XXXX 1      oap1    O  -0.800
O239    35.962501764   15.391556803   23.090823870 XXXX 1      oap1    O  -0.800
O240    36.083356881    8.354583601   22.980817490 XXXX 1      oap1    O  -0.800
O241    30.854006346   28.897238355    7.958198250 XXXX 1      oap1    O  -0.800
O242    31.033782995   22.087098167    7.953182335 XXXX 1      oap1    O  -0.800
O243    30.627475485   15.266039907    8.277890937 XXXX 1      oap1    O  -0.800
O244    31.164763714    8.550520194    7.982007467 XXXX 1      oap1    O  -0.800
O245    26.105886663   28.958742866   16.392391244 XXXX 1      oap1    O  -0.800
O246    25.996114997   22.031878461   16.347584613 XXXX 1      oap1    O  -0.800
O247    25.978911395   15.207034191   16.429402109 XXXX 1      oap1    O  -0.800
O248    26.077039536    8.164310384   16.625923965 XXXX 1      oap1    O  -0.800
O249    21.378903478   29.047736228   24.454903498 XXXX 1      oap1    O  -0.800
O250    21.496801782   22.178040527   24.511070871 XXXX 1      oap1    O  -0.800
O251    21.679727616   15.335067877   24.280430688 XXXX 1      oap1    O  -0.800
O252    21.656171858    8.527349062   24.324768642 XXXX 1      oap1    O  -0.800
O253    35.551833186   29.097887446   16.152604385 XXXX 1      oap1    O  -0.800
O254    35.660857175   22.215398778   16.206368150 XXXX 1      oap1    O  -0.800
O255    35.293335499   15.391338991   16.204390670 XXXX 1      oap1    O  -0.800
O256    35.628234067    8.347109219   16.159309224 XXXX 1      oap1    O  -0.800
O257    30.872302452   29.049675198   24.452466726 XXXX 1      oap1    O  -0.800
O258    30.865976648   22.239951430   24.356144452 XXXX 1      oap1    O  -0.800
O259    30.881691114   15.339673536   24.407163238 XXXX 1      oap1    O  -0.800
O260    30.704122840    8.446275235   24.456449946 XXXX 1      oap1    O  -0.800
O261    24.291313230   32.450494936    8.959211876 XXXX 1      oap1    O  -0.800
O262    24.543939160   25.351770094    9.012513776 XXXX 1      oap1    O  -0.800
O263    24.358567504   18.725711076    8.758906176 XXXX 1      oap1    O  -0.800
O264    24.320162370   11.977207564    8.885152921 XXXX 1      oap1    O  -0.800
O265    19.505110251   32.542057544   16.897427998 XXXX 1      oap1    O  -0.800
O266    19.537104057   25.565238517   16.970635073 XXXX 1      oap1    O  -0.800
O267    19.451047968   18.829780583   16.976067028 XXXX 1      oap1    O  -0.800
O268    19.751755397   11.807664728   17.114767737 XXXX 1      oap1    O  -0.800
O269    15.054402781   32.756700241   24.762754455 XXXX 1      oap1    O  -0.800
O270    14.974191592   25.827790407   24.634564259 XXXX 1      oap1    O  -0.800
O271    14.793748206   18.890745424   24.911919082 XXXX 1      oap1    O  -0.800
O272    14.929640943   12.061730752   25.067645311 XXXX 1      oap1    O  -0.800
O273    33.900389773   32.475542451    8.374424201 XXXX 1      oap1    O  -0.800
O274    33.820149642   25.610807109    8.486796935 XXXX 1      oap1    O  -0.800
O275    33.706083113   18.531527702    8.913264979 XXXX 1      oap1    O  -0.800
O276    33.732699544   11.975225674    8.535624760 XXXX 1      oap1    O  -0.800
O277    29.044711673   32.512746633   16.740157322 XXXX 1      oap1    O  -0.800
O278    29.223275275   25.646921767   16.622886890 XXXX 1      oap1    O  -0.800
O279    29.296996525   18.696374888   16.999149543 XXXX 1      oap1    O  -0.800
O280    29.082391890   11.782296532   17.193713799 XXXX 1      oap1    O  -0.800
O281    24.252672309   32.455398112   25.423046704 XXXX 1      oap1    O  -0.800
O282    24.495876705   25.696467428   24.964849058 XXXX 1      oap1    O  -0.800
O283    24.377603003   18.777469041   25.121940966 XXXX 1      oap1    O  -0.800
O284    24.407385060   11.933530598   25.131419243 XXXX 1      oap1    O  -0.800
O285    33.747763149   32.302959681   25.152361081 XXXX 1      oap1    O  -0.800
O286    33.857640192   25.612787796   25.332530210 XXXX 1      oap1    O  -0.800
O287    33.682753737   18.827854299   24.917269014 XXXX 1      oap1    O  -0.800
O288    33.606301704   11.860956392   25.147598452 XXXX 1      oap1    O  -0.800
O289    30.346515938   32.638788031    5.380598797 XXXX 1      oap1    O  -0.800
O290    30.066728833   25.491811567    5.083620216 XXXX 1      oap1    O  -0.800
O291    29.989607118   18.436145232    5.549432991 XXXX 1      oap1    O  -0.800
O292    29.745468798   11.546946623    5.225138913 XXXX 1      oap1    O  -0.800
O293    25.460952588   32.515807974   13.503197794 XXXX 1      oap1    O  -0.800
O294    25.588926897   25.585175271   13.459354595 XXXX 1      oap1    O  -0.800
O295    25.160026803   18.568273623   13.393729203 XXXX 1      oap1    O  -0.800
O296    25.341439890   11.684799723   13.328050947 XXXX 1      oap1    O  -0.800
O297    20.511949838   32.454573557   21.549417400 XXXX 1      oap1    O  -0.800
O298    20.573046097   25.609787209   21.539654167 XXXX 1      oap1    O  -0.800
O299    20.727424937   18.955444225   21.451922250 XXXX 1      oap1    O  -0.800
O300    20.828964676   11.954904644   21.494435625 XXXX 1      oap1    O  -0.800
O301    15.919518066   32.538798554   29.622322852 XXXX 1      oap1    O  -0.800
O302    15.938990798   25.499107599   29.826907525 XXXX 1      oap1    O  -0.800
O303    15.925613879   18.729882220   29.502386199 XXXX 1      oap1    O  -0.800
O304    16.110020560   11.839798641   29.421388778 XXXX 1      oap1    O  -0.800
O305    34.575864355   32.345623120   13.213441005 XXXX 1      oap1    O  -0.800
O306    34.816894615   25.603798442   13.348040067 XXXX 1      oap1    O  -0.800
O307    34.961824875   18.834373250   13.441393226 XXXX 1      oap1    O  -0.800
O308    34.926462682   11.838844239   13.440931959 XXXX 1      oap1    O  -0.800
O309    30.009450473   32.474426342   21.487377828 XXXX 1      oap1    O  -0.800
O310    29.947246240   25.493068858   21.431478721 XXXX 1      oap1    O  -0.800
O311    30.205134078   18.878549277   21.543624767 XXXX 1      oap1    O  -0.800
O312    30.121520112   11.859824869   21.740862053 XXXX 1      oap1    O  -0.800
O313    25.724964603   32.599316081   30.010928688 XXXX 1      oap1    O  -0.800
O314    25.361155405   25.436403074   29.537330375 XXXX 1      oap1    O  -0.800
O315    25.351611943   18.722289828   29.987027960 XXXX 1      oap1    O  -0.800
O316    25.224117864   11.836499592   30.141530912 XXXX 1      oap1    O  -0.800
O317    34.795433626   32.502542834   29.739652038 XXXX 1      oap1    O  -0.800
O318    34.880112114   25.701429991   30.006189957 XXXX 1      oap1    O  -0.800
O319    34.980013308   18.851401850   29.566017236 XXXX 1      oap1    O  -0.800
O320    34.919250665   12.037820525   29.813967811 XXXX 1      oap1    O  -0.800
O321    25.381890249   33.799991564    3.557689300 XXXX 1      oap1    O  -0.600
O322    25.559523295   27.298876188    3.415396994 XXXX 1      oap1    O  -0.600
O323    26.871655903   19.682905694    2.593460927 XXXX 1      oap1    O  -0.600
O324    25.903084137   11.458871826    2.731759549 XXXX 1      oap1    O  -0.600
O325    20.922819997   32.487710629   12.076805943 XXXX 1      oap1    O  -0.800
O326    21.103010673   25.629065942   12.016328553 XXXX 1      oap1    O  -0.800
O327    20.562246057   18.943161130   12.121382039 XXXX 1      oap1    O  -0.800
O328    20.975559090   12.044178484   12.113461471 XXXX 1      oap1    O  -0.800
O329    16.213202794   32.407024048   20.209827650 XXXX 1      oap1    O  -0.800
O330    16.141831330   25.469000743   20.223280738 XXXX 1      oap1    O  -0.800
O331    16.165608170   18.796711254   20.089643839 XXXX 1      oap1    O  -0.800
O332    16.066511695   11.908574932   20.149212641 XXXX 1      oap1    O  -0.800
O333    11.605101913   32.543314694   28.361274023 XXXX 1      oap1    O  -0.800
O334    11.544516411   25.526806221   28.348676434 XXXX 1      oap1    O  -0.800
O335    11.657725350   18.766308388   28.401712926 XXXX 1      oap1    O  -0.800
O336    11.364878044   11.993131054   28.236414562 XXXX 1      oap1    O  -0.800
O337    36.928072081   34.006919216    1.808437756 XXXX 1      oap1    O  -0.600
O338    35.893004690   30.047148177    2.414261588 XXXX 1      oap1    O  -0.600
O339    36.964912693   20.003408044    1.977332680 XXXX 1      oap1    O  -0.600
O340    34.762975454   11.496873461    3.252068625 XXXX 1      oap1    O  -0.600
O341    30.496495442   32.386557314   11.675824565 XXXX 1      oap1    O  -0.800
O342    30.427155888   25.515938862   11.843354160 XXXX 1      oap1    O  -0.800
O343    30.296589913   18.780666238   12.013957878 XXXX 1      oap1    O  -0.800
O344    30.393578374   11.843060071   11.945445869 XXXX 1      oap1    O  -0.800
O345    25.684257146   32.522585532   20.226705297 XXXX 1      oap1    O  -0.800
O346    25.520999141   25.662399404   20.297989974 XXXX 1      oap1    O  -0.800
O347    25.577814791   18.779956587   20.198804482 XXXX 1      oap1    O  -0.800
O348    25.781669755   11.883577778   20.165559093 XXXX 1      oap1    O  -0.800
O349    20.850083733   32.326907244   28.477193259 XXXX 1      oap1    O  -0.800
O350    20.849251293   25.638689966   28.410729088 XXXX 1      oap1    O  -0.800
O351    20.859517937   18.713923912   28.260459842 XXXX 1      oap1    O  -0.800
O352    21.074845060   11.824790272   28.188566211 XXXX 1      oap1    O  -0.800
O353    35.251353392   32.410493093   20.059171409 XXXX 1      oap1    O  -0.800
O354    35.335591568   25.590131391   20.024804832 XXXX 1      oap1    O  -0.800
O355    35.264917951   18.836679033   20.146423979 XXXX 1      oap1    O  -0.800
O356    35.054708988   11.781581366   20.195209015 XXXX 1      oap1    O  -0.800
O357    30.229595569   32.541958223   28.595853232 XXXX 1      oap1    O  -0.800
O358    30.514362155   25.613674014   28.166254255 XXXX 1      oap1    O  -0.800
O359    30.419397330   18.775623276   28.193155402 XXXX 1      oap1    O  -0.800
O360    30.325109470   11.899481448   28.233609400 XXXX 1      oap1    O  -0.800
Ca1     28.258954666   35.489827589    8.757214014 XXXX 1      ca+h    Ca  1.500
Ca2     28.271968272   28.445392851    8.497957788 XXXX 1      ca+h    Ca  1.500
Ca3     28.263545752   21.506222576    8.712806634 XXXX 1      ca+h    Ca  1.500
Ca4     28.214449314   14.736496028    8.641637038 XXXX 1      ca+h    Ca  1.500
Ca5     23.288828406   35.487704881   16.866000810 XXXX 1      ca+h    Ca  1.500
Ca6     23.426395590   28.524924219   17.061739881 XXXX 1      ca+h    Ca  1.500
Ca7     23.479768796   21.607919549   16.812754623 XXXX 1      ca+h    Ca  1.500
Ca8     23.677427563   14.697082139   16.884276928 XXXX 1      ca+h    Ca  1.500
Ca9     18.997213297   35.499921644   25.159567892 XXXX 1      ca+h    Ca  1.500
Ca10    18.960207617   28.676886450   25.173207270 XXXX 1      ca+h    Ca  1.500
Ca11    18.969468229   21.611221041   25.077368798 XXXX 1      ca+h    Ca  1.500
Ca12    18.828440549   14.840534509   24.924080864 XXXX 1      ca+h    Ca  1.500
Ca13    32.917071947   35.329831693   16.927439022 XXXX 1      ca+h    Ca  1.500
Ca14    33.057865805   28.590058299   16.927636794 XXXX 1      ca+h    Ca  1.500
Ca15    33.118039472   21.721720245   16.727364811 XXXX 1      ca+h    Ca  1.500
Ca16    33.073820934   14.873559482   16.815527084 XXXX 1      ca+h    Ca  1.500
Ca17    28.335319202   35.438024987   24.926149223 XXXX 1      ca+h    Ca  1.500
Ca18    28.296155016   28.621960565   25.066692030 XXXX 1      ca+h    Ca  1.500
Ca19    28.218472379   21.658251167   25.020758340 XXXX 1      ca+h    Ca  1.500
Ca20    28.360749088   14.874008845   25.046988901 XXXX 1      ca+h    Ca  1.500
Ca21    24.698619850   31.262856901    4.354918085 XXXX 1      ca+h    Ca  1.500
Ca22    28.558318040   18.190273842    3.607240512 XXXX 1      ca+h    Ca  1.500
Ca23    28.262852909   11.137989770    3.364167064 XXXX 1      ca+h    Ca  1.500
Ca24    23.471022377   32.004773723   11.461082879 XXXX 1      ca+h    Ca  1.500
Ca25    23.546050792   25.092584379   11.357271185 XXXX 1      ca+h    Ca  1.500
Ca26    23.773515638   18.153423236   11.452369933 XXXX 1      ca+h    Ca  1.500
Ca27    23.611250176   11.416081785   11.396794881 XXXX 1      ca+h    Ca  1.500
Ca28    18.681322490   31.955073183   19.732515265 XXXX 1      ca+h    Ca  1.500
Ca29    18.778322388   25.153904080   19.521890894 XXXX 1      ca+h    Ca  1.500
Ca30    18.804007102   18.378256285   19.531131520 XXXX 1      ca+h    Ca  1.500
Ca31    18.943191290   11.440349605   19.605803591 XXXX 1      ca+h    Ca  1.500
Ca32    14.117760462   32.038843597   27.843192135 XXXX 1      ca+h    Ca  1.500
Ca33    13.963447945   25.065011904   27.816801696 XXXX 1      ca+h    Ca  1.500
Ca34    13.964554827   18.292796604   27.839781913 XXXX 1      ca+h    Ca  1.500
Ca35    14.258149436   11.475270372   27.581575112 XXXX 1      ca+h    Ca  1.500
Ca36    32.939491959   31.877232285   11.397458678 XXXX 1      ca+h    Ca  1.500
Ca37    32.957100777   24.987397960   11.323403129 XXXX 1      ca+h    Ca  1.500
Ca38    32.843605042   18.167229756   11.231428501 XXXX 1      ca+h    Ca  1.500
Ca39    32.969052999   11.295823659   11.452195398 XXXX 1      ca+h    Ca  1.500
Ca40    28.247591096   32.005632552   19.605942186 XXXX 1      ca+h    Ca  1.500
Ca41    28.219144456   25.081450369   19.670974388 XXXX 1      ca+h    Ca  1.500
Ca42    28.195296824   18.386378234   19.537455066 XXXX 1      ca+h    Ca  1.500
Ca43    28.242255650   11.475954153   19.536230596 XXXX 1      ca+h    Ca  1.500
Ca44    23.269838541   31.957445672   27.782761978 XXXX 1      ca+h    Ca  1.500
Ca45    23.647588532   25.089130485   27.844325923 XXXX 1      ca+h    Ca  1.500
Ca46    23.614577593   18.271970943   27.761123223 XXXX 1      ca+h    Ca  1.500
Ca47    23.411115621   11.370346459   27.735804318 XXXX 1      ca+h    Ca  1.500
Ca48    33.119504226   32.028764027   27.861130783 XXXX 1      ca+h    Ca  1.500
Ca49    32.891002683   25.272905978   27.519757036 XXXX 1      ca+h    Ca  1.500
Ca50    32.839180433   18.255661342   27.837143571 XXXX 1      ca+h    Ca  1.500
Ca51    32.768937454   11.390981776   27.594467412 XXXX 1      ca+h    Ca  1.500
Ca52    27.633174947   28.386265781    3.684084127 XXXX 1      ca+h    Ca  1.500
Ca53    23.521818480   28.492219615   11.767069995 XXXX 1      ca+h    Ca  1.500
Ca54    23.533119814   21.674244168   11.391072075 XXXX 1      ca+h    Ca  1.500
Ca55    23.451333099   14.846753601   11.380385536 XXXX 1      ca+h    Ca  1.500
Ca56    23.453038198    7.940284858   11.468050059 XXXX 1      ca+h    Ca  1.500
Ca57    18.735220604   28.456529398   19.536234498 XXXX 1      ca+h    Ca  1.500
Ca58    18.775095658   21.758801606   19.572799957 XXXX 1      ca+h    Ca  1.500
Ca59    18.635403703   14.927035370   19.552732648 XXXX 1      ca+h    Ca  1.500
Ca60    18.947646278    7.920897529   19.571327808 XXXX 1      ca+h    Ca  1.500
Ca61    13.965462876   28.553866778   27.517969416 XXXX 1      ca+h    Ca  1.500
Ca62    14.069424122   21.746814331   27.746460202 XXXX 1      ca+h    Ca  1.500
Ca63    14.083990088   14.977081912   27.687357114 XXXX 1      ca+h    Ca  1.500
Ca64    14.325345278    8.013188723   27.600874271 XXXX 1      ca+h    Ca  1.500
Ca65    32.931134896   28.433160945   11.248165274 XXXX 1      ca+h    Ca  1.500
Ca66    32.854710863   21.591294572   11.531965762 XXXX 1      ca+h    Ca  1.500
Ca67    33.097572458   14.700126778   11.257006212 XXXX 1      ca+h    Ca  1.500
Ca68    32.870770655    7.826107150   11.231154849 XXXX 1      ca+h    Ca  1.500
Ca69    28.055043682   28.509683315   19.491963857 XXXX 1      ca+h    Ca  1.500
Ca70    28.206630970   21.660506184   19.539482451 XXXX 1      ca+h    Ca  1.500
Ca71    28.314064698   14.820190500   19.598376605 XXXX 1      ca+h    Ca  1.500
Ca72    28.285479349    7.972976950   19.592682860 XXXX 1      ca+h    Ca  1.500
Ca73    23.590013906   28.442860381   27.655586719 XXXX 1      ca+h    Ca  1.500
Ca74    23.471378529   21.741348186   27.528739268 XXXX 1      ca+h    Ca  1.500
Ca75    23.615477851   14.921558657   27.607326281 XXXX 1      ca+h    Ca  1.500
Ca76    23.695421346    8.077170116   27.961333578 XXXX 1      ca+h    Ca  1.500
Ca77    32.968177486   28.662060882   27.536490699 XXXX 1      ca+h    Ca  1.500
Ca78    32.944700775   21.519820876   27.703020095 XXXX 1      ca+h    Ca  1.500
Ca79    32.975238439   14.863280327   27.739253522 XXXX 1      ca+h    Ca  1.500
Ca80    32.951517199    8.026533802   27.666217056 XXXX 1      ca+h    Ca  1.500
Ca81    28.245171030   31.786494211    8.722308910 XXXX 1      ca+h    Ca  1.500
Ca82    28.379925483   24.971845748    8.537407137 XXXX 1      ca+h    Ca  1.500
Ca83    28.202842330   18.196007158    8.842161745 XXXX 1      ca+h    Ca  1.500
Ca84    28.307197338   11.244209010    8.435737504 XXXX 1      ca+h    Ca  1.500
Ca85    23.561118802   31.989926092   16.798284026 XXXX 1      ca+h    Ca  1.500
Ca86    23.225989181   25.136134250   16.946696578 XXXX 1      ca+h    Ca  1.500
Ca87    23.233212802   18.278117685   16.917149852 XXXX 1      ca+h    Ca  1.500
Ca88    23.236045905   11.357753588   16.895307042 XXXX 1      ca+h    Ca  1.500
Ca89    18.950685248   32.020655953   24.977928095 XXXX 1      ca+h    Ca  1.500
Ca90    18.763850352   25.118862616   25.027013137 XXXX 1      ca+h    Ca  1.500
Ca91    18.944042798   18.250697029   24.987136594 XXXX 1      ca+h    Ca  1.500
Ca92    18.887662187   11.407729781   25.105771594 XXXX 1      ca+h    Ca  1.500
Ca93    32.920036499   32.041261973   16.666248536 XXXX 1      ca+h    Ca  1.500
Ca94    32.929481191   25.039973396   16.808835141 XXXX 1      ca+h    Ca  1.500
Ca95    32.934365105   18.315018410   16.807475212 XXXX 1      ca+h    Ca  1.500
Ca96    32.909066213   11.358022265   16.751161951 XXXX 1      ca+h    Ca  1.500
Ca97    28.313158399   32.003381577   24.897784474 XXXX 1      ca+h    Ca  1.500
Ca98    28.306091241   25.172389637   24.894865217 XXXX 1      ca+h    Ca  1.500
Ca99    28.265146400   18.287088277   24.972471639 XXXX 1      ca+h    Ca  1.500
Ca100   28.257338661   11.481832153   25.093583338 XXXX 1      ca+h    Ca  1.500
Ca101   22.247312335   33.644248587    7.875705249 XXXX 1      ca+h    Ca  1.500
Ca102   22.367833726   26.685825041    7.878293268 XXXX 1      ca+h    Ca  1.500
Ca103   22.380793398   19.904766310    7.906619962 XXXX 1      ca+h    Ca  1.500
Ca104   22.417192036   13.047556535    7.798545395 XXXX 1      ca+h    Ca  1.500
Ca105   17.545569893   33.579116568   16.045468001 XXXX 1      ca+h    Ca  1.500
Ca106   17.465790386   26.764932447   16.074272718 XXXX 1      ca+h    Ca  1.500
Ca107   17.534538152   20.090390446   16.074059293 XXXX 1      ca+h    Ca  1.500
Ca108   17.585598919   13.078328777   15.988958610 XXXX 1      ca+h    Ca  1.500
Ca109   12.892511377   33.742154459   24.332950070 XXXX 1      ca+h    Ca  1.500
Ca110   12.853237614   26.726967356   24.146683352 XXXX 1      ca+h    Ca  1.500
Ca111   12.845962270   19.993807498   24.221074279 XXXX 1      ca+h    Ca  1.500
Ca112   12.932152705   13.274230288   24.132948947 XXXX 1      ca+h    Ca  1.500
Ca113   31.752972207   33.699456894    7.776387180 XXXX 1      ca+h    Ca  1.500
Ca114   31.753902809   26.653835666    7.804339066 XXXX 1      ca+h    Ca  1.500
Ca115   31.801537178   19.881750826    7.676705088 XXXX 1      ca+h    Ca  1.500
Ca116   31.475995419   13.180967882    7.869951091 XXXX 1      ca+h    Ca  1.500
Ca117   26.958205615   33.687565458   16.098379311 XXXX 1      ca+h    Ca  1.500
Ca118   26.922788693   26.759901791   15.989390415 XXXX 1      ca+h    Ca  1.500
Ca119   27.015280942   19.808911572   15.994973909 XXXX 1      ca+h    Ca  1.500
Ca120   27.124244338   13.051074286   16.095630186 XXXX 1      ca+h    Ca  1.500
Ca121   22.331460609   33.716789721   24.506827871 XXXX 1      ca+h    Ca  1.500
Ca122   22.308578838   26.891798681   24.236495421 XXXX 1      ca+h    Ca  1.500
Ca123   22.222715021   19.929938851   24.240453388 XXXX 1      ca+h    Ca  1.500
Ca124   22.338751409   13.157004809   24.189274654 XXXX 1      ca+h    Ca  1.500
Ca125   36.441330378   33.784068329   16.000752427 XXXX 1      ca+h    Ca  1.500
Ca126   36.370047404   26.907392759   15.974519345 XXXX 1      ca+h    Ca  1.500
Ca127   36.490758029   20.020717744   16.015968091 XXXX 1      ca+h    Ca  1.500
Ca128   36.331026330   13.057695919   16.145236382 XXXX 1      ca+h    Ca  1.500
Ca129   31.763446144   33.753763499   24.350146228 XXXX 1      ca+h    Ca  1.500
Ca130   31.777242234   26.888986226   24.097675073 XXXX 1      ca+h    Ca  1.500
Ca131   31.716773710   20.014622586   24.093524005 XXXX 1      ca+h    Ca  1.500
Ca132   31.702599178   13.022249945   24.159704660 XXXX 1      ca+h    Ca  1.500
P1      25.057873528   33.775495739    9.129233046 XXXX 1      pap     P   1.000
P2      25.160338579   26.737836070    9.148742363 XXXX 1      pap     P   1.000
P3      25.078521848   19.914523262    9.287852728 XXXX 1      pap     P   1.000
P4      25.184139349   13.190527989    9.217801718 XXXX 1      pap     P   1.000
P5      20.367035291   33.674916999   17.409018134 XXXX 1      pap     P   1.000
P6      20.397870294   26.756332965   17.424732502 XXXX 1      pap     P   1.000
P7      20.334066765   20.078714356   17.364635530 XXXX 1      pap     P   1.000
P8      20.412841233   13.177117808   17.389262644 XXXX 1      pap     P   1.000
P9      15.832517275   33.774696070   25.573443589 XXXX 1      pap     P   1.000
P10     15.704607075   26.910050316   25.508295546 XXXX 1      pap     P   1.000
P11     15.620924780   20.033470914   25.512896883 XXXX 1      pap     P   1.000
P12     15.798402841   13.179121410   25.493430495 XXXX 1      pap     P   1.000
P13     34.601041197   33.700355640    8.948497490 XXXX 1      pap     P   1.000
P14     34.632225661   26.793365300    9.091503682 XXXX 1      pap     P   1.000
P15     34.509163110   19.826472872    9.192659348 XXXX 1      pap     P   1.000
P16     34.646563268   13.023880112    9.230183258 XXXX 1      pap     P   1.000
P17     29.784922416   33.727367180   17.308752566 XXXX 1      pap     P   1.000
P18     29.853375775   26.903160831   17.278134058 XXXX 1      pap     P   1.000
P19     29.977199766   19.995513056   17.365850801 XXXX 1      pap     P   1.000
P20     29.893333580   13.044567766   17.453399485 XXXX 1      pap     P   1.000
P21     25.207213356   33.687649518   25.723922042 XXXX 1      pap     P   1.000
P22     25.232324940   26.861201316   25.597344292 XXXX 1      pap     P   1.000
P23     25.119439697   20.023082167   25.614803955 XXXX 1      pap     P   1.000
P24     25.155851946   13.098244089   25.651638859 XXXX 1      pap     P   1.000
P25     34.596575396   33.613644102   25.552280234 XXXX 1      pap     P   1.000
P26     34.666297204   26.908720355   25.517140540 XXXX 1      pap     P   1.000
P27     34.559607241   19.917803102   25.579397278 XXXX 1      pap     P   1.000
P28     34.473318679   13.064705687   25.485844950 XXXX 1      pap     P   1.000
O361    25.109346315   34.044456468   10.620920659 XXXX 1      oap1    O  -0.800
O362    25.143139562   27.157148305   10.666647725 XXXX 1      oap1    O  -0.800
O363    25.252588531   19.950682526   10.775936106 XXXX 1      oap1    O  -0.800
O364    25.193136143   13.260163678   10.751840375 XXXX 1      oap1    O  -0.800
O365    20.288649260   33.658507697   18.932588376 XXXX 1      oap1    O  -0.800
O366    20.644038932   26.675960873   18.940707552 XXXX 1      oap1    O  -0.800
O367    20.475691952   20.108106673   18.930919089 XXXX 1      oap1    O  -0.800
O368    20.548986312   13.424825625   18.894232019 XXXX 1      oap1    O  -0.800
O369    15.820616367   33.386884073   27.045899744 XXXX 1      oap1    O  -0.800
O370    15.618343346   26.573023643   27.061052766 XXXX 1      oap1    O  -0.800
O371    15.606595819   19.948894085   27.039895468 XXXX 1      oap1    O  -0.800
O372    15.969734222   13.110936559   26.997357794 XXXX 1      oap1    O  -0.800
O373    34.595365658   33.593811151   10.453664185 XXXX 1      oap1    O  -0.800
O374    34.594145865   26.706215342   10.628730281 XXXX 1      oap1    O  -0.800
O375    34.438394311   20.107024638   10.755806380 XXXX 1      oap1    O  -0.800
O376    34.801021151   12.714793732   10.692855749 XXXX 1      oap1    O  -0.800
O377    29.894538882   33.543106349   18.842498088 XXXX 1      oap1    O  -0.800
O378    29.721458999   26.768191887   18.785240587 XXXX 1      oap1    O  -0.800
O379    29.890867172   20.113827811   18.858939610 XXXX 1      oap1    O  -0.800
O380    29.927867623   13.224604534   19.001461835 XXXX 1      oap1    O  -0.800
O381    25.324244566   33.780180033   27.211411083 XXXX 1      oap1    O  -0.800
O382    25.262831376   26.733564800   27.100584615 XXXX 1      oap1    O  -0.800
O383    25.322974132   20.014660353   27.121581015 XXXX 1      oap1    O  -0.800
O384    25.220406974   12.965343755   27.194563936 XXXX 1      oap1    O  -0.800
O385    34.845272940   33.520321487   27.078884581 XXXX 1      oap1    O  -0.800
O386    34.869455802   27.073408888   27.015636563 XXXX 1      oap1    O  -0.800
O387    34.397813056   19.880822554   27.111552132 XXXX 1      oap1    O  -0.800
O388    34.633763216   13.160039033   27.018059680 XXXX 1      oap1    O  -0.800
O389    26.427339028   33.393653271    8.551157266 XXXX 1      oap1    O  -0.800
O390    26.673695879   26.696747558    8.756218663 XXXX 1      oap1    O  -0.800
O391    26.442041577   19.988303683    8.574507447 XXXX 1      oap1    O  -0.800
O392    26.612417323   12.969938941    8.517750176 XXXX 1      oap1    O  -0.800
O393    21.848132945   33.663868616   17.005312890 XXXX 1      oap1    O  -0.800
O394    21.718679086   26.849063096   16.596171483 XXXX 1      oap1    O  -0.800
O395    21.745899230   20.098778101   16.786648741 XXXX 1      oap1    O  -0.800
O396    21.804199477   13.203697240   16.638358982 XXXX 1      oap1    O  -0.800
O397    17.186389372   33.968674484   24.945338539 XXXX 1      oap1    O  -0.800
O398    17.183397735   27.026659266   25.118179627 XXXX 1      oap1    O  -0.800
O399    17.047857540   19.971298654   24.896713933 XXXX 1      oap1    O  -0.800
O400    17.127055122   13.174814586   24.815291343 XXXX 1      oap1    O  -0.800
O401    35.975830784   33.777309098    8.364268621 XXXX 1      oap1    O  -0.800
O402    36.087849941   26.775344737    8.583309717 XXXX 1      oap1    O  -0.800
O403    35.983099413   19.835376015    8.626223490 XXXX 1      oap1    O  -0.800
O404    35.962396048   13.131823306    8.415477654 XXXX 1      oap1    O  -0.800
O405    31.183229467   33.736754541   16.746312243 XXXX 1      oap1    O  -0.800
O406    31.285099187   27.025789117   16.812600608 XXXX 1      oap1    O  -0.800
O407    31.377880828   20.080304657   16.756642388 XXXX 1      oap1    O  -0.800
O408    31.362963506   12.971773799   16.906388417 XXXX 1      oap1    O  -0.800
O409    26.580840983   33.589299664   25.046718388 XXXX 1      oap1    O  -0.800
O410    26.668534600   26.969092508   25.024546643 XXXX 1      oap1    O  -0.800
O411    26.431457176   20.123816448   24.847728120 XXXX 1      oap1    O  -0.800
O412    26.562760613   13.085517642   25.017092449 XXXX 1      oap1    O  -0.800
O413    35.943380277   33.682734276   24.799330543 XXXX 1      oap1    O  -0.800
O414    36.050476634   26.869642611   24.807400800 XXXX 1      oap1    O  -0.800
O415    36.029492498   19.856247027   25.186350206 XXXX 1      oap1    O  -0.800
O416    35.813357190   12.949705239   24.843478313 XXXX 1      oap1    O  -0.800
Ca133   32.458793212   32.529835755    3.961055703 XXXX 1      ca+h    Ca  1.500
Ca134   32.184011754   26.011871573    4.090733998 XXXX 1      ca+h    Ca  1.500
Ca135   27.074773895   33.697295264   11.970154200 XXXX 1      ca+h    Ca  1.500
Ca136   27.053846085   26.765880159   11.854327183 XXXX 1      ca+h    Ca  1.500
Ca137   27.141309307   19.932788194   12.115766670 XXXX 1      ca+h    Ca  1.500
Ca138   27.144902561   13.072272724   12.129794919 XXXX 1      ca+h    Ca  1.500
Ca139   22.324116272   33.684015341   20.028520676 XXXX 1      ca+h    Ca  1.500
Ca140   22.447726096   26.740310062   20.363200721 XXXX 1      ca+h    Ca  1.500
Ca141   22.511059449   20.032840375   20.222220629 XXXX 1      ca+h    Ca  1.500
Ca142   22.518807123   13.207048849   20.220404124 XXXX 1      ca+h    Ca  1.500
Ca143   17.769530354   33.658319303   28.510146966 XXXX 1      ca+h    Ca  1.500
Ca144   17.711364323   26.838701962   28.424465335 XXXX 1      ca+h    Ca  1.500
Ca145   17.699456949   20.009529806   28.351994538 XXXX 1      ca+h    Ca  1.500
Ca146   17.881368387   13.095853077   28.449018319 XXXX 1      ca+h    Ca  1.500
Ca147   36.503198596   33.715764243   11.915230671 XXXX 1      ca+h    Ca  1.500
Ca148   36.546589605   26.686581214   11.984158222 XXXX 1      ca+h    Ca  1.500
Ca149   36.568273944   19.817639578   11.854191485 XXXX 1      ca+h    Ca  1.500
Ca150   36.601209327   13.078172597   12.185635078 XXXX 1      ca+h    Ca  1.500
Ca151   31.788549271   33.670714043   20.117004712 XXXX 1      ca+h    Ca  1.500
Ca152   31.802085004   26.868907262   20.014059094 XXXX 1      ca+h    Ca  1.500
Ca153   31.812829608   20.054495671   20.104461716 XXXX 1      ca+h    Ca  1.500
Ca154   32.023434895   13.070532397   20.191448676 XXXX 1      ca+h    Ca  1.500
Ca155   27.355544613   33.686778134   28.524082689 XXXX 1      ca+h    Ca  1.500
Ca156   27.207583175   26.740986403   28.538157417 XXXX 1      ca+h    Ca  1.500
Ca157   27.137605444   19.976271935   28.608912852 XXXX 1      ca+h    Ca  1.500
Ca158   27.238270905   13.128826358   28.571684807 XXXX 1      ca+h    Ca  1.500
Ca159   36.742337484   33.784356424   28.620426149 XXXX 1      ca+h    Ca  1.500
Ca160   36.840477339   27.053260115   28.565819310 XXXX 1      ca+h    Ca  1.500
Ca161   36.594310223   20.136589246   28.155856643 XXXX 1      ca+h    Ca  1.500
Ca162   36.678341201   13.078629333   28.575294977 XXXX 1      ca+h    Ca  1.500
P29     29.251666292   33.714053043    5.697862804 XXXX 1      pap     P   1.000
P30     29.261083168   26.675052643    5.617853522 XXXX 1      pap     P   1.000
P31     29.401503205   19.838360473    5.885923410 XXXX 1      pap     P   1.000
P32     29.143192293   12.939961425    5.531026029 XXXX 1      pap     P   1.000
P33     24.572772463   33.674411501   13.900391282 XXXX 1      pap     P   1.000
P34     24.641519534   26.712399482   14.011177128 XXXX 1      pap     P   1.000
P35     24.454663521   19.803794865   13.980355470 XXXX 1      pap     P   1.000
P36     24.693382015   12.990346431   13.954114055 XXXX 1      pap     P   1.000
P37     19.776199590   33.713670192   22.031667047 XXXX 1      pap     P   1.000
P38     19.826458933   26.789809319   22.076049320 XXXX 1      pap     P   1.000
P39     19.849333569   20.042170851   22.033407711 XXXX 1      pap     P   1.000
P40     20.003668521   13.168603028   22.032799391 XXXX 1      pap     P   1.000
P41     15.322595488   33.805980907   30.280357264 XXXX 1      pap     P   1.000
P42     15.213307641   26.800247357   30.231081473 XXXX 1      pap     P   1.000
P43     15.325450875   19.877146321   30.322556662 XXXX 1      pap     P   1.000
P44     15.448929784   13.039753728   30.073166942 XXXX 1      pap     P   1.000
P45     34.005116910   33.681108969   13.778041485 XXXX 1      pap     P   1.000
P46     33.944249707   26.796801782   13.768673710 XXXX 1      pap     P   1.000
P47     33.988066138   19.945883405   13.885139456 XXXX 1      pap     P   1.000
P48     34.153070072   13.130419044   13.902647593 XXXX 1      pap     P   1.000
P49     29.343950891   33.728926585   21.990417539 XXXX 1      pap     P   1.000
P50     29.344228510   26.827269511   21.942165489 XXXX 1      pap     P   1.000
P51     29.385566829   20.027007770   22.020428664 XXXX 1      pap     P   1.000
P52     29.344230092   13.103186954   22.103655766 XXXX 1      pap     P   1.000
P53     24.735371022   33.761635343   30.245259181 XXXX 1      pap     P   1.000
P54     24.770181246   26.681857776   30.228877608 XXXX 1      pap     P   1.000
P55     24.538499647   19.975459192   30.209243659 XXXX 1      pap     P   1.000
P56     24.507510888   13.199925925   30.324815292 XXXX 1      pap     P   1.000
P57     34.299617556   33.827234122   30.329021015 XXXX 1      pap     P   1.000
P58     34.063358943   26.963439704   30.186354002 XXXX 1      pap     P   1.000
P59     34.134584280   19.957602330   30.119801361 XXXX 1      pap     P   1.000
P60     34.034974492   13.252039300   30.168759249 XXXX 1      pap     P   1.000
O417    27.895196018   33.363408433    5.092256105 XXXX 1      oap1    O  -0.800
O418    27.762399381   26.607880339    5.094820083 XXXX 1      oap1    O  -0.800
O419    27.993788659   19.933846494    5.279599868 XXXX 1      oap1    O  -0.800
O420    27.790900495   13.025215392    4.824859254 XXXX 1      oap1    O  -0.800
O421    23.199376335   33.521962383   13.275207609 XXXX 1      oap1    O  -0.800
O422    23.271373052   26.647658575   13.322676559 XXXX 1      oap1    O  -0.800
O423    23.071125426   19.892835720   13.230347394 XXXX 1      oap1    O  -0.800
O424    23.417136543   13.370792099   13.178415893 XXXX 1      oap1    O  -0.800
O425    18.401990520   33.711499466   21.479623530 XXXX 1      oap1    O  -0.800
O426    18.522562975   26.889126864   21.255846490 XXXX 1      oap1    O  -0.800
O427    18.479818453   19.816095263   21.399775116 XXXX 1      oap1    O  -0.800
O428    18.701484286   13.117557102   21.208296756 XXXX 1      oap1    O  -0.800
O429    14.052122354   34.132161228   29.447063957 XXXX 1      oap1    O  -0.800
O430    13.904929581   26.980580678   29.395968855 XXXX 1      oap1    O  -0.800
O431    13.790755756   19.736781843   30.386838518 XXXX 1      oap1    O  -0.800
O432    13.981530509   13.156832257   29.610992540 XXXX 1      oap1    O  -0.800
O433    32.627218607   33.811518362   13.059407971 XXXX 1      oap1    O  -0.800
O434    32.567650125   26.784412006   13.044428998 XXXX 1      oap1    O  -0.800
O435    32.660785299   19.809238591   13.181831472 XXXX 1      oap1    O  -0.800
O436    32.820662528   13.127140779   13.091104433 XXXX 1      oap1    O  -0.800
O437    27.903873647   33.694816846   21.460102384 XXXX 1      oap1    O  -0.800
O438    27.990990521   27.026409007   21.218779468 XXXX 1      oap1    O  -0.800
O439    28.050486372   19.984656414   21.333262633 XXXX 1      oap1    O  -0.800
O440    28.000537205   13.006243619   21.412102612 XXXX 1      oap1    O  -0.800
O441    23.385073687   33.570009164   29.583036874 XXXX 1      oap1    O  -0.800
O442    23.429478104   26.872996511   29.484225939 XXXX 1      oap1    O  -0.800
O443    23.399697126   20.060127930   29.210584430 XXXX 1      oap1    O  -0.800
O444    23.229131549   13.222355782   29.409853143 XXXX 1      oap1    O  -0.800
O445    32.964774738   34.235416292   29.621889154 XXXX 1      oap1    O  -0.800
O446    32.700246700   26.845277213   29.358930474 XXXX 1      oap1    O  -0.800
O447    32.617396958   19.753261976   29.798417935 XXXX 1      oap1    O  -0.800
O448    32.674155533   13.181835070   29.490273504 XXXX 1      oap1    O  -0.800
O449    28.976614091   33.770250864    7.214238607 XXXX 1      oap1    O  -0.800
O450    29.393112391   26.683575369    7.170905354 XXXX 1      oap1    O  -0.800
O451    29.378091500   19.886138985    7.467864342 XXXX 1      oap1    O  -0.800
O452    28.935373748   13.024920965    7.059676434 XXXX 1      oap1    O  -0.800
O453    24.467812264   33.809963958   15.390194210 XXXX 1      oap1    O  -0.800
O454    24.504399467   26.719455875   15.555067408 XXXX 1      oap1    O  -0.800
O455    24.462886958   19.706562870   15.526891271 XXXX 1      oap1    O  -0.800
O456    24.418466489   12.747737239   15.427494343 XXXX 1      oap1    O  -0.800
O457    19.698723169   33.775957887   23.558921805 XXXX 1      oap1    O  -0.800
O458    19.718146483   26.869429093   23.618789803 XXXX 1      oap1    O  -0.800
O459    19.885813161   19.907534765   23.600913842 XXXX 1      oap1    O  -0.800
O460    19.795126145   13.080693378   23.549162094 XXXX 1      oap1    O  -0.800
O461    15.017063592   33.507098718   31.748659386 XXXX 1      oap1    O  -0.800
O462    14.915722390   26.810202252   31.768924384 XXXX 1      oap1    O  -0.800
O463    15.925187385   19.796848540   31.774374010 XXXX 1      oap1    O  -0.800
O464    15.660367510   12.985922553   31.569950412 XXXX 1      oap1    O  -0.800
O465    33.950694283   33.644231444   15.356672902 XXXX 1      oap1    O  -0.800
O466    33.752038282   26.930095494   15.307252706 XXXX 1      oap1    O  -0.800
O467    33.882620283   19.958089887   15.415041506 XXXX 1      oap1    O  -0.800
O468    33.961589141   13.097410681   15.423535372 XXXX 1      oap1    O  -0.800
O469    29.380949648   33.700695299   23.549087583 XXXX 1      oap1    O  -0.800
O470    29.138038240   26.826296312   23.468196574 XXXX 1      oap1    O  -0.800
O471    29.101543358   19.893692813   23.555462258 XXXX 1      oap1    O  -0.800
O472    29.121403435   13.109296099   23.605410802 XXXX 1      oap1    O  -0.800
O473    24.674114544   34.024663697   31.766942466 XXXX 1      oap1    O  -0.800
O474    24.564480744   26.593016198   31.781092868 XXXX 1      oap1    O  -0.800
O475    23.898620638   20.075626262   31.595019734 XXXX 1      oap1    O  -0.800
O476    24.053453254   13.243473698   31.797392471 XXXX 1      oap1    O  -0.800
O477    34.100010233   33.747378536   31.829049022 XXXX 1      oap1    O  -0.800
O478    33.731539066   27.076697959   31.672985742 XXXX 1      oap1    O  -0.800
O479    34.420459001   19.919762757   31.651091856 XXXX 1      oap1    O  -0.800
O480    34.075681839   13.432349199   31.677567744 XXXX 1      oap1    O  -0.800
Ca163   25.912839510   33.570752979    6.325849241 XXXX 1      ca+h    Ca  1.500
Ca164   25.518499024   26.519147114    5.941023675 XXXX 1      ca+h    Ca  1.500
Ca165   25.698463967   19.866945031    6.164590662 XXXX 1      ca+h    Ca  1.500
Ca166   25.835279399   13.056674295    6.267253987 XXXX 1      ca+h    Ca  1.500
Ca167   21.133663574   33.708593969   14.333114080 XXXX 1      ca+h    Ca  1.500
Ca168   21.121956880   26.801493265   14.161444055 XXXX 1      ca+h    Ca  1.500
Ca169   21.035325927   19.965786211   14.203766601 XXXX 1      ca+h    Ca  1.500
Ca170   21.202764560   13.169913707   14.255424942 XXXX 1      ca+h    Ca  1.500
Ca171   16.317309698   33.748084821   22.545619063 XXXX 1      ca+h    Ca  1.500
Ca172   16.456729970   26.974068682   22.474600221 XXXX 1      ca+h    Ca  1.500
Ca173   16.303041732   19.905685831   22.397317282 XXXX 1      ca+h    Ca  1.500
Ca174   16.635450736   13.134779752   22.318519619 XXXX 1      ca+h    Ca  1.500
Ca175   11.774957495   34.126297400   30.301510508 XXXX 1      ca+h    Ca  1.500
Ca176   11.730607318   26.990394243   30.647905307 XXXX 1      ca+h    Ca  1.500
Ca177   11.400276531   19.981587911   30.746674303 XXXX 1      ca+h    Ca  1.500
Ca178   11.607154836   13.194011597   30.288757395 XXXX 1      ca+h    Ca  1.500
Ca179   35.374073427   33.755688939    5.960296627 XXXX 1      ca+h    Ca  1.500
Ca180   35.479121887   26.704582040    6.157794732 XXXX 1      ca+h    Ca  1.500
Ca181   35.292743312   19.807297661    5.851331016 XXXX 1      ca+h    Ca  1.500
Ca182   34.948069132   13.066379398    6.175738487 XXXX 1      ca+h    Ca  1.500
Ca183   30.389644385   33.641957664   14.070208909 XXXX 1      ca+h    Ca  1.500
Ca184   30.468808226   26.723767602   14.142305372 XXXX 1      ca+h    Ca  1.500
Ca185   30.505218614   20.039114040   14.274418212 XXXX 1      ca+h    Ca  1.500
Ca186   30.659572689   13.118305189   14.054653850 XXXX 1      ca+h    Ca  1.500
Ca187   25.670480563   33.818699641   22.263716593 XXXX 1      ca+h    Ca  1.500
Ca188   25.932884423   26.796596122   22.381174823 XXXX 1      ca+h    Ca  1.500
Ca189   25.865454592   19.994322179   22.398363633 XXXX 1      ca+h    Ca  1.500
Ca190   25.929149394   13.163389766   22.567843547 XXXX 1      ca+h    Ca  1.500
Ca191   21.176527958   33.558958512   30.688501549 XXXX 1      ca+h    Ca  1.500
Ca192   21.124377957   26.949040106   30.294232593 XXXX 1      ca+h    Ca  1.500
Ca193   21.347668616   20.096337495   30.507296521 XXXX 1      ca+h    Ca  1.500
Ca194   21.141573972   12.980775956   30.416104595 XXXX 1      ca+h    Ca  1.500
Ca195   35.308519643   33.862303043   22.394435876 XXXX 1      ca+h    Ca  1.500
Ca196   35.359494904   26.825575962   22.269081517 XXXX 1      ca+h    Ca  1.500
Ca197   35.288870039   20.073502289   22.252143197 XXXX 1      ca+h    Ca  1.500
Ca198   35.268723268   13.212639515   22.334916388 XXXX 1      ca+h    Ca  1.500
Ca199   30.669461425   33.740598876   30.455374543 XXXX 1      ca+h    Ca  1.500
Ca200   30.516808933   26.733988114   30.386988119 XXXX 1      ca+h    Ca  1.500
Ca201   30.193554254   20.084988086   30.343403607 XXXX 1      ca+h    Ca  1.500
Ca202   30.420258299   13.153295066   30.583804532 XXXX 1      ca+h    Ca  1.500
P61     25.255691190   34.247722711    2.113012155 XXXX 1      pap     P   1.000
P62     24.139844589   27.763738129    3.279051959 XXXX 1      pap     P   1.000
P63     25.687561058   20.624684031    2.769387863 XXXX 1      pap     P   1.000
P64     25.765096437   13.014170443    2.548039795 XXXX 1      pap     P   1.000
P65     20.811977389   33.788316197   11.239224145 XXXX 1      pap     P   1.000
P66     20.945165438   26.836165868   11.104424938 XXXX 1      pap     P   1.000
P67     20.854227959   20.028416114   11.079018938 XXXX 1      pap     P   1.000
P68     20.947155443   13.182085885   11.082707686 XXXX 1      pap     P   1.000
P69     16.001564513   33.638370723   19.368376546 XXXX 1      pap     P   1.000
P70     16.066241457   26.779616476   19.392175751 XXXX 1      pap     P   1.000
P71     16.119452166   20.025891881   19.209574314 XXXX 1      pap     P   1.000
P72     16.144599743   13.119842136   19.188835111 XXXX 1      pap     P   1.000
P73     11.547141951   33.690552574   27.349684120 XXXX 1      pap     P   1.000
P74     11.397830250   26.735977956   27.460604909 XXXX 1      pap     P   1.000
P75     11.470135556   20.013737528   27.498096676 XXXX 1      pap     P   1.000
P76     11.496898960   13.209609881   27.351026666 XXXX 1      pap     P   1.000
P77     35.671689728   34.848435246    1.521336246 XXXX 1      pap     P   1.000
P78     34.382646639   29.763859484    2.444317011 XXXX 1      pap     P   1.000
P79     36.256380828   18.660524960    2.232521165 XXXX 1      pap     P   1.000
P80     34.844915047   12.998756734    2.826352964 XXXX 1      pap     P   1.000
P81     30.285003876   33.730383126   10.950909536 XXXX 1      pap     P   1.000
P82     30.376853791   26.701474395   10.885675485 XXXX 1      pap     P   1.000
P83     30.203612639   19.933522858   11.100415811 XXXX 1      pap     P   1.000
P84     30.361500702   13.071217123   11.015443604 XXXX 1      pap     P   1.000
P85     25.539708867   33.672408415   19.250272232 XXXX 1      pap     P   1.000
P86     25.544480196   26.847797108   19.258602905 XXXX 1      pap     P   1.000
P87     25.521187044   19.932434532   19.183850536 XXXX 1      pap     P   1.000
P88     25.638318205   13.183697242   19.326191049 XXXX 1      pap     P   1.000
P89     20.776941221   33.636472540   27.666612025 XXXX 1      pap     P   1.000
P90     20.964314155   26.731966679   27.331539940 XXXX 1      pap     P   1.000
P91     20.802244928   19.966698775   27.374462290 XXXX 1      pap     P   1.000
P92     20.823293810   13.180853940   27.469123746 XXXX 1      pap     P   1.000
P93     34.961085873   33.664754136   19.236165894 XXXX 1      pap     P   1.000
P94     35.141566479   26.888471324   19.158774827 XXXX 1      pap     P   1.000
P95     35.108763374   20.082182817   19.274039909 XXXX 1      pap     P   1.000
P96     34.939810472   13.076115717   19.339611012 XXXX 1      pap     P   1.000
P97     30.262186231   33.663843081   27.522947328 XXXX 1      pap     P   1.000
P98     30.278565508   26.922805402   27.340188232 XXXX 1      pap     P   1.000
P99     30.337942840   20.015614144   27.327044924 XXXX 1      pap     P   1.000
P100    30.273712276   13.203218723   27.451925869 XXXX 1      pap     P   1.000
O481    24.843340175   33.020675858    1.275702578 XXXX 1      oap1    O  -0.650
O482    23.514922353   27.236589356    2.038024247 XXXX 1      oap1    O  -0.650
O483    25.752501373   21.253007160    4.183835057 XXXX 1      oap1    O  -0.650
O484    27.108741819   13.677765879    2.527182273 XXXX 1      oap1    O  -0.650
O485    22.080545292   33.843606900   10.373189927 XXXX 1      oap1    O  -0.800
O486    22.265765342   26.911511375   10.298478784 XXXX 1      oap1    O  -0.800
O487    22.169358882   19.689560379   10.398504534 XXXX 1      oap1    O  -0.800
O488    22.264388508   13.168416012   10.294351519 XXXX 1      oap1    O  -0.800
O489    17.261759526   33.671017720   18.494185971 XXXX 1      oap1    O  -0.800
O490    17.264827234   26.838122478   18.405366216 XXXX 1      oap1    O  -0.800
O491    17.410494014   20.075743198   18.402138030 XXXX 1      oap1    O  -0.800
O492    17.403128459   13.031626806   18.400985003 XXXX 1      oap1    O  -0.800
O493    12.883936363   33.572186725   26.580921176 XXXX 1      oap1    O  -0.800
O494    12.647664719   26.810110197   26.560124706 XXXX 1      oap1    O  -0.800
O495    12.683624000   19.967321450   26.560377475 XXXX 1      oap1    O  -0.800
O496    12.814764584   13.214048752   26.547591821 XXXX 1      oap1    O  -0.800
O497    35.775039441   35.541365671    0.163784881 XXXX 1      oap1    O  -0.650
O498    33.907233251   28.725598614    1.445497548 XXXX 1      oap1    O  -0.650
O499    35.667723978   18.667640355    3.616854288 XXXX 1      oap1    O  -0.650
O500    33.899078649   13.337173381    1.699267634 XXXX 1      oap1    O  -0.650
O501    31.575117551   33.885047693   10.150180330 XXXX 1      oap1    O  -0.800
O502    31.609486437   26.585461825   10.045051969 XXXX 1      oap1    O  -0.800
O503    31.430341118   19.878944299   10.112500882 XXXX 1      oap1    O  -0.800
O504    31.651787948   13.074976299   10.191421622 XXXX 1      oap1    O  -0.800
O505    26.826531358   33.633334828   18.461332296 XXXX 1      oap1    O  -0.800
O506    26.836143951   26.592808368   18.391161957 XXXX 1      oap1    O  -0.800
O507    26.731479566   19.831592007   18.216865575 XXXX 1      oap1    O  -0.800
O508    26.856329929   13.188117776   18.439454850 XXXX 1      oap1    O  -0.800
O509    22.154198627   33.840190260   26.851021282 XXXX 1      oap1    O  -0.800
O510    22.280219175   26.566839733   26.556554844 XXXX 1      oap1    O  -0.800
O511    22.054639645   20.009284177   26.477405243 XXXX 1      oap1    O  -0.800
O512    22.053653998   13.370813180   26.538639110 XXXX 1      oap1    O  -0.800
O513    36.139154150   34.051502757   18.324511852 XXXX 1      oap1    O  -0.800
O514    36.374190623   27.037577677   18.275218525 XXXX 1      oap1    O  -0.800
O515    36.342391202   20.143846254   18.429308966 XXXX 1      oap1    O  -0.800
O516    36.278605898   13.151191857   18.650206529 XXXX 1      oap1    O  -0.800
O517    31.584613778   33.651213968   26.756235439 XXXX 1      oap1    O  -0.800
O518    31.504722745   26.999376424   26.444938739 XXXX 1      oap1    O  -0.800
O519    31.571158782   19.923448189   26.466449480 XXXX 1      oap1    O  -0.800
O520    31.499059394   13.309463679   26.535057445 XXXX 1      oap1    O  -0.800
O521    24.262723119   35.370777492    1.958545450 XXXX 1      oap1    O  -0.650
O522    23.388961321   27.340976605    4.512729290 XXXX 1      oap1    O  -0.650
O523    25.732878591   21.735529968    1.696646828 XXXX 1      oap1    O  -0.650
O524    25.023415277   13.290290585    1.267546176 XXXX 1      oap1    O  -0.650
O525    19.555837211   33.865416012   10.377694028 XXXX 1      oap1    O  -0.800
O526    19.684049291   26.703554986   10.154320899 XXXX 1      oap1    O  -0.800
O527    19.603371537   20.225463264   10.166514116 XXXX 1      oap1    O  -0.800
O528    19.766282615   13.001303521   10.056400976 XXXX 1      oap1    O  -0.800
O529    14.683472135   33.632455243   18.550475848 XXXX 1      oap1    O  -0.800
O530    14.743700419   26.862737334   18.544728550 XXXX 1      oap1    O  -0.800
O531    14.893013235   20.123328588   18.257959268 XXXX 1      oap1    O  -0.800
O532    14.955032417   13.100720678   18.198690479 XXXX 1      oap1    O  -0.800
O533    10.279067702   33.819962665   26.500820715 XXXX 1      oap1    O  -0.800
O534    10.129130861   26.857156491   26.638173068 XXXX 1      oap1    O  -0.800
O535    10.168621150   19.957949083   26.663491058 XXXX 1      oap1    O  -0.800
O536    10.262926583   13.323282014   26.451160396 XXXX 1      oap1    O  -0.800
O537    34.398752220   33.977216459    1.580735187 XXXX 1      oap1    O  -0.650
O538    34.020601867   29.307847983    3.839723692 XXXX 1      oap1    O  -0.650
O539    35.121795676   18.464256175    1.234180240 XXXX 1      oap1    O  -0.650
O540    34.370649969   13.808597332    3.972368984 XXXX 1      oap1    O  -0.650
O541    29.027337140   33.680335800   10.011775409 XXXX 1      oap1    O  -0.800
O542    29.054943387   26.690799333   10.108611627 XXXX 1      oap1    O  -0.800
O543    28.839519317   20.034819949   10.362003309 XXXX 1      oap1    O  -0.800
O544    29.079538711   12.944740292   10.085285770 XXXX 1      oap1    O  -0.800
O545    24.292468593   33.596965229   18.338853665 XXXX 1      oap1    O  -0.800
O546    24.240706078   26.770159514   18.362564325 XXXX 1      oap1    O  -0.800
O547    24.162065898   19.921050404   18.456791951 XXXX 1      oap1    O  -0.800
O548    24.301947438   13.069857629   18.507791855 XXXX 1      oap1    O  -0.800
O549    19.629917697   33.619352426   26.673018279 XXXX 1      oap1    O  -0.800
O550    19.768090703   26.782031233   26.374370249 XXXX 1      oap1    O  -0.800
O551    19.488494061   19.962779799   26.557640618 XXXX 1      oap1    O  -0.800
O552    19.542541006   13.195672335   26.607936606 XXXX 1      oap1    O  -0.800
O553    33.681606294   33.486736964   18.345177622 XXXX 1      oap1    O  -0.800
O554    33.899148197   26.764239878   18.200188850 XXXX 1      oap1    O  -0.800
O555    33.850896246   19.966153357   18.346583560 XXXX 1      oap1    O  -0.800
O556    33.795687543   12.962917760   18.250936452 XXXX 1      oap1    O  -0.800
O557    29.007885103   33.559634165   26.609574252 XXXX 1      oap1    O  -0.800
O558    28.972917259   26.788465872   26.472358049 XXXX 1      oap1    O  -0.800
O559    29.094808134   19.972304663   26.399517050 XXXX 1      oap1    O  -0.800
O560    28.995315851   13.248924908   26.600865979 XXXX 1      oap1    O  -0.800
Ca203   33.960271597    9.256630826    4.161092530 XXXX 1      ca+h    Ca  1.500
Ca204   29.361349732   30.076511185   12.160716155 XXXX 1      ca+h    Ca  1.500
Ca205   29.443505766   23.239388259   12.129184682 XXXX 1      ca+h    Ca  1.500
Ca206   29.529722564   16.529144955   12.198970035 XXXX 1      ca+h    Ca  1.500
Ca207   29.562025064    9.591313372   12.087411221 XXXX 1      ca+h    Ca  1.500
Ca208   24.694797619   30.355434231   20.419825171 XXXX 1      ca+h    Ca  1.500
Ca209   24.780403571   23.404042101   20.194408676 XXXX 1      ca+h    Ca  1.500
Ca210   24.946738319   16.586337114   20.310560164 XXXX 1      ca+h    Ca  1.500
Ca211   24.842496210    9.792330312   20.299933476 XXXX 1      ca+h    Ca  1.500
Ca212   20.114416380   30.107384068   28.601447113 XXXX 1      ca+h    Ca  1.500
Ca213   20.090846794   23.339379278   28.554889290 XXXX 1      ca+h    Ca  1.500
Ca214   20.049971761   16.457303899   28.611684108 XXXX 1      ca+h    Ca  1.500
Ca215   20.107757042    9.691906602   28.630731782 XXXX 1      ca+h    Ca  1.500
Ca216   34.237323108   30.238597911   20.238769657 XXXX 1      ca+h    Ca  1.500
Ca217   34.363147636   23.544528894   20.236365504 XXXX 1      ca+h    Ca  1.500
Ca218   34.296025904   16.682134923   20.250835516 XXXX 1      ca+h    Ca  1.500
Ca219   34.135097466    9.589319649   20.323014231 XXXX 1      ca+h    Ca  1.500
Ca220   29.513811001   30.283672948   28.547840377 XXXX 1      ca+h    Ca  1.500
Ca221   29.522447694   23.529176057   28.327435819 XXXX 1      ca+h    Ca  1.500
Ca222   29.473184721   16.587318110   28.545740246 XXXX 1      ca+h    Ca  1.500
Ca223   29.554579448    9.732892739   28.720872042 XXXX 1      ca+h    Ca  1.500
P101    30.719079584   29.593083247    2.232532941 XXXX 1      pap     P   1.000
P102    35.026045195   25.674506716    2.441242129 XXXX 1      pap     P   1.000
P103    32.279106028   16.986342222    3.490185797 XXXX 1      pap     P   1.000
P104    30.815445431    8.559712494    2.359009300 XXXX 1      pap     P   1.000
P105    26.562915100   30.144390100   10.853987314 XXXX 1      pap     P   1.000
P106    26.665323779   23.376405891   11.037953960 XXXX 1      pap     P   1.000
P107    26.614103132   16.447264078   10.834646109 XXXX 1      pap     P   1.000
P108    26.708213765    9.574166645   10.861694250 XXXX 1      pap     P   1.000
P109    21.870998326   30.262262821   19.187469590 XXXX 1      pap     P   1.000
P110    21.912499259   23.451032875   18.962040023 XXXX 1      pap     P   1.000
P111    21.896427531   16.468152723   19.055114587 XXXX 1      pap     P   1.000
P112    21.951236378    9.548275601   19.152419301 XXXX 1      pap     P   1.000
P113    17.200542271   30.247235304   27.317331557 XXXX 1      pap     P   1.000
P114    17.236786546   23.444738878   27.144551067 XXXX 1      pap     P   1.000
P115    17.275705163   16.624610828   27.253905254 XXXX 1      pap     P   1.000
P116    17.290717909    9.704433976   27.096460834 XXXX 1      pap     P   1.000
P117    36.027868201   30.139088720   10.730632305 XXXX 1      pap     P   1.000
P118    36.065328427   23.253765272   10.853078712 XXXX 1      pap     P   1.000
P119    36.157105143   16.399270466   10.660360934 XXXX 1      pap     P   1.000
P120    35.954853994    9.588844750   10.914056601 XXXX 1      pap     P   1.000
P121    31.346039839   30.237707725   19.100698879 XXXX 1      pap     P   1.000
P122    31.421303401   23.403181330   18.968377383 XXXX 1      pap     P   1.000
P123    31.394088773   16.560137134   18.944925122 XXXX 1      pap     P   1.000
P124    31.361180658    9.790378684   18.982213237 XXXX 1      pap     P   1.000
P125    26.654285273   30.360787588   27.218784708 XXXX 1      pap     P   1.000
P126    26.718547546   23.339388704   27.029873864 XXXX 1      pap     P   1.000
P127    26.679138217   16.615009295   27.094548347 XXXX 1      pap     P   1.000
P128    26.666125583    9.747859735   27.289608419 XXXX 1      pap     P   1.000
P129    36.183593754   30.354245075   27.169690239 XXXX 1      pap     P   1.000
P130    36.086081644   23.525107559   27.054941470 XXXX 1      pap     P   1.000
P131    35.990697542   16.568107254   27.221955962 XXXX 1      pap     P   1.000
P132    36.084958989    9.596569543   27.251237391 XXXX 1      pap     P   1.000
O561    31.603592757   28.344258763    2.528241972 XXXX 1      oap1    O  -0.650
O562    35.590740673   24.526205297    1.699999643 XXXX 1      oap1    O  -0.650
O563    32.728176533   18.305873847    2.817237561 XXXX 1      oap1    O  -0.650
O564    31.620744919    8.233083728    1.160471871 XXXX 1      oap1    O  -0.650
O565    26.538430566   29.802907605    9.348563076 XXXX 1      oap1    O  -0.800
O566    26.734978357   23.458019630    9.507461782 XXXX 1      oap1    O  -0.800
O567    26.389348589   16.572024009    9.311698599 XXXX 1      oap1    O  -0.800
O568    26.814870964    9.577412618    9.327876755 XXXX 1      oap1    O  -0.800
O569    21.819586529   30.308412704   17.663181203 XXXX 1      oap1    O  -0.800
O570    21.826828268   23.366825437   17.462022221 XXXX 1      oap1    O  -0.800
O571    21.858519476   16.394704379   17.512288945 XXXX 1      oap1    O  -0.800
O572    21.815316184    9.409504056   17.609092300 XXXX 1      oap1    O  -0.800
O573    17.300192467   30.719635979   25.900000170 XXXX 1      oap1    O  -0.800
O574    17.276908302   23.214193413   25.650224686 XXXX 1      oap1    O  -0.800
O575    17.370024632   16.610224852   25.751172636 XXXX 1      oap1    O  -0.800
O576    17.280191158    9.774951104   25.570920072 XXXX 1      oap1    O  -0.800
O577    35.969374994   29.953031667    9.244700564 XXXX 1      oap1    O  -0.800
O578    35.789974165   23.275879558    9.298151724 XXXX 1      oap1    O  -0.800
O579    36.096569593   16.405746172    9.118553904 XXXX 1      oap1    O  -0.800
O580    35.947829364    9.876508851    9.380952825 XXXX 1      oap1    O  -0.800
O581    31.359591468   30.577629565   17.597739631 XXXX 1      oap1    O  -0.800
O582    31.431991829   23.303588188   17.484575061 XXXX 1      oap1    O  -0.800
O583    31.329619314   16.678548149   17.413262349 XXXX 1      oap1    O  -0.800
O584    31.166172649    9.892326585   17.442138714 XXXX 1      oap1    O  -0.800
O585    26.861887250   30.344738979   25.690702835 XXXX 1      oap1    O  -0.800
O586    26.664926626   23.208780528   25.538891073 XXXX 1      oap1    O  -0.800
O587    26.621467808   16.459551082   25.542380146 XXXX 1      oap1    O  -0.800
O588    26.516808088    9.236899813   25.881217205 XXXX 1      oap1    O  -0.800
O589    36.072353319   30.523768165   25.609751356 XXXX 1      oap1    O  -0.800
O590    36.354841221   23.404772489   25.544958980 XXXX 1      oap1    O  -0.800
O591    35.975433282   16.498002254   25.620360479 XXXX 1      oap1    O  -0.800
O592    36.245384971    9.447496487   25.743334537 XXXX 1      oap1    O  -0.800
O593    31.344163756   30.144956234    0.938435607 XXXX 1      oap1    O  -0.650
O594    35.769395953   26.993416279    2.164032370 XXXX 1      oap1    O  -0.600
O595    30.702458323   16.879075090    3.287791983 XXXX 1      oap1    O  -0.600
O596    30.194807744    7.256873783    2.822568861 XXXX 1      oap1    O  -0.650
O597    25.164118547   30.188302919   11.428735085 XXXX 1      oap1    O  -0.800
O598    25.243676717   23.368943049   11.650480879 XXXX 1      oap1    O  -0.800
O599    25.272248849   16.272982598   11.664130342 XXXX 1      oap1    O  -0.800
O600    25.236081734    9.653712765   11.357574104 XXXX 1      oap1    O  -0.800
O601    20.413039026   30.253096828   19.706335136 XXXX 1      oap1    O  -0.800
O602    20.526484153   23.354799277   19.625705453 XXXX 1      oap1    O  -0.800
O603    20.511414648   16.385461226   19.752904356 XXXX 1      oap1    O  -0.800
O604    20.540063830    9.594357018   19.753641000 XXXX 1      oap1    O  -0.800
O605    15.728107927   30.107122247   27.750261614 XXXX 1      oap1    O  -0.800
O606    15.801335445   23.455937208   27.633638783 XXXX 1      oap1    O  -0.800
O607    15.790977269   16.735985990   27.820009277 XXXX 1      oap1    O  -0.800
O608    15.855404416    9.758355474   27.576789645 XXXX 1      oap1    O  -0.800
O609    34.644579581   30.192002903   11.339303049 XXXX 1      oap1    O  -0.800
O610    34.720209146   23.405158186   11.700020955 XXXX 1      oap1    O  -0.800
O611    34.766740866   16.498917550   11.296921404 XXXX 1      oap1    O  -0.800
O612    34.534520928    9.477575913   11.512828981 XXXX 1      oap1    O  -0.800
O613    29.885122241   30.066995898   19.668280869 XXXX 1      oap1    O  -0.800
O614    29.910626565   23.418638373   19.452453592 XXXX 1      oap1    O  -0.800
O615    29.972044306   16.630639962   19.594971607 XXXX 1      oap1    O  -0.800
O616    30.031447550    9.817618786   19.725851608 XXXX 1      oap1    O  -0.800
O617    25.200522921   30.479109238   27.644179684 XXXX 1      oap1    O  -0.800
O618    25.299803249   23.310457869   27.686575196 XXXX 1      oap1    O  -0.800
O619    25.258875126   16.588006869   27.719303803 XXXX 1      oap1    O  -0.800
O620    25.317920710    9.928607732   28.042331206 XXXX 1      oap1    O  -0.800
O621    34.744230783   30.246494917   27.827538101 XXXX 1      oap1    O  -0.800
O622    34.582053463   23.479781718   27.328780066 XXXX 1      oap1    O  -0.800
O623    34.560541000   16.597637990   27.835874514 XXXX 1      oap1    O  -0.800
O624    34.561823867    9.710208015   27.738599463 XXXX 1      oap1    O  -0.800
Ca224   24.537019634   30.094038987    8.135037020 XXXX 1      ca+h    Ca  1.500
Ca225   24.582662662   23.251640513    8.046893774 XXXX 1      ca+h    Ca  1.500
Ca226   24.445926355   16.492539947    7.797813659 XXXX 1      ca+h    Ca  1.500
Ca227   24.572757728    9.661166644    8.031671891 XXXX 1      ca+h    Ca  1.500
Ca228   19.851891682   30.142170651   16.385872790 XXXX 1      ca+h    Ca  1.500
Ca229   19.883889685   23.389668888   16.082109670 XXXX 1      ca+h    Ca  1.500
Ca230   19.861787594   16.508281053   16.196984702 XXXX 1      ca+h    Ca  1.500
Ca231   19.939189299    9.592250131   16.257409304 XXXX 1      ca+h    Ca  1.500
Ca232   15.300423215   30.369016729   24.496594085 XXXX 1      ca+h    Ca  1.500
Ca233   15.208689601   23.425252629   24.377757526 XXXX 1      ca+h    Ca  1.500
Ca234   15.346355796   16.647973325   24.314519459 XXXX 1      ca+h    Ca  1.500
Ca235   15.306740225    9.730914485   24.267217739 XXXX 1      ca+h    Ca  1.500
Ca236   34.108835327   30.217460656    7.795875067 XXXX 1      ca+h    Ca  1.500
Ca237   33.975111808   23.358206050    7.732504231 XXXX 1      ca+h    Ca  1.500
Ca238   33.943504001   16.312310500    7.901745744 XXXX 1      ca+h    Ca  1.500
Ca239   33.921887218    9.851920926    7.998393825 XXXX 1      ca+h    Ca  1.500
Ca240   29.436546908   30.292857195   16.206918087 XXXX 1      ca+h    Ca  1.500
Ca241   29.335104238   23.326640454   16.310166261 XXXX 1      ca+h    Ca  1.500
Ca242   29.348949320   16.440666722   16.069356411 XXXX 1      ca+h    Ca  1.500
Ca243   29.386994838    9.752116996   16.034574547 XXXX 1      ca+h    Ca  1.500
Ca244   24.743590121   30.348461463   24.515213044 XXXX 1      ca+h    Ca  1.500
Ca245   24.638660783   23.276701532   24.270542504 XXXX 1      ca+h    Ca  1.500
Ca246   24.634494820   16.593024211   24.181709947 XXXX 1      ca+h    Ca  1.500
Ca247   24.593850067    9.658680770   24.345156983 XXXX 1      ca+h    Ca  1.500
Ca248   34.094309760   30.245832267   24.178172413 XXXX 1      ca+h    Ca  1.500
Ca249   34.280046828   23.416013624   24.425893164 XXXX 1      ca+h    Ca  1.500
Ca250   34.132656844   16.592884270   24.287036166 XXXX 1      ca+h    Ca  1.500
Ca251   34.065207564    9.714613804   24.255868973 XXXX 1      ca+h    Ca  1.500
P133    26.947823280   30.146339475    6.162508576 XXXX 1      pap     P   1.000
P134    27.165080951   23.100800013    6.308819805 XXXX 1      pap     P   1.000
P135    27.209086701   16.478659611    6.254990732 XXXX 1      pap     P   1.000
P136    27.137821805    9.559417074    6.226188954 XXXX 1      pap     P   1.000
P137    22.425152925   30.203821438   14.432985375 XXXX 1      pap     P   1.000
P138    22.407447201   23.412627719   14.336961937 XXXX 1      pap     P   1.000
P139    22.304603238   16.524469428   14.361637364 XXXX 1      pap     P   1.000
P140    22.541114895    9.680582872   14.431345013 XXXX 1      pap     P   1.000
P141    17.685061256   30.357278256   22.591806662 XXXX 1      pap     P   1.000
P142    17.794175742   23.505911688   22.573021050 XXXX 1      pap     P   1.000
P143    17.879968565   16.639442684   22.533072468 XXXX 1      pap     P   1.000
P144    17.933446299    9.700973562   22.541791197 XXXX 1      pap     P   1.000
P145    36.735660807   30.271629049    6.117948064 XXXX 1      pap     P   1.000
P146    36.617384227   23.237122487    6.061468371 XXXX 1      pap     P   1.000
P147    36.444950784   16.563441188    6.208013917 XXXX 1      pap     P   1.000
P148    36.391354333    9.602546859    6.179527238 XXXX 1      pap     P   1.000
P149    31.737287674   30.174443658   14.260110558 XXXX 1      pap     P   1.000
P150    31.875771959   23.437470293   14.407293500 XXXX 1      pap     P   1.000
P151    31.836576665   16.449550521   14.318118358 XXXX 1      pap     P   1.000
P152    31.904068479    9.626311428   14.319999859 XXXX 1      pap     P   1.000
P153    27.178355488   30.261815421   22.527542442 XXXX 1      pap     P   1.000
P154    27.204469068   23.360356070   22.464713685 XXXX 1      pap     P   1.000
P155    27.295702215   16.723438924   22.585395557 XXXX 1      pap     P   1.000
P156    27.223996653    9.723096776   22.604622166 XXXX 1      pap     P   1.000
P157    36.597219433   30.346682651   22.417733214 XXXX 1      pap     P   1.000
P158    36.661668709   23.529085345   22.438448312 XXXX 1      pap     P   1.000
P159    36.610023604   16.632965702   22.487126351 XXXX 1      pap     P   1.000
P160    36.625248301    9.696970819   22.390324304 XXXX 1      pap     P   1.000
O625    28.413068731   30.241319894    6.700428877 XXXX 1      oap1    O  -0.800
O626    28.528720615   23.156245370    6.977008228 XXXX 1      oap1    O  -0.800
O627    28.466661814   16.694488179    7.096764391 XXXX 1      oap1    O  -0.800
O628    28.601955519    9.557672192    6.777246452 XXXX 1      oap1    O  -0.800
O629    23.702079437   30.112346856   15.260398576 XXXX 1      oap1    O  -0.800
O630    23.771308545   23.452769863   15.061141486 XXXX 1      oap1    O  -0.800
O631    23.693357097   16.171998379   14.956598806 XXXX 1      oap1    O  -0.800
O632    23.843001635    9.539085563   15.231663250 XXXX 1      oap1    O  -0.800
O633    19.014059069   30.312606451   23.283688081 XXXX 1      oap1    O  -0.800
O634    19.116771945   23.506942540   23.374653066 XXXX 1      oap1    O  -0.800
O635    19.276655212   16.576561595   23.117960287 XXXX 1      oap1    O  -0.800
O636    19.224343942    9.678651368   23.421667023 XXXX 1      oap1    O  -0.800
O637    37.904402118   30.409519956    7.112138593 XXXX 1      oap1    O  -0.800
O638    37.987242007   23.265078223    6.775138056 XXXX 1      oap1    O  -0.800
O639    37.922471478   16.605903978    6.732810742 XXXX 1      oap1    O  -0.800
O640    37.801016785    9.630357199    6.794732803 XXXX 1      oap1    O  -0.800
O641    33.061033725   30.133310522   14.979175643 XXXX 1      oap1    O  -0.800
O642    33.281245862   23.488257988   14.943397911 XXXX 1      oap1    O  -0.800
O643    33.100378371   16.649668154   15.168057291 XXXX 1      oap1    O  -0.800
O644    33.281598946    9.531530252   15.066252034 XXXX 1      oap1    O  -0.800
O645    28.583701015   30.226827173   23.188848571 XXXX 1      oap1    O  -0.800
O646    28.610228571   23.337828830   23.143151495 XXXX 1      oap1    O  -0.800
O647    28.575802308   16.537767236   23.320377404 XXXX 1      oap1    O  -0.800
O648    28.530023737    9.736106260   23.403801593 XXXX 1      oap1    O  -0.800
O649    37.887584164   30.535050537   23.253562791 XXXX 1      oap1    O  -0.800
O650    38.043289345   23.685043228   23.047299390 XXXX 1      oap1    O  -0.800
O651    37.977610043   16.717055915   23.208514986 XXXX 1      oap1    O  -0.800
O652    38.034041354    9.911105784   23.048266487 XXXX 1      oap1    O  -0.800
O653    26.768840276   30.370151854    4.697956775 XXXX 1      oap1    O  -0.800
O654    27.279129783   22.824327471    4.802028560 XXXX 1      oap1    O  -0.800
O655    27.597301168   16.516467337    4.809816448 XXXX 1      oap1    O  -0.800
O656    27.036860288    9.795096453    4.696179815 XXXX 1      oap1    O  -0.800
O657    22.840261012   30.296121062   12.979233440 XXXX 1      oap1    O  -0.800
O658    22.540489143   23.506384746   12.789928856 XXXX 1      oap1    O  -0.800
O659    22.357340032   16.716369962   12.842151773 XXXX 1      oap1    O  -0.800
O660    22.765803135    9.759365584   12.871497605 XXXX 1      oap1    O  -0.800
O661    17.843572972   30.337216422   21.044252942 XXXX 1      oap1    O  -0.800
O662    18.065354287   23.451917723   21.066246800 XXXX 1      oap1    O  -0.800
O663    17.897777295   16.730415780   20.996173959 XXXX 1      oap1    O  -0.800
O664    18.207220847    9.697498031   21.033263614 XXXX 1      oap1    O  -0.800
O665    37.314260215   30.200410117    4.662587508 XXXX 1      oap1    O  -0.800
O666    36.643166770   23.318316573    4.511817460 XXXX 1      oap1    O  -0.800
O667    36.393156326   16.705270028    4.717227976 XXXX 1      oap1    O  -0.800
O668    36.367199569    9.340250840    4.676635683 XXXX 1      oap1    O  -0.800
O669    31.953779652   30.245554497   12.744151928 XXXX 1      oap1    O  -0.800
O670    31.867902242   23.315578845   12.845060975 XXXX 1      oap1    O  -0.800
O671    32.165408214   16.273261051   12.816502533 XXXX 1      oap1    O  -0.800
O672    32.011024669    9.563643520   12.806559389 XXXX 1      oap1    O  -0.800
O673    27.309091243   30.176591706   20.985717627 XXXX 1      oap1    O  -0.800
O674    27.209475421   23.407825541   20.915972440 XXXX 1      oap1    O  -0.800
O675    27.462247680   16.788502608   21.036599563 XXXX 1      oap1    O  -0.800
O676    27.487344738    9.685930111   21.099323010 XXXX 1      oap1    O  -0.800
O677    36.857556528   30.253156888   20.878369244 XXXX 1      oap1    O  -0.800
O678    36.777438817   23.524819887   20.924140029 XXXX 1      oap1    O  -0.800
O679    36.678228655   16.559226301   20.912788454 XXXX 1      oap1    O  -0.800
O680    36.747826579    9.556764910   20.862085233 XXXX 1      oap1    O  -0.800
Ca252   30.500956519   30.214065479    5.838370355 XXXX 1      ca+h    Ca  1.500
Ca253   30.490900253   23.208085155    5.851928568 XXXX 1      ca+h    Ca  1.500
Ca254   30.589860338   16.117257709    6.003806996 XXXX 1      ca+h    Ca  1.500
Ca255   30.785460136    9.584668011    5.891820332 XXXX 1      ca+h    Ca  1.500
Ca256   25.915268858   30.253758977   14.131817033 XXXX 1      ca+h    Ca  1.500
Ca257   25.856401913   23.361996302   14.014892718 XXXX 1      ca+h    Ca  1.500
Ca258   25.815919414   16.446827818   14.075595307 XXXX 1      ca+h    Ca  1.500
Ca259   25.946828952    9.631613115   14.095169182 XXXX 1      ca+h    Ca  1.500
Ca260   21.101717662   30.205801843   22.190471044 XXXX 1      ca+h    Ca  1.500
Ca261   21.079647254   23.461467701   22.261907332 XXXX 1      ca+h    Ca  1.500
Ca262   21.387948076   16.666821812   22.097516095 XXXX 1      ca+h    Ca  1.500
Ca263   21.296687032    9.795664102   22.225838849 XXXX 1      ca+h    Ca  1.500
Ca264   35.183104032   30.271687846   13.966772906 XXXX 1      ca+h    Ca  1.500
Ca265   35.448133992   23.390091896   14.000237670 XXXX 1      ca+h    Ca  1.500
Ca266   35.314015409   16.651038827   13.935825092 XXXX 1      ca+h    Ca  1.500
Ca267   35.360315043    9.482367568   13.946938397 XXXX 1      ca+h    Ca  1.500
Ca268   30.604714226   30.277106030   22.146725301 XXXX 1      ca+h    Ca  1.500
Ca269   30.767569688   23.371612804   22.205493184 XXXX 1      ca+h    Ca  1.500
Ca270   30.659736013   16.599965157   22.115418808 XXXX 1      ca+h    Ca  1.500
Ca271   30.640474096    9.695740118   22.330905239 XXXX 1      ca+h    Ca  1.500
P161    30.966993985   30.172985068    8.880358117 XXXX 1      pap     P   1.000
P162    31.049684181   23.195710662    8.977496424 XXXX 1      pap     P   1.000
P163    30.992597636   16.521564058    8.992112492 XXXX 1      pap     P   1.000
P164    30.974402321    9.725387903    8.926493004 XXXX 1      pap     P   1.000
P165    26.181687499   30.279452900   17.200536197 XXXX 1      pap     P   1.000
P166    26.160485279   23.349113139   17.122685217 XXXX 1      pap     P   1.000
P167    26.160499323   16.482977725   17.224846891 XXXX 1      pap     P   1.000
P168    26.168002243    9.545198701   17.238498346 XXXX 1      pap     P   1.000
P169    21.453075319   30.225272302   25.405745173 XXXX 1      pap     P   1.000
P170    21.438897580   23.444958646   25.396833536 XXXX 1      pap     P   1.000
P171    21.659626209   16.504122543   25.234742706 XXXX 1      pap     P   1.000
P172    21.586688292    9.680504413   25.354505468 XXXX 1      pap     P   1.000
P173    35.568680878   30.338730363   17.071186293 XXXX 1      pap     P   1.000
P174    35.689427887   23.475993533   17.143502360 XXXX 1      pap     P   1.000
P175    35.697487150   16.631026158   17.038928177 XXXX 1      pap     P   1.000
P176    35.660450546    9.583146760   17.095668731 XXXX 1      pap     P   1.000
P177    30.923246802   30.332486582   25.365257833 XXXX 1      pap     P   1.000
P178    30.880981524   23.517370523   25.165294398 XXXX 1      pap     P   1.000
P179    31.031529788   16.617466737   25.263704424 XXXX 1      pap     P   1.000
P180    30.870396948    9.694425756   25.361856974 XXXX 1      pap     P   1.000
O681    29.747616142   30.135833247    9.811496678 XXXX 1      oap1    O  -0.800
O682    29.732633786   23.172195379    9.774579686 XXXX 1      oap1    O  -0.800
O683    29.764634975   16.876892133    9.814360522 XXXX 1      oap1    O  -0.800
O684    29.641819054    9.506925038    9.726498968 XXXX 1      oap1    O  -0.800
O685    24.896713256   30.293230354   18.088863422 XXXX 1      oap1    O  -0.800
O686    24.878931943   23.567080285   17.839499747 XXXX 1      oap1    O  -0.800
O687    24.820168799   16.680684674   17.957423663 XXXX 1      oap1    O  -0.800
O688    24.794151579    9.775395971   17.835713327 XXXX 1      oap1    O  -0.800
O689    20.144371596   30.317489889   26.255951082 XXXX 1      oap1    O  -0.800
O690    20.184088050   23.222982523   26.206230810 XXXX 1      oap1    O  -0.800
O691    20.341653180   16.385389100   26.022064134 XXXX 1      oap1    O  -0.800
O692    20.226586572    9.583122706   26.148413653 XXXX 1      oap1    O  -0.800
O693    34.328844879   30.402906587   17.908356919 XXXX 1      oap1    O  -0.800
O694    34.331441639   23.361907113   17.915300632 XXXX 1      oap1    O  -0.800
O695    34.450232979   16.802569053   17.891184931 XXXX 1      oap1    O  -0.800
O696    34.354271579    9.666523603   17.859282595 XXXX 1      oap1    O  -0.800
O697    29.640951587   30.364884198   26.180223901 XXXX 1      oap1    O  -0.800
O698    29.638406683   23.533445921   26.010025068 XXXX 1      oap1    O  -0.800
O699    29.759805843   16.716267461   26.157355160 XXXX 1      oap1    O  -0.800
O700    29.672871592    9.659468597   26.292247054 XXXX 1      oap1    O  -0.800
O701    32.286164886   30.135057818    9.744809614 XXXX 1      oap1    O  -0.800
O702    32.243420293   23.278067375    9.941439241 XXXX 1      oap1    O  -0.800
O703    32.193129986   16.292472031    9.867619016 XXXX 1      oap1    O  -0.800
O704    32.159782576    9.764990126    9.912092727 XXXX 1      oap1    O  -0.800
O705    27.468384821   30.325461721   17.999800088 XXXX 1      oap1    O  -0.800
O706    27.413268669   23.243832329   18.043992916 XXXX 1      oap1    O  -0.800
O707    27.360542572   16.514691176   18.203151049 XXXX 1      oap1    O  -0.800
O708    27.168454945    9.632949520   18.392101752 XXXX 1      oap1    O  -0.800
O709    22.737318091   30.150417800   26.284024021 XXXX 1      oap1    O  -0.800
O710    22.745392762   23.552094669   26.254007641 XXXX 1      oap1    O  -0.800
O711    22.910774536   16.718194817   26.146006028 XXXX 1      oap1    O  -0.800
O712    22.878307680    9.732066810   26.258504225 XXXX 1      oap1    O  -0.800
O713    36.884250219   30.329034985   17.984958676 XXXX 1      oap1    O  -0.800
O714    36.943615158   23.520004694   18.072988244 XXXX 1      oap1    O  -0.800
O715    36.949897434   16.520479166   17.985460212 XXXX 1      oap1    O  -0.800
O716    36.902281842    9.641683408   18.009625981 XXXX 1      oap1    O  -0.800
O717    32.210361160   30.358350028   26.209483620 XXXX 1      oap1    O  -0.800
O718    32.058432840   23.584856146   26.070475162 XXXX 1      oap1    O  -0.800
O719    32.299736397   16.544772845   26.082144391 XXXX 1      oap1    O  -0.800
O720    32.223200666    9.614933431   26.118161618 XXXX 1      oap1    O  -0.800
O721    23.565660082   33.046707513    5.837589208 XXXX 1      oap2    O  -1.100
O722    23.669945224   24.928593343    6.227307675 XXXX 1      oap2    O  -1.100
O723    23.501802761   18.642353345    5.753785363 XXXX 1      oap2    O  -1.100
O724    23.616343696   11.936446269    5.685812920 XXXX 1      oap2    O  -1.100
O725    18.825076793   34.285747840   14.177552696 XXXX 1      oap2    O  -1.100
O726    18.831781990   27.758988571   14.123270225 XXXX 1      oap2    O  -1.100
O727    18.764562863   20.824291212   14.168001094 XXXX 1      oap2    O  -1.100
O728    18.931283594   12.692850204   14.163967560 XXXX 1      oap2    O  -1.100
O729    13.988017046   34.457947262   22.370216258 XXXX 1      oap2    O  -1.100
O730    14.075325457   27.602305215   22.240631602 XXXX 1      oap2    O  -1.100
O731    14.136643769   20.938951796   22.333302791 XXXX 1      oap2    O  -1.100
O732    14.378941735   13.848532380   22.292838806 XXXX 1      oap2    O  -1.100
O733    34.855105357   32.977313967    3.685657615 XXXX 1      oap2    O  -1.100
O734    33.070636883   27.254342723    5.853290112 XXXX 1      oap2    O  -1.100
O735    33.021850526   19.517884020    5.346439647 XXXX 1      oap2    O  -1.100
O736    33.019964425   10.676074437    5.752069770 XXXX 1      oap2    O  -1.100
O737    28.004917436   34.390274090   14.096459596 XXXX 1      oap2    O  -1.100
O738    28.120008544   27.432164478   13.887544904 XXXX 1      oap2    O  -1.100
O739    28.311878782   19.076152441   14.117938294 XXXX 1      oap2    O  -1.100
O740    28.373990317   12.247239182   14.222715715 XXXX 1      oap2    O  -1.100
O741    23.246016841   33.552399849   22.265570127 XXXX 1      oap2    O  -1.100
O742    23.595073187   27.577198250   22.301565365 XXXX 1      oap2    O  -1.100
O743    23.519016945   20.829563780   22.427714967 XXXX 1      oap2    O  -1.100
O744    23.622633085   13.813058743   22.255106485 XXXX 1      oap2    O  -1.100
O745    32.936411073   33.855876088   22.204697890 XXXX 1      oap2    O  -1.100
O746    33.064591666   26.337165246   22.036646076 XXXX 1      oap2    O  -1.100
O747    32.971907309   20.478937466   22.086717032 XXXX 1      oap2    O  -1.100
O748    32.998321428   12.491192755   22.308028533 XXXX 1      oap2    O  -1.100
O749    23.415747579   29.977475496    5.957346861 XXXX 1      oap2    O  -1.100
O750    23.441406120   21.413161606    6.274783607 XXXX 1      oap2    O  -1.100
O751    23.273000865   15.045031658    6.031788244 XXXX 1      oap2    O  -1.100
O752    23.483186165    8.851132584    6.018528076 XXXX 1      oap2    O  -1.100
O753    18.685108070   31.140589446   14.480494969 XXXX 1      oap2    O  -1.100
O754    18.885397981   24.283085750   14.037787232 XXXX 1      oap2    O  -1.100
O755    18.883972904   17.422492239   14.117886248 XXXX 1      oap2    O  -1.100
O756    18.973386056    9.961860479   14.121145560 XXXX 1      oap2    O  -1.100
O757    14.043104750   30.977454060   22.490196895 XXXX 1      oap2    O  -1.100
O758    14.203059681   24.142819827   22.356172697 XXXX 1      oap2    O  -1.100
O759    14.147244368   17.374500028   22.345889983 XXXX 1      oap2    O  -1.100
O760    14.303646067   10.285985189   22.159538300 XXXX 1      oap2    O  -1.100
O761    32.993841751   30.726763041    5.685617997 XXXX 1      oap2    O  -1.100
O762    32.840938447   23.994846253    5.568734371 XXXX 1      oap2    O  -1.100
O763    32.830855751   14.529732215    6.475759105 XXXX 1      oap2    O  -1.100
O764    32.857385830    7.465590575    5.839235526 XXXX 1      oap2    O  -1.100
O765    28.267085975   30.787461897   14.181951964 XXXX 1      oap2    O  -1.100
O766    28.196457415   22.674663987   14.265178016 XXXX 1      oap2    O  -1.100
O767    28.263807301   15.645763598   14.051892911 XXXX 1      oap2    O  -1.100
O768    28.309975386    9.137954725   14.011469998 XXXX 1      oap2    O  -1.100
O769    23.470531552   30.608320607   22.476161726 XXXX 1      oap2    O  -1.100
O770    23.487539938   24.055976757   22.269970268 XXXX 1      oap2    O  -1.100
O771    23.583303012   17.461549405   22.126376351 XXXX 1      oap2    O  -1.100
O772    23.613449350   10.375739294   22.284539817 XXXX 1      oap2    O  -1.100
O773    32.925581752   29.418537564   22.340164380 XXXX 1      oap2    O  -1.100
O774    33.161061885   23.453212841   22.269714524 XXXX 1      oap2    O  -1.100
O775    32.967646450   16.154018623   22.156254317 XXXX 1      oap2    O  -1.100
O776    32.915316333    9.091074929   22.258019001 XXXX 1      oap2    O  -1.100
H1      22.784273475   32.492407966    5.757402574 XXXX 1      hop     H   0.200
H2      24.018835829   24.315863092    5.564270032 XXXX 1      hop     H   0.200
H3      23.666153000   17.998570140    5.124554505 XXXX 1      hop     H   0.200
H4      23.371136219   11.092258305    6.075264754 XXXX 1      hop     H   0.200
H5      18.571834281   35.167595004   14.134827834 XXXX 1      hop     H   0.200
H6      18.861802298   28.418622014   14.904482557 XXXX 1      hop     H   0.200
H7      18.393997186   21.520525580   13.741511806 XXXX 1      hop     H   0.200
H8      18.584681126   11.779606840   14.252408737 XXXX 1      hop     H   0.200
H9      14.193981280   35.386607823   22.451847746 XXXX 1      hop     H   0.200
H10     14.009818126   28.523030699   22.442675413 XXXX 1      hop     H   0.200
H11     13.723208003   21.604317911   22.861627997 XXXX 1      hop     H   0.200
H12     14.513167954   14.776069457   22.235297885 XXXX 1      hop     H   0.200
H13     34.656016810   32.072886133    3.960148560 XXXX 1      hop     H   0.200
H14     33.191464837   28.158415566    6.004288343 XXXX 1      hop     H   0.200
H15     32.667846632   20.245806437    4.826700207 XXXX 1      hop     H   0.200
H16     32.558411321   11.351588431    5.291421069 XXXX 1      hop     H   0.200
H17     27.723443950   35.273498931   13.909722701 XXXX 1      hop     H   0.200
H18     27.994141905   28.298185598   14.169228204 XXXX 1      hop     H   0.200
H19     28.400695740   18.072841680   14.062780201 XXXX 1      hop     H   0.200
H20     28.208609071   11.349167588   13.931401912 XXXX 1      hop     H   0.200
H21     22.619677605   32.829605674   22.347846266 XXXX 1      hop     H   0.200
H22     24.069665026   28.353939767   22.243850874 XXXX 1      hop     H   0.200
H23     23.565723795   21.784445702   22.216112006 XXXX 1      hop     H   0.200
H24     23.402479968   14.680420146   21.858160980 XXXX 1      hop     H   0.200
H25     32.721220800   34.758441612   22.151476901 XXXX 1      hop     H   0.200
H26     32.852558965   25.418224614   22.099275460 XXXX 1      hop     H   0.200
H27     33.046525694   21.410899832   22.435122808 XXXX 1      hop     H   0.200
H28     33.269050713   11.744795877   21.822598801 XXXX 1      hop     H   0.200
H29     23.661405026   29.257570323    5.375902507 XXXX 1      hop     H   0.200
H30     23.909118070   22.074976100    5.744329280 XXXX 1      hop     H   0.200
H31     23.947517982   15.508555766    5.637296553 XXXX 1      hop     H   0.200
H32     23.391479919    7.898924135    6.160139702 XXXX 1      hop     H   0.200
H33     19.191762654   31.958691991   14.657073080 XXXX 1      hop     H   0.200
H34     18.862406543   25.034262453   14.586084735 XXXX 1      hop     H   0.200
H35     18.634654387   18.300286396   14.124902056 XXXX 1      hop     H   0.200
H36     19.302896309   10.851792943   14.059058001 XXXX 1      hop     H   0.200
H37     13.956470717   31.775775639   22.981366967 XXXX 1      hop     H   0.200
H38     14.155388025   25.028262631   22.707416315 XXXX 1      hop     H   0.200
H39     13.649735646   17.979259720   22.883838112 XXXX 1      hop     H   0.200
H40     14.192852199   11.228521412   22.245120920 XXXX 1      hop     H   0.200
H41     33.838058821   31.019973167    5.280271529 XXXX 1      hop     H   0.200
H42     33.471843584   23.448297469    5.215833715 XXXX 1      hop     H   0.200
H43     32.884727168   14.874734387    5.585811755 XXXX 1      hop     H   0.200
H44     32.170498793    7.338996793    5.220230748 XXXX 1      hop     H   0.200
H45     28.469852302   31.621530177   14.574180497 XXXX 1      hop     H   0.200
H46     27.699695335   21.850438138   14.109543642 XXXX 1      hop     H   0.200
H47     28.269590854   14.760181279   14.345540782 XXXX 1      hop     H   0.200
H48     28.388806664    8.146089252   14.008667858 XXXX 1      hop     H   0.200
H49     23.303628906   31.532540343   22.454705544 XXXX 1      hop     H   0.200
H50     23.571520689   25.002651501   22.348601071 XXXX 1      hop     H   0.200
H51     23.695264015   18.340587995   22.460563020 XXXX 1      hop     H   0.200
H52     23.320524847   11.274494715   22.376393439 XXXX 1      hop     H   0.200
H53     32.874438256   28.457325080   22.100771451 XXXX 1      hop     H   0.200
H54     33.314864802   24.365749232   22.474968038 XXXX 1      hop     H   0.200
H55     33.009628517   15.245653049   22.347633208 XXXX 1      hop     H   0.200
H56     32.839995022    8.139754658   22.421906930 XXXX 1      hop     H   0.200
H57     25.688873880   13.757269919    0.789513812 XXXX 1      hop     H   0.400
H58     26.494367720   21.503868047    1.260357749 XXXX 1      hop     H   0.400
H59     22.476208045   27.497348131    4.396371447 XXXX 1      hop     H   0.400
H60     24.666999431   35.963909755    1.352104056 XXXX 1      hop     H   0.400
H61     27.265894330   13.885407077    3.460934724 XXXX 1      hop     H   0.400
H62     26.521059511   21.881552977    4.310802092 XXXX 1      hop     H   0.400
H63     23.697979697   26.341810219    1.987545207 XXXX 1      hop     H   0.400
H64     25.454185580   32.798511296    0.556217091 XXXX 1      hop     H   0.400
H65     31.187417184    8.526172521    0.366582491 XXXX 1      hop     H   0.400
H66     32.844919699   18.953348418    3.554600522 XXXX 1      hop     H   0.400
H67     34.921454137   24.175544595    1.177009445 XXXX 1      hop     H   0.400
H68     32.202373692   28.459794176    1.812976650 XXXX 1      hop     H   0.400
H69     35.840935363   24.630871462    4.035264652 XXXX 1      hop     H   0.400
H70     32.137894094   30.586656401    1.148320273 XXXX 1      hop     H   0.400
H71     30.075990508    7.183866961    3.800105229 XXXX 1      hop     H   0.400
H72     32.762500501   18.093745084    5.228611786 XXXX 1      hop     H   0.400
H73     33.795240333   14.447466825    3.538424343 XXXX 1      hop     H   0.400
H74     33.388967273   14.131439098    1.935495759 XXXX 1      hop     H   0.400
H75     34.291400995   18.704423772    1.593139714 XXXX 1      hop     H   0.400
H76     35.832795654   17.796331347    3.963205001 XXXX 1      hop     H   0.400
H77     33.438426731   29.910704902    4.314435598 XXXX 1      hop     H   0.400
H78     34.666861048   28.190575618    1.193168328 XXXX 1      hop     H   0.400
H79     34.561385010   33.519368435    2.478888458 XXXX 1      hop     H   0.400
H80     35.606251815   35.005806094   -0.593363124 XXXX 1      hop     H   0.400
end
O1      24.379884335    7.262211448    8.487910518 XXXX 1      oap1    O  -0.800
O2      19.595849801    7.348050180   17.017272018 XXXX 1      oap1    O  -0.800
O3      15.056130766    7.536528442   25.079977515 XXXX 1      oap1    O  -0.800
O4      33.819165927    7.659618596    8.955893264 XXXX 1      oap1    O  -0.800
O5      29.118816518    7.557699723   17.011820345 XXXX 1      oap1    O  -0.800
O6      24.463877015    7.341404259   25.165852754 XXXX 1      oap1    O  -0.800
O7      33.892219659    7.468824931   24.876073483 XXXX 1      oap1    O  -0.800
O8      30.020148618    7.524552505    5.291555736 XXXX 1      oap1    O  -0.800
O9      25.228605117    7.523192672   13.362896830 XXXX 1      oap1    O  -0.800
O10     20.718345389    7.582888802   21.566979370 XXXX 1      oap1    O  -0.800
O11     15.922690186    7.562514602   29.585208243 XXXX 1      oap1    O  -0.800
O12     34.926605063    7.196001265   13.405103327 XXXX 1      oap1    O  -0.800
O13     30.335817103    7.376461126   21.776460577 XXXX 1      oap1    O  -0.800
O14     25.319140469    7.392449402   29.638901251 XXXX 1      oap1    O  -0.800
O15     34.881244578    7.477729144   29.767453855 XXXX 1      oap1    O  -0.800
O16     25.060064520    6.865803507    3.845273531 XXXX 1      oap1    O  -0.600
O17     20.813266961    7.490755331   12.003341083 XXXX 1      oap1    O  -0.800
O18     16.337463660    7.456045719   20.130766443 XXXX 1      oap1    O  -0.800
O19     11.177233153    7.392806191   28.294669047 XXXX 1      oap1    O  -0.800
O20     34.568473288    5.088453612    4.189290475 XXXX 1      oap1    O  -0.600
O21     30.455216880    7.349048347   11.868140018 XXXX 1      oap1    O  -0.800
O22     25.488803849    7.456426109   20.332084647 XXXX 1      oap1    O  -0.800
O23     21.036685563    7.538967001   28.426924969 XXXX 1      oap1    O  -0.800
O24     34.802319491    7.306708309   20.303565511 XXXX 1      oap1    O  -0.800
O25     30.003824660    7.401333122   28.428806469 XXXX 1      oap1    O  -0.800
O26     32.220593082    2.198278948    3.108434624 XXXX 1      oap1    O  -0.600
O27     27.498902131    3.867232456   10.893889073 XXXX 1      oap1    O  -0.800
O28     22.673491624    4.044896883   19.527459718 XXXX 1      oap1    O  -0.800
O29     18.056085832    4.141965783   27.690474458 XXXX 1      oap1    O  -0.800
O30     36.784459159    3.749579151   11.519928287 XXXX 1      oap1    O  -0.800
O31     32.017339110    3.947078591   19.405392280 XXXX 1      oap1    O  -0.800
O32     27.453308513    4.050453678   27.743656436 XXXX 1      oap1    O  -0.800
O33     36.725812286    4.200157667   27.404781113 XXXX 1      oap1    O  -0.800
O34     26.212724533    3.970964171    6.439888934 XXXX 1      oap1    O  -0.800
O35     21.604905328    4.082469846   14.742507534 XXXX 1      oap1    O  -0.800
O36     17.091525156    4.185052256   23.118034026 XXXX 1      oap1    O  -0.800
O37     35.849436054    4.122068391    6.563505915 XXXX 1      oap1    O  -0.800
O38     31.261288262    3.921975289   14.902957962 XXXX 1      oap1    O  -0.800
O39     26.035982381    3.877923368   22.869325984 XXXX 1      oap1    O  -0.800
O40     35.902121636    4.020710512   23.078968413 XXXX 1      oap1    O  -0.800
O41     30.693501605    4.005029345    7.958940600 XXXX 1      oap1    O  -0.800
O42     26.108406945    4.003363735   16.468980648 XXXX 1      oap1    O  -0.800
O43     21.546933950    4.017232069   24.619998310 XXXX 1      oap1    O  -0.800
O44     35.368673355    4.043061921   16.296075644 XXXX 1      oap1    O  -0.800
O45     30.873605365    4.041309545   24.408806907 XXXX 1      oap1    O  -0.800
O46     30.762365410    0.216978753    3.032590036 XXXX 1      oap1    O  -0.650
O47     27.477284614    1.512814123   11.121174500 XXXX 1      oap1    O  -0.800
O48     22.724604132    1.542385697   19.280089778 XXXX 1      oap1    O  -0.800
O49     18.080109548    1.655761202   27.972257486 XXXX 1      oap1    O  -0.800
O50     36.742195236    1.384711837   10.849893709 XXXX 1      oap1    O  -0.800
O51     32.179453226    1.481166897   19.486245742 XXXX 1      oap1    O  -0.800
O52     27.478183534    1.574338938   27.834687086 XXXX 1      oap1    O  -0.800
O53     36.869774308    1.767560583   28.006265302 XXXX 1      oap1    O  -0.800
O54     26.610033188    1.457532840    6.010228819 XXXX 1      oap1    O  -0.800
O55     21.685516140    1.580126602   15.000760403 XXXX 1      oap1    O  -0.800
O56     16.835153809    1.700303483   22.986717827 XXXX 1      oap1    O  -0.800
O57     35.578731181    1.744297617    6.071975282 XXXX 1      oap1    O  -0.800
O58     30.936402016    1.461602544   14.926887074 XXXX 1      oap1    O  -0.800
O59     26.629445280    1.358900249   23.059892159 XXXX 1      oap1    O  -0.800
O60     35.787926360    1.618725429   23.004398040 XXXX 1      oap1    O  -0.800
O61     30.798270999    1.504385445    8.113005871 XXXX 1      oap1    O  -0.800
O62     26.109916182    1.476057743   16.304006062 XXXX 1      oap1    O  -0.800
O63     21.382317629    1.609607912   24.784090316 XXXX 1      oap1    O  -0.800
O64     35.676950065    1.614796995   16.177984482 XXXX 1      oap1    O  -0.800
O65     30.840096543    1.484213758   24.556389931 XXXX 1      oap1    O  -0.800
O66     24.226930188    4.745667557    8.965786507 XXXX 1      oap1    O  -0.800
O67     19.666116724    4.859074379   17.031616765 XXXX 1      oap1    O  -0.800
O68     15.030915521    5.036663940   25.094240104 XXXX 1      oap1    O  -0.800
O69     33.870710469    5.242105438    8.229924010 XXXX 1      oap1    O  -0.800
O70     28.944974254    4.996466829   17.033564630 XXXX 1      oap1    O  -0.800
O71     24.246610950    4.969491300   25.426062504 XXXX 1      oap1    O  -0.800
O72     33.854065097    4.959227795   25.022787709 XXXX 1      oap1    O  -0.800
O73     30.141528378    5.014351198    5.167740639 XXXX 1      oap1    O  -0.800
O74     25.470681595    5.036496761   13.524296062 XXXX 1      oap1    O  -0.800
O75     20.946839177    5.092711546   21.746826342 XXXX 1      oap1    O  -0.800
O76     15.787498108    5.193869706   29.975417307 XXXX 1      oap1    O  -0.800
O77     34.518714630    4.748936098   13.406241928 XXXX 1      oap1    O  -0.800
O78     29.913234720    4.964266850   21.555884172 XXXX 1      oap1    O  -0.800
O79     25.528192323    4.934369593   29.827855551 XXXX 1      oap1    O  -0.800
O80     34.688735084    5.011108969   29.622586198 XXXX 1      oap1    O  -0.800
O81     26.495615146    5.170960113    2.454342247 XXXX 1      oap1    O  -0.600
O82     20.976645098    5.083966698   11.862079871 XXXX 1      oap1    O  -0.800
O83     15.913261815    5.023430892   20.274933748 XXXX 1      oap1    O  -0.800
O84     11.654105892    5.043094870   28.199880409 XXXX 1      oap1    O  -0.800
O85     35.692266004    4.825013792    2.178051641 XXXX 1      oap1    O  -0.600
O86     30.428770742    4.896633682   11.996316883 XXXX 1      oap1    O  -0.800
O87     25.654443168    4.939960666   20.283772535 XXXX 1      oap1    O  -0.800
O88     20.923288691    5.011772917   28.450755139 XXXX 1      oap1    O  -0.800
O89     34.980100633    4.818808155   20.167062696 XXXX 1      oap1    O  -0.800
O90     30.200314100    4.955202478   28.256668862 XXXX 1      oap1    O  -0.800
Ca1     28.148593432    7.830247305    8.727622651 XXXX 1      ca+h    Ca  1.500
Ca2     23.685797159    7.879794867   16.935627993 XXXX 1      ca+h    Ca  1.500
Ca3     18.808510252    7.908981734   25.189340997 XXXX 1      ca+h    Ca  1.500
Ca4     32.829469596    7.928245882   16.887633796 XXXX 1      ca+h    Ca  1.500
Ca5     28.175873708    7.826278264   24.855561900 XXXX 1      ca+h    Ca  1.500
Ca6     28.644261207    4.724846886    3.345093774 XXXX 1      ca+h    Ca  1.500
Ca7     23.504998579    4.475534590   11.316882014 XXXX 1      ca+h    Ca  1.500
Ca8     18.914029045    4.458518086   19.517118531 XXXX 1      ca+h    Ca  1.500
Ca9     14.147634105    4.709913228   27.795812232 XXXX 1      ca+h    Ca  1.500
Ca10    32.903496742    4.381176906   11.573502802 XXXX 1      ca+h    Ca  1.500
Ca11    28.222143851    4.459952226   19.697524525 XXXX 1      ca+h    Ca  1.500
Ca12    23.541386273    4.513345524   27.860420751 XXXX 1      ca+h    Ca  1.500
Ca13    33.015631572    4.612530549   27.664727880 XXXX 1      ca+h    Ca  1.500
Ca14    27.755996191    0.854088943    3.630219697 XXXX 1      ca+h    Ca  1.500
Ca15    23.448645112    1.061146199   11.589707550 XXXX 1      ca+h    Ca  1.500
Ca16    18.768051235    1.003847903   19.628078549 XXXX 1      ca+h    Ca  1.500
Ca17    14.062519290    1.164548588   27.543386531 XXXX 1      ca+h    Ca  1.500
Ca18    33.032618675    0.998603803   11.233703025 XXXX 1      ca+h    Ca  1.500
Ca19    28.236690111    0.907025697   19.650947617 XXXX 1      ca+h    Ca  1.500
Ca20    23.716165669    1.040547790   27.923499707 XXXX 1      ca+h    Ca  1.500
Ca21    32.906997275    1.208318619   27.682333805 XXXX 1      ca+h    Ca  1.500
Ca22    28.363153380    4.512348840    8.801959552 XXXX 1      ca+h    Ca  1.500
Ca23    23.520195492    4.513556684   16.969975848 XXXX 1      ca+h    Ca  1.500
Ca24    18.930287751    4.535687910   25.030565117 XXXX 1      ca+h    Ca  1.500
Ca25    32.969267675    4.366690082   16.776196550 XXXX 1      ca+h    Ca  1.500
Ca26    28.408207273    4.455271744   25.063958114 XXXX 1      ca+h    Ca  1.500
Ca27    22.301013981    6.201630639    7.786801870 XXXX 1      ca+h    Ca  1.500
Ca28    17.529070540    6.216335746   16.261411315 XXXX 1      ca+h    Ca  1.500
Ca29    12.954844944    6.234569305   24.087349155 XXXX 1      ca+h    Ca  1.500
Ca30    31.741979674    6.366763181    7.726049447 XXXX 1      ca+h    Ca  1.500
Ca31    26.987175278    6.121015736   16.176773743 XXXX 1      ca+h    Ca  1.500
Ca32    22.345916691    6.258673919   24.481873365 XXXX 1      ca+h    Ca  1.500
Ca33    36.327834608    6.085858250   16.008727913 XXXX 1      ca+h    Ca  1.500
Ca34    31.722402488    6.310986305   24.288934013 XXXX 1      ca+h    Ca  1.500
P1      25.028729194    6.099924774    9.212621249 XXXX 1      pap     P   1.000
P2      20.460676609    6.150238947   17.379860713 XXXX 1      pap     P   1.000
P3      15.828341690    6.266984424   25.477808136 XXXX 1      pap     P   1.000
P4      34.518262554    6.298670921    9.147055873 XXXX 1      pap     P   1.000
P5      29.769382441    6.265252223   17.429478776 XXXX 1      pap     P   1.000
P6      25.197289465    6.091470173   25.711284706 XXXX 1      pap     P   1.000
P7      34.599648507    6.261554399   25.444478254 XXXX 1      pap     P   1.000
O91     24.954664147    6.347312316   10.723523863 XXXX 1      oap1    O  -0.800
O92     20.503060151    6.104514373   18.915063946 XXXX 1      oap1    O  -0.800
O93     15.955366619    6.123876548   27.078489115 XXXX 1      oap1    O  -0.800
O94     34.408247505    5.847552524   10.617253374 XXXX 1      oap1    O  -0.800
O95     29.823335483    6.265342356   19.003378036 XXXX 1      oap1    O  -0.800
O96     25.407918555    6.246587405   27.263886779 XXXX 1      oap1    O  -0.800
O97     34.516735230    6.285962718   27.022469445 XXXX 1      oap1    O  -0.800
O98     26.504100730    6.076014324    8.699692706 XXXX 1      oap1    O  -0.800
O99     21.900071009    6.189287910   16.746858274 XXXX 1      oap1    O  -0.800
O100    17.198036428    6.198847073   24.760325638 XXXX 1      oap1    O  -0.800
O101    36.019309748    6.287065199    8.789631664 XXXX 1      oap1    O  -0.800
O102    31.153374678    6.075684002   16.805910954 XXXX 1      oap1    O  -0.800
O103    26.485267613    5.822898131   24.893927242 XXXX 1      oap1    O  -0.800
O104    36.026220247    6.276105567   24.901265564 XXXX 1      oap1    O  -0.800
Ca35    27.114019810    6.077780064   12.067367684 XXXX 1      ca+h    Ca  1.500
Ca36    22.519770335    6.222587717   20.310558725 XXXX 1      ca+h    Ca  1.500
Ca37    17.795041563    6.337106691   28.670851072 XXXX 1      ca+h    Ca  1.500
Ca38    36.512458599    6.034794132   11.948301797 XXXX 1      ca+h    Ca  1.500
Ca39    31.829556611    6.163689377   20.269999251 XXXX 1      ca+h    Ca  1.500
Ca40    27.307823031    6.354799723   28.605969493 XXXX 1      ca+h    Ca  1.500
Ca41    36.515862114    6.216908992   28.460262200 XXXX 1      ca+h    Ca  1.500
P8      29.368413608    6.230607779    5.779700217 XXXX 1      pap     P   1.000
P9      24.593595771    6.227482688   13.873532582 XXXX 1      pap     P   1.000
P10     20.011497040    6.301560991   22.041280984 XXXX 1      pap     P   1.000
P11     15.026165160    6.484146735   30.210340900 XXXX 1      pap     P   1.000
P12     33.948777499    6.133625839   13.908050078 XXXX 1      pap     P   1.000
P13     29.393081605    6.226585615   22.151644691 XXXX 1      pap     P   1.000
P14     24.812054805    6.149000038   30.348508758 XXXX 1      pap     P   1.000
P15     34.004599516    6.231378724   30.163680341 XXXX 1      pap     P   1.000
O105    27.899255008    6.122262284    5.242327671 XXXX 1      oap1    O  -0.800
O106    23.311294379    6.082147988   13.079319755 XXXX 1      oap1    O  -0.800
O107    18.722329990    6.099553113   21.207822958 XXXX 1      oap1    O  -0.800
O108    13.747444201    6.483351858   29.399308249 XXXX 1      oap1    O  -0.800
O109    32.641318703    6.256754035   13.141732275 XXXX 1      oap1    O  -0.800
O110    28.041193176    6.437574429   21.506149639 XXXX 1      oap1    O  -0.800
O111    23.364857356    6.137402988   30.016658547 XXXX 1      oap1    O  -0.800
O112    32.628169779    6.314391346   29.400738320 XXXX 1      oap1    O  -0.800
O113    29.277114471    6.181480752    7.370215410 XXXX 1      oap1    O  -0.800
O114    24.430696277    6.220374698   15.383335464 XXXX 1      oap1    O  -0.800
O115    19.826406750    6.315978661   23.589364958 XXXX 1      oap1    O  -0.800
O116    14.820929632    6.665627389   31.745906727 XXXX 1      oap1    O  -0.800
O117    33.759517141    6.147825227   15.445597743 XXXX 1      oap1    O  -0.800
O118    29.360476467    6.160208906   23.661869854 XXXX 1      oap1    O  -0.800
O119    25.045062368    6.181198875   31.916112696 XXXX 1      oap1    O  -0.800
O120    33.727327383    6.108832879   31.705389294 XXXX 1      oap1    O  -0.800
Ca42    25.699360237    6.147056245    6.041616611 XXXX 1      ca+h    Ca  1.500
Ca43    21.182293860    6.363064263   14.192330464 XXXX 1      ca+h    Ca  1.500
Ca44    16.450573763    6.316561290   22.294311691 XXXX 1      ca+h    Ca  1.500
Ca45    11.534529432    6.438893057   30.540370676 XXXX 1      ca+h    Ca  1.500
Ca46    35.092365415    6.285549431    6.258969761 XXXX 1      ca+h    Ca  1.500
Ca47    30.521536902    6.250512039   14.223551208 XXXX 1      ca+h    Ca  1.500
Ca48    25.920069906    6.168315683   22.493232488 XXXX 1      ca+h    Ca  1.500
Ca49    21.047029316    6.161766060   30.498114153 XXXX 1      ca+h    Ca  1.500
Ca50    35.316143305    6.265707276   22.342998917 XXXX 1      ca+h    Ca  1.500
Ca51    30.567278202    6.325858200   30.532296391 XXXX 1      ca+h    Ca  1.500
P16     25.011653315    5.580693908    2.971421262 XXXX 1      pap     P   1.000
P17     20.786828835    6.301406723   10.992553588 XXXX 1      pap     P   1.000
P18     16.137212574    6.188408060   19.313459216 XXXX 1      pap     P   1.000
P19     11.421486355    6.280041352   27.332300425 XXXX 1      pap     P   1.000
P20     34.499481044    5.652561203    2.749895812 XXXX 1      pap     P   1.000
P21     30.335893478    6.086487152   11.037470957 XXXX 1      pap     P   1.000
P22     25.583703721    6.225499143   19.406755314 XXXX 1      pap     P   1.000
P23     21.030483483    6.296145608   27.549706114 XXXX 1      pap     P   1.000
P24     34.926236193    6.112040725   19.295702509 XXXX 1      pap     P   1.000
P25     30.193777627    6.293518206   27.433727694 XXXX 1      pap     P   1.000
O121    24.162934887    5.863928106    1.809752288 XXXX 1      oap1    O  -0.650
O122    21.999035481    6.315533958   10.100731942 XXXX 1      oap1    O  -0.800
O123    17.481700541    5.949079165   18.559653242 XXXX 1      oap1    O  -0.800
O124    12.730556360    6.581644601   26.538522338 XXXX 1      oap1    O  -0.800
O125    34.767848317    7.203852685    2.719870770 XXXX 1      oap1    O  -0.650
O126    31.557695326    5.966501580   10.054385098 XXXX 1      oap1    O  -0.800
O127    26.819298175    6.248238976   18.545116258 XXXX 1      oap1    O  -0.800
O128    22.368371370    6.323142921   26.911238883 XXXX 1      oap1    O  -0.800
O129    36.210255152    6.194083080   18.469263024 XXXX 1      oap1    O  -0.800
O130    31.504486172    6.288171562   26.633825568 XXXX 1      oap1    O  -0.800
O131    24.446195232    4.404518438    3.740638346 XXXX 1      oap1    O  -0.650
O132    19.460862240    6.233211006   10.252780936 XXXX 1      oap1    O  -0.800
O133    15.015208237    6.214010481   18.244411449 XXXX 1      oap1    O  -0.800
O134    10.166378944    6.096782230   26.466984879 XXXX 1      oap1    O  -0.800
O135    33.168790436    5.381564051    2.003752960 XXXX 1      oap1    O  -0.650
O136    28.977274548    6.138895621   10.392268625 XXXX 1      oap1    O  -0.800
O137    24.385931741    6.103030767   18.432198319 XXXX 1      oap1    O  -0.800
O138    19.878231990    6.263031148   26.514691801 XXXX 1      oap1    O  -0.800
O139    33.581961543    6.152262096   18.387243787 XXXX 1      oap1    O  -0.800
O140    29.032911851    6.178396584   26.451013290 XXXX 1      oap1    O  -0.800
Ca52    34.216123222    2.763680153    4.149767705 XXXX 1      ca+h    Ca  1.500
Ca53    29.510065842    2.743824552   12.200153068 XXXX 1      ca+h    Ca  1.500
Ca54    24.725518218    2.642043679   20.320687942 XXXX 1      ca+h    Ca  1.500
Ca55    19.963410180    2.854603392   28.826945031 XXXX 1      ca+h    Ca  1.500
Ca56    34.187001592    2.661306124   20.352624747 XXXX 1      ca+h    Ca  1.500
Ca57    29.481947571    2.811650825   28.780953718 XXXX 1      ca+h    Ca  1.500
P26     30.968604323    1.571042337    2.426516930 XXXX 1      pap     P   1.000
P27     26.578659095    2.717566373   10.769702489 XXXX 1      pap     P   1.000
P28     21.888888152    2.811496670   19.054331416 XXXX 1      pap     P   1.000
P29     17.371822755    2.869900400   27.284040074 XXXX 1      pap     P   1.000
P30     36.002125700    2.709981357   10.663275930 XXXX 1      pap     P   1.000
P31     31.308140925    2.644863658   18.983861595 XXXX 1      pap     P   1.000
P32     26.760136137    2.817477982   27.204541692 XXXX 1      pap     P   1.000
P33     36.091076355    2.798964691   27.227848552 XXXX 1      pap     P   1.000
O141    30.966645379    1.573293396    0.894657694 XXXX 1      oap1    O  -0.650
O142    26.272738711    2.521223581    9.272200697 XXXX 1      oap1    O  -0.800
O143    21.714414501    2.867514946   17.530298845 XXXX 1      oap1    O  -0.800
O144    17.363705581    2.741469993   25.749881729 XXXX 1      oap1    O  -0.800
O145    35.936545184    3.152790902    9.213765978 XXXX 1      oap1    O  -0.800
O146    31.336851315    2.564153806   17.430167780 XXXX 1      oap1    O  -0.800
O147    26.770707739    2.784161765   25.662227664 XXXX 1      oap1    O  -0.800
O148    36.174090192    2.448861945   25.702504770 XXXX 1      oap1    O  -0.800
O149    29.662899314    2.404769413    2.847544716 XXXX 1      oap1    O  -0.600
O150    25.310236340    2.891915254   11.638709174 XXXX 1      oap1    O  -0.800
O151    20.607180008    2.736986608   19.828036589 XXXX 1      oap1    O  -0.800
O152    15.906966514    3.034771434   27.741922339 XXXX 1      oap1    O  -0.800
O153    34.676615417    2.620593349   11.361584887 XXXX 1      oap1    O  -0.800
O154    29.938242491    2.636075819   19.592461593 XXXX 1      oap1    O  -0.800
O155    25.297875407    2.771482760   27.696706036 XXXX 1      oap1    O  -0.800
O156    34.661606596    2.755549191   27.791012000 XXXX 1      oap1    O  -0.800
Ca58    24.565755733    2.775752496    7.696330266 XXXX 1      ca+h    Ca  1.500
Ca59    19.848821695    2.734079150   16.172173345 XXXX 1      ca+h    Ca  1.500
Ca60    15.425458313    2.868383976   24.544070696 XXXX 1      ca+h    Ca  1.500
Ca61    33.971395022    2.904931273    7.835733326 XXXX 1      ca+h    Ca  1.500
Ca62    29.250474249    2.665366830   16.229145532 XXXX 1      ca+h    Ca  1.500
Ca63    24.700953880    2.753497384   24.673640124 XXXX 1      ca+h    Ca  1.500
Ca64    34.144005685    2.657958611   24.451720455 XXXX 1      ca+h    Ca  1.500
P34     27.265071647    2.886985042    6.058842104 XXXX 1      pap     P   1.000
P35     22.418310911    2.820301652   14.430306247 XXXX 1      pap     P   1.000
P36     17.825009351    2.855428170   22.647102880 XXXX 1      pap     P   1.000
P37     36.592636679    2.908672944    5.995703527 XXXX 1      pap     P   1.000
P38     31.863855008    2.598241888   14.410712683 XXXX 1      pap     P   1.000
P39     27.079502445    2.740721369   22.528265537 XXXX 1      pap     P   1.000
P40     36.598305246    2.786196268   22.567269587 XXXX 1      pap     P   1.000
O157    28.319444751    2.835227939    7.180647575 XXXX 1      oap1    O  -0.800
O158    23.730886429    2.878664700   15.217471617 XXXX 1      oap1    O  -0.800
O159    19.114162011    2.684505951   23.413788655 XXXX 1      oap1    O  -0.800
O160    37.864846349    2.535267554    6.820013763 XXXX 1      oap1    O  -0.800
O161    33.245865754    2.455531076   15.069340499 XXXX 1      oap1    O  -0.800
O162    28.457340302    2.921723307   23.296950313 XXXX 1      oap1    O  -0.800
O163    38.017412210    2.798084088   23.238227638 XXXX 1      oap1    O  -0.800
O164    27.961416706    3.066140544    4.748407021 XXXX 1      oap1    O  -0.800
O165    22.662085005    2.689866319   12.893190996 XXXX 1      oap1    O  -0.800
O166    17.980668453    2.953657456   21.108032796 XXXX 1      oap1    O  -0.800
O167    36.966219198    3.087878988    4.497424089 XXXX 1      oap1    O  -0.800
O168    32.043831648    2.568327327   12.883688475 XXXX 1      oap1    O  -0.800
O169    27.382756069    2.619381516   21.064583506 XXXX 1      oap1    O  -0.800
O170    36.631295600    2.775773080   21.014971529 XXXX 1      oap1    O  -0.800
Ca65    30.429005160    2.791451653    5.911217130 XXXX 1      ca+h    Ca  1.500
Ca66    25.788726087    2.695413234   14.132518856 XXXX 1      ca+h    Ca  1.500
Ca67    21.265326545    2.735199190   22.320753501 XXXX 1      ca+h    Ca  1.500
Ca68    35.384604718    2.636659502   13.905354531 XXXX 1      ca+h    Ca  1.500
Ca69    30.494380914    2.762125912   22.214389715 XXXX 1      ca+h    Ca  1.500
P41     30.924298138    2.779517444    8.923274174 XXXX 1      pap     P   1.000
P42     26.119125487    2.676336192   17.251752425 XXXX 1      pap     P   1.000
P43     21.517779011    2.876162001   25.628499102 XXXX 1      pap     P   1.000
P44     35.658474064    2.780584941   17.095718928 XXXX 1      pap     P   1.000
P45     30.992873797    2.812360002   25.360032075 XXXX 1      pap     P   1.000
O171    29.749341365    2.785345558    9.896448666 XXXX 1      oap1    O  -0.800
O172    24.761650627    2.702116440   18.043688524 XXXX 1      oap1    O  -0.800
O173    20.245197081    3.017358762   26.401588851 XXXX 1      oap1    O  -0.800
O174    34.458921906    2.752912417   18.008568249 XXXX 1      oap1    O  -0.800
O175    29.836158646    2.760052316   26.388540750 XXXX 1      oap1    O  -0.800
O176    32.315140844    2.854450452    9.685218604 XXXX 1      oap1    O  -0.800
O177    27.302511633    2.701264003   18.225790649 XXXX 1      oap1    O  -0.800
O178    22.784073982    2.728624478   26.482468006 XXXX 1      oap1    O  -0.800
O179    36.996931973    2.858751928   17.903731375 XXXX 1      oap1    O  -0.800
O180    32.389595493    2.840548447   26.135805919 XXXX 1      oap1    O  -0.800
O181    23.451925748    5.055811924    6.017032750 XXXX 1      oap2    O  -1.100
O182    18.856888295    6.173777243   14.268622246 XXXX 1      oap2    O  -1.100
O183    14.224819972    7.105995717   22.243338038 XXXX 1      oap2    O  -1.100
O184    32.704567420    3.350669362    5.839228646 XXXX 1      oap2    O  -1.100
O185    28.240149843    6.248995484   14.126093254 XXXX 1      oap2    O  -1.100
O186    23.564762786    6.662595995   22.505153188 XXXX 1      oap2    O  -1.100
O187    32.960701985    5.651491610   22.274247517 XXXX 1      oap2    O  -1.100
O188    23.500036141    1.926416351    5.654453208 XXXX 1      oap2    O  -1.100
O189    18.675873070    3.411245017   14.177190150 XXXX 1      oap2    O  -1.100
O190    14.221471386    3.631467900   22.436647047 XXXX 1      oap2    O  -1.100
O191    32.858983686   -0.161326219    5.644264378 XXXX 1      oap2    O  -1.100
O192    28.141788034    3.106304361   14.156055806 XXXX 1      oap2    O  -1.100
O193    23.698584228    2.131783437   22.414613374 XXXX 1      oap2    O  -1.100
O194    32.895504566    2.765658993   22.356604939 XXXX 1      oap2    O  -1.100
H1      22.816578210    5.237888717    5.344448030 XXXX 1      hop     H   0.200
H2      18.740127040    5.218169892   14.311899234 XXXX 1      hop     H   0.200
H3      14.516810435    8.028843587   22.326316907 XXXX 1      hop     H   0.200
H4      32.583669248    4.274274832    5.841763284 XXXX 1      hop     H   0.200
H5      28.333143526    7.197620374   14.455034273 XXXX 1      hop     H   0.200
H6      23.423735529    7.583060621   22.510213213 XXXX 1      hop     H   0.200
H7      33.061165157    4.686033302   22.132500638 XXXX 1      hop     H   0.200
H8      24.308289240    2.029895776    5.173363697 XXXX 1      hop     H   0.200
H9      18.898479430    4.294244794   14.466878586 XXXX 1      hop     H   0.200
H10     14.419412138    4.498496450   22.253048404 XXXX 1      hop     H   0.200
H11     32.738191657    0.500339755    4.936268061 XXXX 1      hop     H   0.200
H12     28.213324633    4.089321598   14.110068243 XXXX 1      hop     H   0.200
H13     23.694104849    1.167204606   22.244026953 XXXX 1      hop     H   0.200
H14     32.623524302    3.605636552   22.825729136 XXXX 1      hop     H   0.200
H15     24.075943132    4.679902190    4.590273077 XXXX 1      hop     H   0.400
H16     23.525018234    5.212683894    1.745938553 XXXX 1      hop     H   0.400
H17     31.851873055    1.597681871    0.522601252 XXXX 1      hop     H   0.400
H18     30.432437779    0.378083241    3.885771851 XXXX 1      hop     H   0.400
H19     32.670803351    6.098226544    1.807992843 XXXX 1      hop     H   0.400
H20     35.691689664    7.295813698    2.593627522 XXXX 1      hop     H   0.400
end
O1       5.403997992   35.006652037    8.858202601 XXXX 1      oap1    O  -0.800
O2       5.482110038   28.124501855    8.915326331 XXXX 1      oap1    O  -0.800
O3       5.503704049   21.198412294    8.772618014 XXXX 1      oap1    O  -0.800
O4       5.521447310   13.994188304    8.187764976 XXXX 1      oap1    O  -0.800
O5       0.809891754   34.829467026   16.853005732 XXXX 1      oap1    O  -0.800
O6       0.839514578   28.002157401   17.040495082 XXXX 1      oap1    O  -0.800
O7       0.857127855   21.257133879   17.069292158 XXXX 1      oap1    O  -0.800
O8       0.837016999   14.352497005   17.062037737 XXXX 1      oap1    O  -0.800
O9      15.002347057   34.914046825    8.678023292 XXXX 1      oap1    O  -0.800
O10     15.111834710   28.178770482    8.940083979 XXXX 1      oap1    O  -0.800
O11     14.818400785   20.907990434    8.613382778 XXXX 1      oap1    O  -0.800
O12     15.098825701   14.271622317    8.499171037 XXXX 1      oap1    O  -0.800
O13     10.238521982   35.021539703   16.881690078 XXXX 1      oap1    O  -0.800
O14     10.167956924   27.992455621   17.032845787 XXXX 1      oap1    O  -0.800
O15     10.062926506   21.033903372   16.854431292 XXXX 1      oap1    O  -0.800
O16     10.194687219   14.198056328   17.031045889 XXXX 1      oap1    O  -0.800
O17      5.509068661   35.023655078   25.227389643 XXXX 1      oap1    O  -0.800
O18      5.468805485   28.091870783   25.208727877 XXXX 1      oap1    O  -0.800
O19      5.459680513   21.266681127   25.305101141 XXXX 1      oap1    O  -0.800
O20      5.582552163   14.312412366   24.917151858 XXXX 1      oap1    O  -0.800
O21      1.814269475   35.062461672    5.287940126 XXXX 1      oap1    O  -0.800
O22      1.537214431   28.318004964    5.273057372 XXXX 1      oap1    O  -0.800
O23      1.860988356   21.240536121    5.132311881 XXXX 1      oap1    O  -0.800
O24      1.308573073   14.536567043    5.198944128 XXXX 1      oap1    O  -0.800
O25     11.075390993   35.090710425    5.143977241 XXXX 1      oap1    O  -0.800
O26     11.206684203   28.109374095    5.270361730 XXXX 1      oap1    O  -0.800
O27     11.456437171   20.655223875    5.486622922 XXXX 1      oap1    O  -0.800
O28     10.998234059   14.233476525    5.113945500 XXXX 1      oap1    O  -0.800
O29      6.742962970   34.906049467   13.332625874 XXXX 1      oap1    O  -0.800
O30      6.526633525   28.039699652   13.398200713 XXXX 1      oap1    O  -0.800
O31      6.499550950   21.180415128   13.243324924 XXXX 1      oap1    O  -0.800
O32      6.454320222   14.295454049   13.355944570 XXXX 1      oap1    O  -0.800
O33      1.845193939   35.107081560   21.556867425 XXXX 1      oap1    O  -0.800
O34      2.089652993   28.091716736   21.591348000 XXXX 1      oap1    O  -0.800
O35      1.960708427   21.128534578   21.708133914 XXXX 1      oap1    O  -0.800
O36      1.821162045   14.361938011   21.664210725 XXXX 1      oap1    O  -0.800
O37     20.760032369   34.844506984    5.355682897 XXXX 1      oap1    O  -0.800
O38     20.944993662   27.853020607    5.285219352 XXXX 1      oap1    O  -0.800
O39     20.504923626   21.217839628    5.257840863 XXXX 1      oap1    O  -0.800
O40     20.588268421   14.474737486    5.288722211 XXXX 1      oap1    O  -0.800
O41     15.864950017   34.967113559   13.424363368 XXXX 1      oap1    O  -0.800
O42     15.946797323   27.999201084   13.532218423 XXXX 1      oap1    O  -0.800
O43     15.886104826   21.229917075   13.388657230 XXXX 1      oap1    O  -0.800
O44     16.190462827   14.257657082   13.592484720 XXXX 1      oap1    O  -0.800
O45     11.274838374   34.971432019   21.564368930 XXXX 1      oap1    O  -0.800
O46     11.133199739   28.124856773   21.714861711 XXXX 1      oap1    O  -0.800
O47     11.289501508   21.246363836   21.500248197 XXXX 1      oap1    O  -0.800
O48     11.377607125   14.337461668   21.519613179 XXXX 1      oap1    O  -0.800
O49      6.635735525   35.175626575   30.266413254 XXXX 1      oap1    O  -0.800
O50      6.499502080   28.336727781   29.762164512 XXXX 1      oap1    O  -0.800
O51      6.393550781   21.410770975   30.012661496 XXXX 1      oap1    O  -0.800
O52      6.459646755   14.430444955   29.527964829 XXXX 1      oap1    O  -0.800
O53      6.276726214   34.816448003    3.793737389 XXXX 1      oap1    O  -0.600
O54      6.125583984   27.579811638    3.682363241 XXXX 1      oap1    O  -0.600
O55      6.517674177   18.776379302    3.861183782 XXXX 1      oap1    O  -0.600
O56      6.662760549   13.865924121    3.784691438 XXXX 1      oap1    O  -0.600
O57      1.897066970   34.970474858   11.995134532 XXXX 1      oap1    O  -0.800
O58      1.999097495   28.134218706   11.865687673 XXXX 1      oap1    O  -0.800
O59      2.048943661   21.119146432   11.767534546 XXXX 1      oap1    O  -0.800
O60      1.878311179   14.152085750   12.069282064 XXXX 1      oap1    O  -0.800
O61     15.627067916   34.117408062    3.910606829 XXXX 1      oap1    O  -0.600
O62     15.532713470   26.585502587    3.666208149 XXXX 1      oap1    O  -0.600
O63     15.965279852   18.862725473    3.698111561 XXXX 1      oap1    O  -0.600
O64     14.338096209   12.399802233    2.088434337 XXXX 1      oap1    O  -0.600
O65     11.386191003   34.970981837   12.057760565 XXXX 1      oap1    O  -0.800
O66     11.536424148   27.992320450   11.974164849 XXXX 1      oap1    O  -0.800
O67     11.441942568   21.128573982   11.815919079 XXXX 1      oap1    O  -0.800
O68     11.682269595   14.405736399   11.920835509 XXXX 1      oap1    O  -0.800
O69      6.617199834   34.911092882   20.265390347 XXXX 1      oap1    O  -0.800
O70      6.555828957   28.044840553   20.310599212 XXXX 1      oap1    O  -0.800
O71      6.667064885   21.140774400   20.232572265 XXXX 1      oap1    O  -0.800
O72      6.770210711   14.274637159   20.151169008 XXXX 1      oap1    O  -0.800
O73      1.940968297   35.087775592   28.247374342 XXXX 1      oap1    O  -0.800
O74      2.063213272   28.152377604   28.232667567 XXXX 1      oap1    O  -0.800
O75      2.345991638   21.284338619   28.290514134 XXXX 1      oap1    O  -0.800
O76      1.837199959   14.385066054   28.311299847 XXXX 1      oap1    O  -0.800
O77      3.449665426   30.452902531    3.563218037 XXXX 1      oap1    O  -0.600
O78      2.217425932   23.472103215    3.202743225 XXXX 1      oap1    O  -0.600
O79      4.365797212   17.143596547    2.466184303 XXXX 1      oap1    O  -0.600
O80     -0.413360947    9.620840374    1.642179726 XXXX 1      oap1    O  -0.600
O81     13.083957364   33.177941715    2.217273486 XXXX 1      oap1    O  -0.600
O82     10.586891836   24.646441496    2.081128298 XXXX 1      oap1    O  -0.600
O83     11.923786865   17.243006293    2.436509863 XXXX 1      oap1    O  -0.600
O84     11.193788908    9.853704309    2.432290875 XXXX 1      oap1    O  -0.600
O85      8.596587352   31.479006804   11.161074743 XXXX 1      oap1    O  -0.800
O86      8.543742815   24.555284937   11.183672021 XXXX 1      oap1    O  -0.800
O87      8.375013799   17.773225398   10.917494748 XXXX 1      oap1    O  -0.800
O88      8.411668067   10.982768946   11.084575283 XXXX 1      oap1    O  -0.800
O89      4.061592777   31.580553485   19.328596249 XXXX 1      oap1    O  -0.800
O90      4.002477964   24.536459380   19.642539353 XXXX 1      oap1    O  -0.800
O91      4.083127805   17.802949742   19.493409730 XXXX 1      oap1    O  -0.800
O92      4.003414949   10.895209579   19.393439335 XXXX 1      oap1    O  -0.800
O93     22.662707094   32.015231483    3.429126369 XXXX 1      oap1    O  -0.600
O94     21.351189840   24.294810336    2.134020432 XXXX 1      oap1    O  -0.600
O95     19.851095430   16.849768122    2.387161139 XXXX 1      oap1    O  -0.600
O96     21.275541163   12.329563613    2.449884061 XXXX 1      oap1    O  -0.600
O97     17.829575403   31.479148399   11.368169788 XXXX 1      oap1    O  -0.800
O98     17.876372884   24.701864326   11.164704983 XXXX 1      oap1    O  -0.800
O99     17.863448736   17.845923545   11.059538658 XXXX 1      oap1    O  -0.800
O100    17.993200540   10.894496379   11.236146014 XXXX 1      oap1    O  -0.800
O101    13.134400386   31.518577567   19.463307331 XXXX 1      oap1    O  -0.800
O102    13.111557682   24.846678505   19.130105425 XXXX 1      oap1    O  -0.800
O103    13.326788965   17.771791138   19.480754219 XXXX 1      oap1    O  -0.800
O104    13.584068302   10.815740942   19.421233780 XXXX 1      oap1    O  -0.800
O105     8.680256739   31.670210684   27.425570961 XXXX 1      oap1    O  -0.800
O106     8.373916433   24.925781782   27.588499448 XXXX 1      oap1    O  -0.800
O107     8.480151697   17.946374736   27.567660719 XXXX 1      oap1    O  -0.800
O108     8.653580137   11.008375263   27.612415179 XXXX 1      oap1    O  -0.800
O109     7.787627876   31.801787877    6.714833124 XXXX 1      oap1    O  -0.800
O110     7.586743282   24.772239988    6.602418020 XXXX 1      oap1    O  -0.800
O111     7.340428044   17.619303310    6.745346092 XXXX 1      oap1    O  -0.800
O112     7.543489588   10.662794104    6.751401056 XXXX 1      oap1    O  -0.800
O113     2.763108057   31.612319821   14.797007360 XXXX 1      oap1    O  -0.800
O114     2.841032819   24.543921892   14.936170175 XXXX 1      oap1    O  -0.800
O115     2.798351700   17.767693916   14.761100065 XXXX 1      oap1    O  -0.800
O116     2.573872994   10.709447527   14.755024997 XXXX 1      oap1    O  -0.800
O117    17.129675650   31.606794223    5.969903447 XXXX 1      oap1    O  -0.800
O118    16.842249235   24.667650654    6.629836949 XXXX 1      oap1    O  -0.800
O119    17.069642343   17.825146727    6.508164348 XXXX 1      oap1    O  -0.800
O120    16.997759938   10.955540961    6.997039119 XXXX 1      oap1    O  -0.800
O121    12.059035657   31.309755549   15.031763232 XXXX 1      oap1    O  -0.800
O122    12.056874349   24.390448772   14.674541813 XXXX 1      oap1    O  -0.800
O123    12.371645151   17.789995792   14.843251147 XXXX 1      oap1    O  -0.800
O124    12.196844153   10.785588854   14.657692486 XXXX 1      oap1    O  -0.800
O125     7.566234310   31.571535819   22.982205487 XXXX 1      oap1    O  -0.800
O126     7.628462403   24.552944955   23.042541218 XXXX 1      oap1    O  -0.800
O127     7.454156088   17.869507565   22.847500985 XXXX 1      oap1    O  -0.800
O128     7.752144703   10.918942302   23.020547003 XXXX 1      oap1    O  -0.800
O129     2.535434117   31.634568562    8.066719703 XXXX 1      oap1    O  -0.800
O130     2.657916178   24.840602774    8.127816464 XXXX 1      oap1    O  -0.800
O131     2.816050217   17.656640519    7.905138170 XXXX 1      oap1    O  -0.800
O132     2.494894080   10.779106615    8.034633771 XXXX 1      oap1    O  -0.800
O133    12.150763450   31.328376870    7.909692717 XXXX 1      oap1    O  -0.800
O134    12.425260549   24.261421579    7.743564536 XXXX 1      oap1    O  -0.800
O135    11.839231229   17.676235267    8.038520115 XXXX 1      oap1    O  -0.800
O136    12.203525552   10.945586698    8.079849639 XXXX 1      oap1    O  -0.800
O137     7.291405503   31.550435575   16.286373492 XXXX 1      oap1    O  -0.800
O138     7.131492502   24.596925499   16.216382808 XXXX 1      oap1    O  -0.800
O139     7.131856992   17.819760863   16.390373648 XXXX 1      oap1    O  -0.800
O140     7.533364421   10.935089228   16.189041194 XXXX 1      oap1    O  -0.800
O141     2.546538792   31.554217971   24.332224840 XXXX 1      oap1    O  -0.800
O142     2.585266489   24.630512153   24.378414211 XXXX 1      oap1    O  -0.800
O143     2.689218219   17.728958692   24.473943430 XXXX 1      oap1    O  -0.800
O144     2.667547330   11.011801939   24.389321514 XXXX 1      oap1    O  -0.800
O145    21.339098217   31.439953191    8.267329536 XXXX 1      oap1    O  -0.800
O146    21.362901597   24.510259064    8.122455905 XXXX 1      oap1    O  -0.800
O147    21.806435360   17.698658895    7.913478845 XXXX 1      oap1    O  -0.800
O148    21.763257171   10.822987118    8.063649494 XXXX 1      oap1    O  -0.800
O149    16.695800735   31.446669804   16.426475393 XXXX 1      oap1    O  -0.800
O150    16.562257313   24.662429183   16.332105281 XXXX 1      oap1    O  -0.800
O151    16.609703927   17.854781246   16.362820838 XXXX 1      oap1    O  -0.800
O152    16.805208359   10.917267265   16.152997310 XXXX 1      oap1    O  -0.800
O153    11.967586086   31.535458015   24.623714909 XXXX 1      oap1    O  -0.800
O154    11.936741703   24.621335659   24.623748277 XXXX 1      oap1    O  -0.800
O155    11.874180482   17.801157265   24.445378825 XXXX 1      oap1    O  -0.800
O156    12.201554077   10.992061881   24.375672314 XXXX 1      oap1    O  -0.800
O157     1.464921986   29.854132272    2.127430011 XXXX 1      oap1    O  -0.600
O158     4.444005818   22.789913367    2.419227735 XXXX 1      oap1    O  -0.650
O159     2.472434098   16.216743515    0.921717072 XXXX 1      oap1    O  -0.650
O160    -0.341159670    7.169806133    2.434939240 XXXX 1      oap1    O  -0.600
O161    11.252811680   31.425377292    2.559403926 XXXX 1      oap1    O  -0.650
O162    12.660835156   26.129414509    2.348127394 XXXX 1      oap1    O  -0.600
O163    11.927882861   14.863917142    3.012724876 XXXX 1      oap1    O  -0.650
O164    13.047916953   10.460593232    3.868452527 XXXX 1      oap1    O  -0.600
O165     8.764160957   29.101136065   11.186803675 XXXX 1      oap1    O  -0.800
O166     8.621233996   22.034763068   11.126801787 XXXX 1      oap1    O  -0.800
O167     8.453021223   15.366456617   11.590794125 XXXX 1      oap1    O  -0.800
O168     8.635249504    8.543559961   11.376386736 XXXX 1      oap1    O  -0.800
O169     3.821537019   29.156663212   19.673735255 XXXX 1      oap1    O  -0.800
O170     3.837101284   22.093113091   19.670419647 XXXX 1      oap1    O  -0.800
O171     3.846296145   15.306842618   19.547480627 XXXX 1      oap1    O  -0.800
O172     3.967909794    8.428749334   19.056375957 XXXX 1      oap1    O  -0.800
O173    20.981057408   33.790985756    2.708483523 XXXX 1      oap1    O  -0.600
O174    23.599100715   24.599400006    3.388197274 XXXX 1      oap1    O  -0.650
O175    22.029238640   15.463006062    2.672598894 XXXX 1      oap1    O  -0.600
O176    22.552446835   10.424425676    3.408999123 XXXX 1      oap1    O  -0.600
O177    18.010615607   28.974204603   11.225473974 XXXX 1      oap1    O  -0.800
O178    17.864054442   22.296929291   11.783420855 XXXX 1      oap1    O  -0.800
O179    18.264137689   15.414794167   11.334323072 XXXX 1      oap1    O  -0.800
O180    18.089745142    8.477001736   11.391578099 XXXX 1      oap1    O  -0.800
O181    13.280153300   29.068205913   19.519732990 XXXX 1      oap1    O  -0.800
O182    13.299197857   22.351325194   19.726153905 XXXX 1      oap1    O  -0.800
O183    13.210755181   15.366069285   19.606549780 XXXX 1      oap1    O  -0.800
O184    13.344042905    8.297547068   19.232391829 XXXX 1      oap1    O  -0.800
O185     8.736259246   29.263134434   27.945931914 XXXX 1      oap1    O  -0.800
O186     8.603554024   22.498837992   27.983747877 XXXX 1      oap1    O  -0.800
O187     8.667115490   15.384708213   27.809449667 XXXX 1      oap1    O  -0.800
O188     8.663972141    8.468945860   27.665449918 XXXX 1      oap1    O  -0.800
O189     7.276086929   29.425515874    6.242578151 XXXX 1      oap1    O  -0.800
O190     7.458121489   22.224221746    6.686780850 XXXX 1      oap1    O  -0.800
O191     7.309634695   15.238513988    6.444612908 XXXX 1      oap1    O  -0.800
O192     7.653931611    8.198625523    6.736890335 XXXX 1      oap1    O  -0.800
O193     2.930080491   29.086463469   14.917930735 XXXX 1      oap1    O  -0.800
O194     2.808744504   22.091484131   14.831003313 XXXX 1      oap1    O  -0.800
O195     2.687160623   15.337544865   14.809016548 XXXX 1      oap1    O  -0.800
O196     2.992205443    8.270532948   14.935983957 XXXX 1      oap1    O  -0.800
O197    16.787791066   29.252937645    6.522119946 XXXX 1      oap1    O  -0.800
O198    16.990480733   22.169335783    6.541629583 XXXX 1      oap1    O  -0.800
O199    16.978063063   15.347080247    6.283259362 XXXX 1      oap1    O  -0.800
O200    17.159348213    8.497770060    6.439186691 XXXX 1      oap1    O  -0.800
O201    12.383668288   28.793993393   15.007553091 XXXX 1      oap1    O  -0.800
O202    12.324686203   22.034701564   14.784970831 XXXX 1      oap1    O  -0.800
O203    12.043429813   15.380254779   14.577985399 XXXX 1      oap1    O  -0.800
O204    12.285349338    8.361463150   14.793257223 XXXX 1      oap1    O  -0.800
O205     7.261193190   29.062154087   23.101807831 XXXX 1      oap1    O  -0.800
O206     7.524974596   22.199911642   23.095324394 XXXX 1      oap1    O  -0.800
O207     7.599104375   15.366369759   23.102554347 XXXX 1      oap1    O  -0.800
O208     7.985662364    8.355723373   23.103492869 XXXX 1      oap1    O  -0.800
O209     2.382149974   29.133048211    8.117384939 XXXX 1      oap1    O  -0.800
O210     2.847071984   22.379406929    7.841504235 XXXX 1      oap1    O  -0.800
O211     2.860778928   15.262336220    7.798467966 XXXX 1      oap1    O  -0.800
O212     2.414104668    8.434143022    8.021593536 XXXX 1      oap1    O  -0.800
O213    12.117921102   28.918524953    8.157746353 XXXX 1      oap1    O  -0.800
O214    11.699958218   21.859315996    8.180538274 XXXX 1      oap1    O  -0.800
O215    11.898713962   15.171511871    8.162011736 XXXX 1      oap1    O  -0.800
O216    11.941394310    8.481197295    8.328723508 XXXX 1      oap1    O  -0.800
O217     7.244678240   29.015648691   16.255829957 XXXX 1      oap1    O  -0.800
O218     7.350805903   22.168620262   16.266788499 XXXX 1      oap1    O  -0.800
O219     7.373415021   15.333185539   16.098431862 XXXX 1      oap1    O  -0.800
O220     7.511572856    8.454247462   15.942981591 XXXX 1      oap1    O  -0.800
O221     2.610569131   29.023124494   24.393429280 XXXX 1      oap1    O  -0.800
O222     2.406225858   22.191794706   24.382470488 XXXX 1      oap1    O  -0.800
O223     2.463504494   15.234539489   24.301462296 XXXX 1      oap1    O  -0.800
O224     2.523250516    8.528954926   24.224292258 XXXX 1      oap1    O  -0.800
O225    21.419790847   28.939667687    8.222314200 XXXX 1      oap1    O  -0.800
O226    21.397341175   22.046777453    8.213584659 XXXX 1      oap1    O  -0.800
O227    21.547045545   15.242748624    8.307381358 XXXX 1      oap1    O  -0.800
O228    21.350139010    8.358582572    8.233118763 XXXX 1      oap1    O  -0.800
O229    16.842021948   28.949463829   16.432857849 XXXX 1      oap1    O  -0.800
O230    16.714755353   22.167084367   16.255996613 XXXX 1      oap1    O  -0.800
O231    16.765843084   15.308989216   16.194005791 XXXX 1      oap1    O  -0.800
O232    16.919418264    8.465517597   16.195504774 XXXX 1      oap1    O  -0.800
O233    12.235235701   29.085360765   24.428023831 XXXX 1      oap1    O  -0.800
O234    12.177417798   22.143619293   24.482082567 XXXX 1      oap1    O  -0.800
O235    12.152540144   15.411800447   24.419878974 XXXX 1      oap1    O  -0.800
O236    12.216187494    8.508911464   24.213009551 XXXX 1      oap1    O  -0.800
O237     5.497224054   32.577429282    8.712276944 XXXX 1      oap1    O  -0.800
O238     5.508714714   25.728880494    8.513828780 XXXX 1      oap1    O  -0.800
O239     5.430226164   18.701719128    8.618776794 XXXX 1      oap1    O  -0.800
O240     5.641053059   11.652325790    8.871926904 XXXX 1      oap1    O  -0.800
O241     0.816196991   32.426459465   17.052917583 XXXX 1      oap1    O  -0.800
O242     0.865859765   25.491584653   17.108699531 XXXX 1      oap1    O  -0.800
O243     0.800753101   18.736290311   17.031114675 XXXX 1      oap1    O  -0.800
O244     0.783907766   11.806350456   17.240994033 XXXX 1      oap1    O  -0.800
O245    14.890641567   32.432351878    8.618909379 XXXX 1      oap1    O  -0.800
O246    14.994184466   25.611337008    8.581194504 XXXX 1      oap1    O  -0.800
O247    15.100143207   18.481982069    8.768060642 XXXX 1      oap1    O  -0.800
O248    15.202253448   11.944841609    8.868000668 XXXX 1      oap1    O  -0.800
O249    10.177479405   32.500648359   16.912176511 XXXX 1      oap1    O  -0.800
O250    10.138420418   25.530000039   17.041464879 XXXX 1      oap1    O  -0.800
O251    10.150484795   18.619808413   17.197171496 XXXX 1      oap1    O  -0.800
O252    10.188124287   11.718624183   16.872439523 XXXX 1      oap1    O  -0.800
O253     5.624054756   32.529590195   25.282079902 XXXX 1      oap1    O  -0.800
O254     5.473383613   25.654943808   25.294597983 XXXX 1      oap1    O  -0.800
O255     5.485640133   18.726626524   25.278253267 XXXX 1      oap1    O  -0.800
O256     5.652740325   11.840243893   25.166038518 XXXX 1      oap1    O  -0.800
O257     1.845874766   32.514546503    5.198519042 XXXX 1      oap1    O  -0.800
O258     2.472825787   25.977122717    5.527760123 XXXX 1      oap1    O  -0.800
O259     1.896679749   18.846885347    4.987860164 XXXX 1      oap1    O  -0.800
O260     1.658043304   12.019316148    4.757918565 XXXX 1      oap1    O  -0.800
O261    11.201817677   32.594907052    5.068093291 XXXX 1      oap1    O  -0.800
O262    11.659429254   25.687259666    5.778095072 XXXX 1      oap1    O  -0.800
O263    10.814628623   18.236720436    5.131968986 XXXX 1      oap1    O  -0.800
O264    11.215243647   11.690884069    5.220346783 XXXX 1      oap1    O  -0.800
O265     6.414086403   32.409668287   13.230809954 XXXX 1      oap1    O  -0.800
O266     6.296506615   25.535823102   13.296655445 XXXX 1      oap1    O  -0.800
O267     6.649317624   18.695304925   13.378069130 XXXX 1      oap1    O  -0.800
O268     6.555799244   11.835632286   13.377239693 XXXX 1      oap1    O  -0.800
O269     1.813215491   32.612327512   21.475174872 XXXX 1      oap1    O  -0.800
O270     1.999532853   25.688452564   21.654032465 XXXX 1      oap1    O  -0.800
O271     1.917043947   18.760479186   21.441110099 XXXX 1      oap1    O  -0.800
O272     1.849369738   11.851051276   21.532275605 XXXX 1      oap1    O  -0.800
O273    20.366854772   32.336750745    5.486652286 XXXX 1      oap1    O  -0.800
O274    20.854397223   25.398702358    5.283581845 XXXX 1      oap1    O  -0.800
O275    20.422482167   18.788017343    4.761965308 XXXX 1      oap1    O  -0.800
O276    20.812923573   12.029561050    5.367701376 XXXX 1      oap1    O  -0.800
O277    15.956707180   32.524056517   13.496261035 XXXX 1      oap1    O  -0.800
O278    16.002130361   25.593849705   13.474022920 XXXX 1      oap1    O  -0.800
O279    16.109175112   18.758391312   13.286945586 XXXX 1      oap1    O  -0.800
O280    15.874100948   11.830530278   13.238201588 XXXX 1      oap1    O  -0.800
O281    11.244595448   32.492501640   21.604753122 XXXX 1      oap1    O  -0.800
O282    11.425357741   25.688420551   21.793579565 XXXX 1      oap1    O  -0.800
O283    11.336135911   18.698256922   21.570309402 XXXX 1      oap1    O  -0.800
O284    11.574271458   11.920901513   21.580332381 XXXX 1      oap1    O  -0.800
O285     6.538139135   32.683997532   29.781798579 XXXX 1      oap1    O  -0.800
O286     6.522932219   25.919685908   30.383902219 XXXX 1      oap1    O  -0.800
O287     6.516967493   18.937818771   30.442815124 XXXX 1      oap1    O  -0.800
O288     6.517084030   11.957241059   30.168631555 XXXX 1      oap1    O  -0.800
O289     7.847998601   34.140824897    2.109383703 XXXX 1      oap1    O  -0.600
O290     6.072073479   25.101771753    2.899453725 XXXX 1      oap1    O  -0.600
O291     7.746353222   18.995062695    1.716862240 XXXX 1      oap1    O  -0.600
O292     8.210687748   12.618613528    2.235952476 XXXX 1      oap1    O  -0.600
O293     2.252787071   32.379169800   11.945168417 XXXX 1      oap1    O  -0.800
O294     2.052884544   25.619755374   12.060094328 XXXX 1      oap1    O  -0.800
O295     2.146423747   18.719109922   11.715118836 XXXX 1      oap1    O  -0.800
O296     2.070013398   11.711276740   11.807753510 XXXX 1      oap1    O  -0.800
O297    17.698990053   33.621933128    2.464500579 XXXX 1      oap1    O  -0.600
O298    17.518624954   25.697739605    2.244235991 XXXX 1      oap1    O  -0.600
O299    16.759010166   16.718985061    2.582788050 XXXX 1      oap1    O  -0.600
O300    15.618687987   13.297107594    3.993492945 XXXX 1      oap1    O  -0.600
O301    11.540932375   32.510267965   11.920661025 XXXX 1      oap1    O  -0.800
O302    11.468488002   25.542219253   11.952319837 XXXX 1      oap1    O  -0.800
O303    11.243770836   18.724995904   11.998444933 XXXX 1      oap1    O  -0.800
O304    11.572862036   11.859956848   12.022338668 XXXX 1      oap1    O  -0.800
O305     6.866823788   32.498267186   20.073923428 XXXX 1      oap1    O  -0.800
O306     6.724358608   25.652685050   20.095446429 XXXX 1      oap1    O  -0.800
O307     6.827204080   18.654626977   20.096381205 XXXX 1      oap1    O  -0.800
O308     6.901286844   11.790992072   19.888966518 XXXX 1      oap1    O  -0.800
O309     1.645592971   32.655017544   28.475116583 XXXX 1      oap1    O  -0.800
O310     2.031586863   25.709507850   28.218494787 XXXX 1      oap1    O  -0.800
O311     1.944342344   18.898030122   28.381185179 XXXX 1      oap1    O  -0.800
O312     2.030965625   11.887337774   28.336541817 XXXX 1      oap1    O  -0.800
Ca1      0.141096984   35.352810295    8.725041598 XXXX 1      ca+h    Ca  1.500
Ca2      0.207068951   28.429852074    8.733890904 XXXX 1      ca+h    Ca  1.500
Ca3     -0.073569391   21.671838492    8.440932152 XXXX 1      ca+h    Ca  1.500
Ca4      0.014237545   14.753111620    8.391890280 XXXX 1      ca+h    Ca  1.500
Ca5      9.267023674   35.449477204    8.728173997 XXXX 1      ca+h    Ca  1.500
Ca6      9.525168174   28.563086142    8.798613383 XXXX 1      ca+h    Ca  1.500
Ca7      9.394254360   21.638804814    8.619123143 XXXX 1      ca+h    Ca  1.500
Ca8      9.348667423   14.581471551    8.603739241 XXXX 1      ca+h    Ca  1.500
Ca9      4.643341203   35.358930657   16.746834694 XXXX 1      ca+h    Ca  1.500
Ca10     4.597716455   28.539052271   16.823516140 XXXX 1      ca+h    Ca  1.500
Ca11     4.733599110   21.565160988   16.846397444 XXXX 1      ca+h    Ca  1.500
Ca12     4.590251071   14.798445656   16.773208264 XXXX 1      ca+h    Ca  1.500
Ca13     0.172070851   35.563373614   25.001169898 XXXX 1      ca+h    Ca  1.500
Ca14     0.067976702   28.571153109   24.902017634 XXXX 1      ca+h    Ca  1.500
Ca15     0.067961777   21.703112528   24.748035611 XXXX 1      ca+h    Ca  1.500
Ca16     0.039030097   14.780098023   24.862782686 XXXX 1      ca+h    Ca  1.500
Ca17    18.868290088   35.558739925    8.775408516 XXXX 1      ca+h    Ca  1.500
Ca18    18.849732402   28.600533082    8.944434426 XXXX 1      ca+h    Ca  1.500
Ca19    18.962856601   21.704211518    8.281949906 XXXX 1      ca+h    Ca  1.500
Ca20    19.172460024   14.870708268    8.803552224 XXXX 1      ca+h    Ca  1.500
Ca21    14.216660811   35.453744480   16.965091851 XXXX 1      ca+h    Ca  1.500
Ca22    13.956910712   28.572224634   17.057105463 XXXX 1      ca+h    Ca  1.500
Ca23    14.061946019   21.595028695   16.621376975 XXXX 1      ca+h    Ca  1.500
Ca24    14.175646718   14.756878908   16.771830223 XXXX 1      ca+h    Ca  1.500
Ca25     9.510606162   35.499065782   25.125013784 XXXX 1      ca+h    Ca  1.500
Ca26     9.400212964   28.486873576   25.181228590 XXXX 1      ca+h    Ca  1.500
Ca27     9.402808180   21.654587742   25.138098253 XXXX 1      ca+h    Ca  1.500
Ca28     9.490646121   14.878717919   24.979160387 XXXX 1      ca+h    Ca  1.500
Ca29    -0.564309698   31.916124408    3.201737716 XXXX 1      ca+h    Ca  1.500
Ca30     8.892250866   32.164548276    3.175856383 XXXX 1      ca+h    Ca  1.500
Ca31     8.503235040   24.916314507    3.145396429 XXXX 1      ca+h    Ca  1.500
Ca32     9.543991289   18.090965233    3.057481956 XXXX 1      ca+h    Ca  1.500
Ca33     9.517269126   11.044944764    3.382836372 XXXX 1      ca+h    Ca  1.500
Ca34     4.696319504   32.044466907   11.362502916 XXXX 1      ca+h    Ca  1.500
Ca35     4.609723824   25.129216077   11.458396546 XXXX 1      ca+h    Ca  1.500
Ca36     4.537818821   18.204664342   11.163691954 XXXX 1      ca+h    Ca  1.500
Ca37     4.687323336   11.255586447   11.267526862 XXXX 1      ca+h    Ca  1.500
Ca38    -0.045487842   32.041749036   19.547085258 XXXX 1      ca+h    Ca  1.500
Ca39     0.039594702   25.145842058   19.566243925 XXXX 1      ca+h    Ca  1.500
Ca40    -0.011857052   18.310073012   19.501522085 XXXX 1      ca+h    Ca  1.500
Ca41     0.110579075   11.342141773   19.497193932 XXXX 1      ca+h    Ca  1.500
Ca42    18.584234172   31.859161848    3.617387401 XXXX 1      ca+h    Ca  1.500
Ca43    19.427496595   24.937963677    3.419737906 XXXX 1      ca+h    Ca  1.500
Ca44    18.441930379   18.499832119    3.308323002 XXXX 1      ca+h    Ca  1.500
Ca45    14.017305992   31.930362050   11.547118007 XXXX 1      ca+h    Ca  1.500
Ca46    13.906550048   25.084009841   11.563593683 XXXX 1      ca+h    Ca  1.500
Ca47    14.246525235   18.123027871   11.299931630 XXXX 1      ca+h    Ca  1.500
Ca48    14.290872000   11.353508534   11.427408447 XXXX 1      ca+h    Ca  1.500
Ca49     9.289808371   31.985035425   19.539657407 XXXX 1      ca+h    Ca  1.500
Ca50     9.265600727   25.181835893   19.544196394 XXXX 1      ca+h    Ca  1.500
Ca51     9.212956298   18.226425414   19.452513243 XXXX 1      ca+h    Ca  1.500
Ca52     9.352043155   11.254032379   19.491836977 XXXX 1      ca+h    Ca  1.500
Ca53     4.929483530   32.029475657   27.810356254 XXXX 1      ca+h    Ca  1.500
Ca54     4.494102894   25.208103412   27.644250651 XXXX 1      ca+h    Ca  1.500
Ca55     4.815953144   18.236422342   27.593395634 XXXX 1      ca+h    Ca  1.500
Ca56     4.727703435   11.436932487   27.408430722 XXXX 1      ca+h    Ca  1.500
Ca57    -0.136292110   28.289528370    3.342414402 XXXX 1      ca+h    Ca  1.500
Ca58     0.271516299   21.762828969    3.259455365 XXXX 1      ca+h    Ca  1.500
Ca59    -0.108221235   15.324325526    3.380378313 XXXX 1      ca+h    Ca  1.500
Ca60    -0.305757188   11.157485441    3.553403403 XXXX 1      ca+h    Ca  1.500
Ca61     4.509919593   28.505819845   11.409478384 XXXX 1      ca+h    Ca  1.500
Ca62     4.640694756   21.547848809   11.259690198 XXXX 1      ca+h    Ca  1.500
Ca63     4.594060931   14.708714012   11.503823642 XXXX 1      ca+h    Ca  1.500
Ca64     4.699486758    7.893768342   11.350310842 XXXX 1      ca+h    Ca  1.500
Ca65     0.113955436   28.521789158   19.430900245 XXXX 1      ca+h    Ca  1.500
Ca66     0.095823418   21.791559546   19.578224658 XXXX 1      ca+h    Ca  1.500
Ca67     0.088579079   14.827795959   19.550185577 XXXX 1      ca+h    Ca  1.500
Ca68     0.043544796    7.915470651   19.445739898 XXXX 1      ca+h    Ca  1.500
Ca69    17.771091871   14.775649108    3.583436608 XXXX 1      ca+h    Ca  1.500
Ca70    18.112404688    7.971754033    3.834355971 XXXX 1      ca+h    Ca  1.500
Ca71    14.180756954   28.383908550   11.283352294 XXXX 1      ca+h    Ca  1.500
Ca72    14.148086484   21.534656899   11.131827576 XXXX 1      ca+h    Ca  1.500
Ca73    14.003027658   14.870360815   11.474595360 XXXX 1      ca+h    Ca  1.500
Ca74    14.025099287    7.840524351   11.193743488 XXXX 1      ca+h    Ca  1.500
Ca75     9.391990766   28.524988888   19.625288741 XXXX 1      ca+h    Ca  1.500
Ca76     9.508255510   21.756878921   19.542068830 XXXX 1      ca+h    Ca  1.500
Ca77     9.556980074   14.752906385   19.587463146 XXXX 1      ca+h    Ca  1.500
Ca78     9.729017824    8.007574581   19.527586979 XXXX 1      ca+h    Ca  1.500
Ca79     4.781729911   28.716283318   27.743782757 XXXX 1      ca+h    Ca  1.500
Ca80     4.748726802   21.693712405   27.608727488 XXXX 1      ca+h    Ca  1.500
Ca81     4.783532031   14.878974201   27.734695205 XXXX 1      ca+h    Ca  1.500
Ca82     4.856083692    7.956317454   27.678632374 XXXX 1      ca+h    Ca  1.500
Ca83    -0.099267334   32.032309465    8.663151257 XXXX 1      ca+h    Ca  1.500
Ca84    -0.057899999   24.961178664    8.714753599 XXXX 1      ca+h    Ca  1.500
Ca85    -0.101649526   18.206515725    8.544863399 XXXX 1      ca+h    Ca  1.500
Ca86    -0.097652181   11.329239853    8.491755439 XXXX 1      ca+h    Ca  1.500
Ca87     9.339518222   32.064051047    8.761684341 XXXX 1      ca+h    Ca  1.500
Ca88     9.249683759   25.107519062    8.639997381 XXXX 1      ca+h    Ca  1.500
Ca89     9.144052611   18.093893065    8.634334386 XXXX 1      ca+h    Ca  1.500
Ca90     9.298017863   11.200701279    8.505595129 XXXX 1      ca+h    Ca  1.500
Ca91     4.666831089   31.939781791   16.737882172 XXXX 1      ca+h    Ca  1.500
Ca92     4.784447296   25.081766476   16.898525530 XXXX 1      ca+h    Ca  1.500
Ca93     4.712108409   18.157350512   16.850921110 XXXX 1      ca+h    Ca  1.500
Ca94     4.720050040   11.359499014   16.913691311 XXXX 1      ca+h    Ca  1.500
Ca95     0.049214872   32.072564716   24.906860204 XXXX 1      ca+h    Ca  1.500
Ca96     0.030087366   25.151532311   24.895998163 XXXX 1      ca+h    Ca  1.500
Ca97     0.063052809   18.207332519   25.038886682 XXXX 1      ca+h    Ca  1.500
Ca98    -0.020874645   11.402209176   24.895364477 XXXX 1      ca+h    Ca  1.500
Ca99    18.786486740   32.031477482    9.049421571 XXXX 1      ca+h    Ca  1.500
Ca100   18.813238284   25.101530035    8.707248391 XXXX 1      ca+h    Ca  1.500
Ca101   18.725749543   18.392330847    8.725744339 XXXX 1      ca+h    Ca  1.500
Ca102   18.774955270   11.364748552    8.673077890 XXXX 1      ca+h    Ca  1.500
Ca103   14.093109169   31.967269057   17.026540539 XXXX 1      ca+h    Ca  1.500
Ca104   14.058800753   25.113855809   16.861000058 XXXX 1      ca+h    Ca  1.500
Ca105   14.113484228   18.272333157   16.791082100 XXXX 1      ca+h    Ca  1.500
Ca106   14.169819213   11.349459945   16.747082953 XXXX 1      ca+h    Ca  1.500
Ca107    9.504581248   32.019125081   25.108280205 XXXX 1      ca+h    Ca  1.500
Ca108    9.526762940   25.076463533   25.124730029 XXXX 1      ca+h    Ca  1.500
Ca109    9.400184968   18.279038217   24.956797725 XXXX 1      ca+h    Ca  1.500
Ca110    9.657459743   11.426571350   25.042871021 XXXX 1      ca+h    Ca  1.500
Ca111    3.488081861   33.739978530    7.801783417 XXXX 1      ca+h    Ca  1.500
Ca112    3.492131706   26.916091887    7.830031519 XXXX 1      ca+h    Ca  1.500
Ca113    3.508921563   20.068121286    7.655586610 XXXX 1      ca+h    Ca  1.500
Ca114    3.419781263   12.861421258    7.750580792 XXXX 1      ca+h    Ca  1.500
Ca115   12.871111085   33.626576417    7.924069301 XXXX 1      ca+h    Ca  1.500
Ca116   12.952048358   26.623555524    7.797389543 XXXX 1      ca+h    Ca  1.500
Ca117   12.904264340   19.811202672    7.790148758 XXXX 1      ca+h    Ca  1.500
Ca118   13.038120859   13.157214684    7.943899417 XXXX 1      ca+h    Ca  1.500
Ca119    8.212377404   33.652397696   16.029715670 XXXX 1      ca+h    Ca  1.500
Ca120    8.095979655   26.791034044   16.079132885 XXXX 1      ca+h    Ca  1.500
Ca121    8.129893102   19.920459493   16.093755310 XXXX 1      ca+h    Ca  1.500
Ca122    8.209423833   13.127600856   16.083328664 XXXX 1      ca+h    Ca  1.500
Ca123    3.524734041   33.785081441   24.323741886 XXXX 1      ca+h    Ca  1.500
Ca124    3.432120076   26.938026031   24.267377818 XXXX 1      ca+h    Ca  1.500
Ca125    3.426879494   20.060991396   24.325357359 XXXX 1      ca+h    Ca  1.500
Ca126    3.562469720   13.264741341   24.183914695 XXXX 1      ca+h    Ca  1.500
P1       6.277452109   33.810159819    9.235767132 XXXX 1      pap     P   1.000
P2       6.314309917   26.869686438    9.207036745 XXXX 1      pap     P   1.000
P3       6.235897314   19.925778416    9.114258170 XXXX 1      pap     P   1.000
P4       6.291828923   13.033184881    9.085027014 XXXX 1      pap     P   1.000
P5       1.630623346   33.643451073   17.344097074 XXXX 1      pap     P   1.000
P6       1.623528957   26.748196071   17.449171178 XXXX 1      pap     P   1.000
P7       1.592412021   19.951747537   17.394851433 XXXX 1      pap     P   1.000
P8       1.603051020   13.098225207   17.481765448 XXXX 1      pap     P   1.000
P9      15.652451358   33.701353104    9.268779545 XXXX 1      pap     P   1.000
P10     15.790662427   26.755679329    9.213437632 XXXX 1      pap     P   1.000
P11     15.762336727   19.810224285    9.146277644 XXXX 1      pap     P   1.000
P12     15.857491405   13.213048435    9.297638829 XXXX 1      pap     P   1.000
P13     10.970587989   33.773259070   17.382835442 XXXX 1      pap     P   1.000
P14     10.993442044   26.770483476   17.444414257 XXXX 1      pap     P   1.000
P15     10.940899529   19.898197259   17.407235517 XXXX 1      pap     P   1.000
P16     11.036636623   12.925993780   17.337109042 XXXX 1      pap     P   1.000
P17      6.469160034   33.779079511   25.682693435 XXXX 1      pap     P   1.000
P18      6.337826610   26.908217937   25.598341043 XXXX 1      pap     P   1.000
P19      6.341972175   20.006222413   25.602011438 XXXX 1      pap     P   1.000
P20      6.471400122   13.102094404   25.458685456 XXXX 1      pap     P   1.000
O313     6.297230170   33.754699391   10.748548386 XXXX 1      oap1    O  -0.800
O314     6.352845807   26.638794818   10.726747797 XXXX 1      oap1    O  -0.800
O315     6.215233707   19.766867017   10.641136535 XXXX 1      oap1    O  -0.800
O316     6.267822750   13.445623333   10.555283575 XXXX 1      oap1    O  -0.800
O317     1.636885292   33.742941466   18.857189864 XXXX 1      oap1    O  -0.800
O318     1.845617967   26.889736353   18.912095507 XXXX 1      oap1    O  -0.800
O319     1.739931159   19.912932058   18.890697543 XXXX 1      oap1    O  -0.800
O320     1.759453385   13.118452421   18.993455550 XXXX 1      oap1    O  -0.800
O321    15.537079225   33.663899123   10.797101610 XXXX 1      oap1    O  -0.800
O322    15.694052479   26.623517359   10.781889557 XXXX 1      oap1    O  -0.800
O323    15.809800773   19.878794735   10.709007416 XXXX 1      oap1    O  -0.800
O324    15.635629403   13.447050171   10.791194758 XXXX 1      oap1    O  -0.800
O325    10.906177504   33.792073586   18.920923554 XXXX 1      oap1    O  -0.800
O326    11.074152493   26.753634841   18.980654269 XXXX 1      oap1    O  -0.800
O327    11.094950513   20.074000644   18.902525734 XXXX 1      oap1    O  -0.800
O328    11.238237095   12.886320948   18.884762025 XXXX 1      oap1    O  -0.800
O329     6.463690519   33.846290359   27.235492190 XXXX 1      oap1    O  -0.800
O330     6.453233219   27.076047098   27.138842996 XXXX 1      oap1    O  -0.800
O331     6.495679170   20.089503542   27.153498637 XXXX 1      oap1    O  -0.800
O332     6.604475315   13.204551480   26.976766881 XXXX 1      oap1    O  -0.800
O333     7.670192606   33.812539098    8.576160342 XXXX 1      oap1    O  -0.800
O334     7.713725154   26.995837993    8.528393558 XXXX 1      oap1    O  -0.800
O335     7.634640564   19.921446967    8.454071529 XXXX 1      oap1    O  -0.800
O336     7.680539485   13.030720231    8.528041594 XXXX 1      oap1    O  -0.800
O337     3.061478114   33.650738829   16.822432066 XXXX 1      oap1    O  -0.800
O338     2.992282892   26.775088978   16.728972150 XXXX 1      oap1    O  -0.800
O339     3.013191079   19.871008862   16.720292204 XXXX 1      oap1    O  -0.800
O340     2.934326711   13.119877632   16.673859498 XXXX 1      oap1    O  -0.800
O341    17.127639689   33.641086082    8.780954465 XXXX 1      oap1    O  -0.800
O342    17.248936937   26.771259579    8.657254414 XXXX 1      oap1    O  -0.800
O343    17.107555653   19.973298258    8.427963544 XXXX 1      oap1    O  -0.800
O344    17.317923554   13.165232050    8.881815528 XXXX 1      oap1    O  -0.800
O345    12.398518948   33.812075139   16.885915009 XXXX 1      oap1    O  -0.800
O346    12.360357788   26.756138978   16.709348985 XXXX 1      oap1    O  -0.800
O347    12.318108708   19.821491987   16.701787026 XXXX 1      oap1    O  -0.800
O348    12.357778268   13.107025026   16.516569430 XXXX 1      oap1    O  -0.800
O349     7.856948159   33.804979864   24.967535104 XXXX 1      oap1    O  -0.800
O350     7.658486614   26.875019213   24.805957352 XXXX 1      oap1    O  -0.800
O351     7.689791623   19.994434593   24.825742145 XXXX 1      oap1    O  -0.800
O352     7.893228607   13.115065680   24.788453903 XXXX 1      oap1    O  -0.800
Ca127    3.750912967   19.596819684    3.672849859 XXXX 1      ca+h    Ca  1.500
Ca128   13.202460564   34.305685027    4.352034426 XXXX 1      ca+h    Ca  1.500
Ca129   13.110066148   12.952573906    4.317728933 XXXX 1      ca+h    Ca  1.500
Ca130    8.270517416   33.711321503   11.968724134 XXXX 1      ca+h    Ca  1.500
Ca131    8.216387103   26.760473840   11.942883388 XXXX 1      ca+h    Ca  1.500
Ca132    8.225949860   19.913857185   12.000512159 XXXX 1      ca+h    Ca  1.500
Ca133    8.300943480   13.077668940   12.015040033 XXXX 1      ca+h    Ca  1.500
Ca134    3.648997871   33.826538188   20.219968767 XXXX 1      ca+h    Ca  1.500
Ca135    3.686635346   26.845228254   20.338366411 XXXX 1      ca+h    Ca  1.500
Ca136    3.692888367   19.976589258   20.364177034 XXXX 1      ca+h    Ca  1.500
Ca137    3.635967422   13.090166428   20.292367329 XXXX 1      ca+h    Ca  1.500
Ca138   22.698010767   34.729005158    4.145188445 XXXX 1      ca+h    Ca  1.500
Ca139   22.458191501   20.296301746    4.252019119 XXXX 1      ca+h    Ca  1.500
Ca140   22.519413623   13.551107584    4.144610993 XXXX 1      ca+h    Ca  1.500
Ca141   17.771208941   33.857907436   11.965309397 XXXX 1      ca+h    Ca  1.500
Ca142   17.721314677   26.830586947   12.153698323 XXXX 1      ca+h    Ca  1.500
Ca143   17.719646183   19.991387975   12.022376750 XXXX 1      ca+h    Ca  1.500
Ca144   17.647166803   13.052805565   11.926219202 XXXX 1      ca+h    Ca  1.500
Ca145   12.984724057   33.716503910   20.292316087 XXXX 1      ca+h    Ca  1.500
Ca146   13.064750182   26.842277211   20.188760311 XXXX 1      ca+h    Ca  1.500
Ca147   13.081342370   20.160383456   20.274208865 XXXX 1      ca+h    Ca  1.500
Ca148   13.310485339   12.965204923   20.303576374 XXXX 1      ca+h    Ca  1.500
Ca149    8.352737533   33.756283081   28.731250019 XXXX 1      ca+h    Ca  1.500
Ca150    8.504101545   26.972034099   28.630265870 XXXX 1      ca+h    Ca  1.500
Ca151    8.404389004   20.056429524   28.654317451 XXXX 1      ca+h    Ca  1.500
Ca152    8.429174308   13.249599816   28.681904491 XXXX 1      ca+h    Ca  1.500
P21      1.028760960   33.753004275    5.620384715 XXXX 1      pap     P   1.000
P22      1.203019859   26.877159775    5.755176989 XXXX 1      pap     P   1.000
P23      1.060806213   20.022791099    5.530195342 XXXX 1      pap     P   1.000
P24      0.835048208   13.118385030    5.549653831 XXXX 1      pap     P   1.000
P25     10.309623847   33.761255440    5.654181253 XXXX 1      pap     P   1.000
P26     10.563457751   26.785016259    5.709178011 XXXX 1      pap     P   1.000
P27     10.332494204   19.661801309    5.489675643 XXXX 1      pap     P   1.000
P28     10.375150886   12.939053378    5.662834574 XXXX 1      pap     P   1.000
P29      5.816660295   33.720251464   13.785400820 XXXX 1      pap     P   1.000
P30      5.690575969   26.801441346   13.888211192 XXXX 1      pap     P   1.000
P31      5.750344585   19.896000584   13.749685869 XXXX 1      pap     P   1.000
P32      5.788259315   13.058049272   13.867456933 XXXX 1      pap     P   1.000
P33      1.073607805   33.817424211   21.979703748 XXXX 1      pap     P   1.000
P34      1.201593195   26.920180229   22.084165076 XXXX 1      pap     P   1.000
P35      1.106172965   19.915837445   22.053017369 XXXX 1      pap     P   1.000
P36      1.093315031   13.051103203   22.074791858 XXXX 1      pap     P   1.000
P37     19.778869198   33.725329771    5.837715188 XXXX 1      pap     P   1.000
P38     20.063022040   26.673510518    5.760279716 XXXX 1      pap     P   1.000
P39     19.791766952   19.898655581    5.587130199 XXXX 1      pap     P   1.000
P40     19.828348584   13.212070370    5.735897252 XXXX 1      pap     P   1.000
P41     15.110242461   33.749883771   13.923388376 XXXX 1      pap     P   1.000
P42     15.234268816   26.768242741   13.987135452 XXXX 1      pap     P   1.000
P43     15.174537340   19.929762618   13.744284281 XXXX 1      pap     P   1.000
P44     15.218283656   13.059444767   13.872639099 XXXX 1      pap     P   1.000
P45     10.465689783   33.758188700   22.019589937 XXXX 1      pap     P   1.000
P46     10.488611175   26.803764170   22.145562988 XXXX 1      pap     P   1.000
P47     10.529132830   19.961751601   21.973293258 XXXX 1      pap     P   1.000
P48     10.671930702   13.122475641   21.929867304 XXXX 1      pap     P   1.000
P49      5.759987017   33.856988730   30.299946548 XXXX 1      pap     P   1.000
P50      5.652285323   27.164438170   30.227389784 XXXX 1      pap     P   1.000
P51      5.574738106   20.124153428   30.359324421 XXXX 1      pap     P   1.000
P52      5.688890911   13.261208325   30.168957209 XXXX 1      pap     P   1.000
O353    -0.294645512   33.797880909    4.716358916 XXXX 1      oap1    O  -0.800
O354    -0.064041435   26.452282843    4.959519060 XXXX 1      oap1    O  -0.800
O355    -0.298164411   20.242227699    4.888196554 XXXX 1      oap1    O  -0.800
O356    -0.619428674   13.028979075    5.141141440 XXXX 1      oap1    O  -0.800
O357     8.845425697   33.714763193    5.105092332 XXXX 1      oap1    O  -0.800
O358     9.430200383   26.470320523    4.678039026 XXXX 1      oap1    O  -0.800
O359     9.202030291   20.058960345    4.457933376 XXXX 1      oap1    O  -0.800
O360     8.952974926   12.815469225    5.066514406 XXXX 1      oap1    O  -0.800
O361     4.439487600   33.901635837   13.145996516 XXXX 1      oap1    O  -0.800
O362     4.322272462   26.955159229   13.226304304 XXXX 1      oap1    O  -0.800
O363     4.438781460   19.767352324   12.956755811 XXXX 1      oap1    O  -0.800
O364     4.463652531   12.986708799   13.057673348 XXXX 1      oap1    O  -0.800
O365    -0.249737829   33.815395786   21.276668999 XXXX 1      oap1    O  -0.800
O366    -0.119746346   26.870295470   21.237183714 XXXX 1      oap1    O  -0.800
O367    -0.191089425   19.985960570   21.321283773 XXXX 1      oap1    O  -0.800
O368    -0.281137556   13.145921879   21.465690970 XXXX 1      oap1    O  -0.800
O369    18.483082263   33.845013012    5.035683676 XXXX 1      oap1    O  -0.800
O370    18.781615261   26.595826538    5.028491500 XXXX 1      oap1    O  -0.800
O371    18.354454404   20.021288251    5.151184836 XXXX 1      oap1    O  -0.800
O372    18.443937015   13.167314838    5.060796865 XXXX 1      oap1    O  -0.800
O373    13.750985246   33.703432245   13.188875242 XXXX 1      oap1    O  -0.800
O374    13.903369394   26.797883297   13.297102240 XXXX 1      oap1    O  -0.800
O375    13.842415438   19.825305397   12.970077336 XXXX 1      oap1    O  -0.800
O376    13.844141476   13.272462290   13.301382286 XXXX 1      oap1    O  -0.800
O377     9.111341251   33.768421829   21.305001274 XXXX 1      oap1    O  -0.800
O378     9.130336625   26.654354747   21.368895596 XXXX 1      oap1    O  -0.800
O379     9.224037640   19.963962884   21.221091788 XXXX 1      oap1    O  -0.800
O380     9.363329365   13.080583606   21.132444485 XXXX 1      oap1    O  -0.800
O381     4.491557680   34.033630716   29.440908711 XXXX 1      oap1    O  -0.800
O382     4.430538043   26.995350803   29.267708544 XXXX 1      oap1    O  -0.800
O383     4.495870453   19.881138261   29.257734524 XXXX 1      oap1    O  -0.800
O384     4.577373776   13.059539166   29.135501790 XXXX 1      oap1    O  -0.800
O385     0.652948351   33.735371844    7.072391523 XXXX 1      oap1    O  -0.800
O386     0.867033793   26.777147375    7.277418752 XXXX 1      oap1    O  -0.800
O387     0.872153877   19.881040211    7.075128744 XXXX 1      oap1    O  -0.800
O388     1.051244345   12.896405809    7.034723960 XXXX 1      oap1    O  -0.800
O389    10.380118862   33.734498561    7.195272224 XXXX 1      oap1    O  -0.800
O390     9.915603630   26.947506641    7.142564652 XXXX 1      oap1    O  -0.800
O391     9.667391247   19.751724640    6.874894858 XXXX 1      oap1    O  -0.800
O392    10.252577903   12.984134924    7.170042447 XXXX 1      oap1    O  -0.800
O393     5.671702906   33.596908776   15.319942379 XXXX 1      oap1    O  -0.800
O394     5.551899465   26.735005893   15.420436665 XXXX 1      oap1    O  -0.800
O395     5.579802125   19.942756393   15.281656183 XXXX 1      oap1    O  -0.800
O396     5.532637342   13.030619517   15.405728528 XXXX 1      oap1    O  -0.800
O397     0.924825113   33.798675998   23.511828339 XXXX 1      oap1    O  -0.800
O398     0.995588106   26.870142322   23.562904783 XXXX 1      oap1    O  -0.800
O399     0.806153069   19.820694531   23.579597544 XXXX 1      oap1    O  -0.800
O400     1.013009549   13.002098947   23.572718910 XXXX 1      oap1    O  -0.800
O401    19.489607277   33.764798052    7.356384381 XXXX 1      oap1    O  -0.800
O402    19.819757487   26.678995413    7.275887630 XXXX 1      oap1    O  -0.800
O403    19.857602986   19.756330390    7.159612112 XXXX 1      oap1    O  -0.800
O404    19.615263167   13.162266265    7.273828876 XXXX 1      oap1    O  -0.800
O405    14.895648659   33.648978093   15.447890121 XXXX 1      oap1    O  -0.800
O406    15.070765323   26.808675709   15.537785400 XXXX 1      oap1    O  -0.800
O407    15.063074211   19.896351000   15.259750746 XXXX 1      oap1    O  -0.800
O408    15.145544467   12.969769295   15.413367522 XXXX 1      oap1    O  -0.800
O409    10.271342281   33.755834349   23.585507232 XXXX 1      oap1    O  -0.800
O410    10.224673903   26.881447217   23.713020485 XXXX 1      oap1    O  -0.800
O411    10.258293538   20.032698924   23.480463860 XXXX 1      oap1    O  -0.800
O412    10.383097524   13.271468326   23.448941461 XXXX 1      oap1    O  -0.800
O413     5.423193184   33.546042217   31.820496135 XXXX 1      oap1    O  -0.800
O414     5.058974850   27.333409676   31.639331050 XXXX 1      oap1    O  -0.800
O415     4.815301941   20.232633986   31.698362071 XXXX 1      oap1    O  -0.800
O416     5.057373184   13.527874247   31.521204273 XXXX 1      oap1    O  -0.800
Ca153    6.695763083   33.809409539    6.148636266 XXXX 1      ca+h    Ca  1.500
Ca154    7.405649545   27.065186652    6.045138201 XXXX 1      ca+h    Ca  1.500
Ca155    7.247500533   19.994232782    6.025643795 XXXX 1      ca+h    Ca  1.500
Ca156    6.810881100   12.888909758    6.061863169 XXXX 1      ca+h    Ca  1.500
Ca157    2.209943731   33.753711418   14.140448323 XXXX 1      ca+h    Ca  1.500
Ca158    2.315700383   26.744897706   14.278845333 XXXX 1      ca+h    Ca  1.500
Ca159    2.313437130   19.938901134   14.055298602 XXXX 1      ca+h    Ca  1.500
Ca160    2.456989720   13.012108308   14.255521881 XXXX 1      ca+h    Ca  1.500
Ca161   16.395305967   33.771062365    6.408589980 XXXX 1      ca+h    Ca  1.500
Ca162   16.713096854   26.879604194    5.858062564 XXXX 1      ca+h    Ca  1.500
Ca163   16.025514450   19.981261973    6.056855638 XXXX 1      ca+h    Ca  1.500
Ca164   16.373381598   13.141909507    6.432172781 XXXX 1      ca+h    Ca  1.500
Ca165   11.656393152   33.641447619   14.278999153 XXXX 1      ca+h    Ca  1.500
Ca166   11.635321744   26.704497757   14.248170849 XXXX 1      ca+h    Ca  1.500
Ca167   11.683970543   19.967441759   13.901197348 XXXX 1      ca+h    Ca  1.500
Ca168   11.670270860   12.921057852   14.111383540 XXXX 1      ca+h    Ca  1.500
Ca169    7.070275888   33.912877510   22.471300683 XXXX 1      ca+h    Ca  1.500
Ca170    7.043800222   26.806669274   22.463897383 XXXX 1      ca+h    Ca  1.500
Ca171    7.165025850   20.035297220   22.440705433 XXXX 1      ca+h    Ca  1.500
Ca172    7.262300178   13.165208257   22.250487929 XXXX 1      ca+h    Ca  1.500
Ca173    2.424157240   34.052538410   30.555724619 XXXX 1      ca+h    Ca  1.500
Ca174    2.448361394   27.185180140   30.487576344 XXXX 1      ca+h    Ca  1.500
Ca175    2.520377285   20.188075580   30.450046679 XXXX 1      ca+h    Ca  1.500
Ca176    2.518466063   13.157252155   30.413745681 XXXX 1      ca+h    Ca  1.500
P53      6.331343503   34.389347070    2.305772700 XXXX 1      pap     P   1.000
P54      5.353291897   26.203659820    3.738479427 XXXX 1      pap     P   1.000
P55      6.761918430   19.758952141    2.629436234 XXXX 1      pap     P   1.000
P56      7.070435307   13.663072456    2.314769756 XXXX 1      pap     P   1.000
P57      2.080260683   33.716451140   11.060588243 XXXX 1      pap     P   1.000
P58      1.949885119   26.794333452   11.100901003 XXXX 1      pap     P   1.000
P59      2.031470230   19.914121699   10.824848873 XXXX 1      pap     P   1.000
P60      1.972953973   13.046843791   11.001802711 XXXX 1      pap     P   1.000
P61     16.231920717   34.185075988    2.428099271 XXXX 1      pap     P   1.000
P62     15.993114376   25.521716334    2.615094145 XXXX 1      pap     P   1.000
P63     15.501103634   17.553349486    3.126694664 XXXX 1      pap     P   1.000
P64     15.758786788   12.491918451    2.649024504 XXXX 1      pap     P   1.000
P65     11.411644635   33.776532595   11.081940231 XXXX 1      pap     P   1.000
P66     11.463973866   26.800388283   11.069472597 XXXX 1      pap     P   1.000
P67     11.394623098   19.843379087   10.935886074 XXXX 1      pap     P   1.000
P68     11.524355152   13.101829794   11.116684276 XXXX 1      pap     P   1.000
P69      6.682392367   33.744507310   19.258143163 XXXX 1      pap     P   1.000
P70      6.651624682   26.928608347   19.302854911 XXXX 1      pap     P   1.000
P71      6.694939737   19.964573994   19.226668176 XXXX 1      pap     P   1.000
P72      6.797373635   13.122006756   19.155994426 XXXX 1      pap     P   1.000
P73      1.997016309   33.777254717   27.419988415 XXXX 1      pap     P   1.000
P74      1.994546447   26.970866305   27.311268321 XXXX 1      pap     P   1.000
P75      2.058701924   20.034224936   27.411836201 XXXX 1      pap     P   1.000
P76      1.923378530   13.101490374   27.410441673 XXXX 1      pap     P   1.000
O417     5.808291556   35.585950698    1.459396242 XXXX 1      oap1    O  -0.650
O418     3.894574036   26.324732139    3.432597543 XXXX 1      oap1    O  -0.650
O419     7.449271105   21.007519928    3.177632515 XXXX 1      oap1    O  -0.650
O420     7.521775054   15.038556454    1.815469075 XXXX 1      oap1    O  -0.650
O421     3.339528991   33.917990752   10.236654478 XXXX 1      oap1    O  -0.800
O422     3.121811561   26.680421863   10.177975571 XXXX 1      oap1    O  -0.800
O423     3.267122856   19.907245112    9.951434475 XXXX 1      oap1    O  -0.800
O424     3.257304227   13.184571004   10.250542849 XXXX 1      oap1    O  -0.800
O425    16.125672458   35.584107219    1.912019108 XXXX 1      oap1    O  -0.650
O426    15.187747479   25.642774971    1.313466491 XXXX 1      oap1    O  -0.650
O427    14.522184351   17.687104650    1.968517666 XXXX 1      oap1    O  -0.650
O428    16.696165143   13.335584156    1.784470021 XXXX 1      oap1    O  -0.650
O429    12.659342152   33.880483522   10.113022573 XXXX 1      oap1    O  -0.800
O430    12.710541477   26.823869858   10.101770354 XXXX 1      oap1    O  -0.800
O431    12.760743880   19.679576896   10.271303840 XXXX 1      oap1    O  -0.800
O432    12.815322024   13.027108578   10.245963964 XXXX 1      oap1    O  -0.800
O433     7.984820043   33.863981819   18.474533183 XXXX 1      oap1    O  -0.800
O434     7.909819378   27.116540739   18.472376885 XXXX 1      oap1    O  -0.800
O435     8.022035491   20.005230615   18.495066497 XXXX 1      oap1    O  -0.800
O436     8.136120496   13.081438795   18.350295416 XXXX 1      oap1    O  -0.800
O437     3.366157217   33.537858730   26.813730133 XXXX 1      oap1    O  -0.800
O438     3.307322666   26.957120519   26.535266034 XXXX 1      oap1    O  -0.800
O439     3.408894066   19.850237592   26.669880785 XXXX 1      oap1    O  -0.800
O440     3.264196565   13.202965350   26.578001589 XXXX 1      oap1    O  -0.800
O441     5.503518661   33.144063426    2.080490092 XXXX 1      oap1    O  -0.650
O442     5.498112648   25.821441574    5.182066653 XXXX 1      oap1    O  -0.650
O443     5.450710109   20.161638847    1.932661025 XXXX 1      oap1    O  -0.650
O444     5.919722070   13.168313099    1.409650573 XXXX 1      oap1    O  -0.650
O445     0.761047743   33.589354679   10.171038159 XXXX 1      oap1    O  -0.800
O446     0.675337449   26.682075897   10.245233724 XXXX 1      oap1    O  -0.800
O447     0.686986866   19.929534720   10.063575941 XXXX 1      oap1    O  -0.800
O448     0.692863592   13.024616864   10.033356878 XXXX 1      oap1    O  -0.800
O449    15.362282273   33.415004393    1.443529731 XXXX 1      oap1    O  -0.650
O450    15.759581827   24.115442600    3.203597115 XXXX 1      oap1    O  -0.650
O451    14.725441628   16.765729191    4.188162375 XXXX 1      oap1    O  -0.650
O452    16.406194654   11.138914704    2.887756028 XXXX 1      oap1    O  -0.650
O453    10.082287768   33.741904405   10.266442718 XXXX 1      oap1    O  -0.800
O454    10.200083049   26.867659773   10.233081792 XXXX 1      oap1    O  -0.800
O455    10.148702613   19.820526732    9.963642197 XXXX 1      oap1    O  -0.800
O456    10.221696507   13.029388447   10.279491117 XXXX 1      oap1    O  -0.800
O457     5.454167969   33.687866203   18.393431312 XXXX 1      oap1    O  -0.800
O458     5.372880081   26.954537363   18.388733453 XXXX 1      oap1    O  -0.800
O459     5.505358885   19.948481398   18.290636839 XXXX 1      oap1    O  -0.800
O460     5.569150482   13.099900306   18.201325103 XXXX 1      oap1    O  -0.800
O461     0.824491707   33.736079557   26.330678335 XXXX 1      oap1    O  -0.800
O462     0.777715317   26.983090083   26.442011978 XXXX 1      oap1    O  -0.800
O463     0.910367692   20.163857619   26.403009417 XXXX 1      oap1    O  -0.800
O464     0.696789451   12.958152082   26.439712428 XXXX 1      oap1    O  -0.800
Ca177    5.705404524   29.771448025    4.451594132 XXXX 1      ca+h    Ca  1.500
Ca178    6.153515426   16.173231074    3.816610669 XXXX 1      ca+h    Ca  1.500
Ca179    1.129391082   30.373607647   12.129816835 XXXX 1      ca+h    Ca  1.500
Ca180    1.297242218   23.354588453   11.971133739 XXXX 1      ca+h    Ca  1.500
Ca181    1.210453408   16.375978571   11.972389659 XXXX 1      ca+h    Ca  1.500
Ca182    1.247788134    9.542178547   12.193731934 XXXX 1      ca+h    Ca  1.500
Ca183   13.189775131   27.638593884    4.125020604 XXXX 1      ca+h    Ca  1.500
Ca184   10.653980797   30.177790638   12.152001989 XXXX 1      ca+h    Ca  1.500
Ca185   10.636541623   23.301547183   12.100520050 XXXX 1      ca+h    Ca  1.500
Ca186   10.469044522   16.579801233   12.205440853 XXXX 1      ca+h    Ca  1.500
Ca187   10.797303147    9.717885169   12.080901764 XXXX 1      ca+h    Ca  1.500
Ca188    5.886794771   30.401014815   20.333044252 XXXX 1      ca+h    Ca  1.500
Ca189    5.905345240   23.344166930   20.517029386 XXXX 1      ca+h    Ca  1.500
Ca190    5.969305374   16.582362181   20.333307780 XXXX 1      ca+h    Ca  1.500
Ca191    6.037976886    9.620857134   20.036339793 XXXX 1      ca+h    Ca  1.500
Ca192    1.217260475   30.375293396   28.381339829 XXXX 1      ca+h    Ca  1.500
Ca193    1.377336480   23.330493028   28.620104020 XXXX 1      ca+h    Ca  1.500
Ca194    1.145581197   16.607074926   28.538269961 XXXX 1      ca+h    Ca  1.500
Ca195    1.247723181    9.734174116   28.467203978 XXXX 1      ca+h    Ca  1.500
Ca196   24.817302786    9.658756571    4.094219374 XXXX 1      ca+h    Ca  1.500
Ca197   19.907954606   30.262045968   12.521406979 XXXX 1      ca+h    Ca  1.500
Ca198   20.098830506   23.453666411   12.152769558 XXXX 1      ca+h    Ca  1.500
Ca199   20.111864223   16.718182445   12.135721572 XXXX 1      ca+h    Ca  1.500
Ca200   20.171985089    9.729766674   12.048739491 XXXX 1      ca+h    Ca  1.500
Ca201   15.329022614   30.200296067   20.538645815 XXXX 1      ca+h    Ca  1.500
Ca202   15.316268467   23.315148288   20.429771685 XXXX 1      ca+h    Ca  1.500
Ca203   15.339907744   16.542164102   20.348653294 XXXX 1      ca+h    Ca  1.500
Ca204   15.584203962    9.584091191   20.280538416 XXXX 1      ca+h    Ca  1.500
Ca205   10.776719931   30.316971178   28.749249522 XXXX 1      ca+h    Ca  1.500
Ca206   10.646165935   23.268989543   29.042709191 XXXX 1      ca+h    Ca  1.500
Ca207   10.536543918   16.651639678   28.726831834 XXXX 1      ca+h    Ca  1.500
Ca208   10.604891227    9.626278888   28.469450460 XXXX 1      ca+h    Ca  1.500
P77      2.553300567   30.940898402    2.388651851 XXXX 1      pap     P   1.000
P78      2.933754894   22.771631577    2.132957390 XXXX 1      pap     P   1.000
P79      2.813417741   17.022849865    2.199638006 XXXX 1      pap     P   1.000
P80      0.535836638    8.429062549    2.062975900 XXXX 1      pap     P   1.000
P81     11.697338544   32.627425586    1.748453804 XXXX 1      pap     P   1.000
P82     12.126523656   24.670614836    2.206879563 XXXX 1      pap     P   1.000
P83     11.476975176   15.849436565    1.959384743 XXXX 1      pap     P   1.000
P84     12.702423250    9.694847901    2.591021096 XXXX 1      pap     P   1.000
P85      7.835849977   30.240133812   10.759284664 XXXX 1      pap     P   1.000
P86      7.797450909   23.295799712   10.845925593 XXXX 1      pap     P   1.000
P87      7.635543775   16.472494999   10.865708140 XXXX 1      pap     P   1.000
P88      7.743840355    9.667835565   10.906913847 XXXX 1      pap     P   1.000
P89      3.085419671   30.356797702   19.082374366 XXXX 1      pap     P   1.000
P90      3.155755843   23.395109669   19.167666563 XXXX 1      pap     P   1.000
P91      3.164885912   16.597447248   19.023780873 XXXX 1      pap     P   1.000
P92      3.136921524    9.699429065   18.941794644 XXXX 1      pap     P   1.000
P93     21.605825317   32.408531870    2.322219511 XXXX 1      pap     P   1.000
P94     22.662684260   23.615750816    2.658666757 XXXX 1      pap     P   1.000
P95     20.637777026   15.567040704    1.936596872 XXXX 1      pap     P   1.000
P96     21.356560540   10.801260725    2.495637727 XXXX 1      pap     P   1.000
P97     17.049396217   30.216085345   10.993710793 XXXX 1      pap     P   1.000
P98     17.149580159   23.365488817   10.998581680 XXXX 1      pap     P   1.000
P99     17.294631710   16.491869469   10.835662570 XXXX 1      pap     P   1.000
P100    17.270298951    9.601667251   10.880014811 XXXX 1      pap     P   1.000
P101    12.438539851   30.293490474   19.080586859 XXXX 1      pap     P   1.000
P102    12.502819181   23.495756428   19.008848831 XXXX 1      pap     P   1.000
P103    12.512883876   16.567391562   19.005169137 XXXX 1      pap     P   1.000
P104    12.664472205    9.635007414   18.963206258 XXXX 1      pap     P   1.000
P105     7.916766984   30.312233050   27.283044163 XXXX 1      pap     P   1.000
P106     7.748038142   23.582826985   27.245670461 XXXX 1      pap     P   1.000
P107     7.835971998   16.595688769   27.231919723 XXXX 1      pap     P   1.000
P108     7.926302467    9.682356161   27.129310062 XXXX 1      pap     P   1.000
O465     3.457143600   31.133687300    1.131912462 XXXX 1      oap1    O  -0.650
O466     2.622966801   23.339854153    0.775542037 XXXX 1      oap1    O  -0.650
O467     2.209136699   18.400339215    2.045352942 XXXX 1      oap1    O  -0.650
O468     1.294243610    8.939355809    3.324820468 XXXX 1      oap1    O  -0.650
O469    11.826075920   32.297516412    0.294899182 XXXX 1      oap1    O  -0.650
O470    12.777240812   24.048068234    1.049055312 XXXX 1      oap1    O  -0.650
O471    12.185388944   15.525300093    0.667087829 XXXX 1      oap1    O  -0.650
O472    13.432767105   10.113066514    1.374000710 XXXX 1      oap1    O  -0.650
O473     7.661290347   30.260218203    9.252765284 XXXX 1      oap1    O  -0.800
O474     7.601170573   23.433734512    9.349700510 XXXX 1      oap1    O  -0.800
O475     7.508278019   16.053518177    9.364563299 XXXX 1      oap1    O  -0.800
O476     7.601615127    9.441975861    9.371003742 XXXX 1      oap1    O  -0.800
O477     3.028796341   30.143552444   17.568036870 XXXX 1      oap1    O  -0.800
O478     3.205896288   23.476555060   17.591602682 XXXX 1      oap1    O  -0.800
O479     3.070728116   16.505219449   17.444090321 XXXX 1      oap1    O  -0.800
O480     2.946157039    9.842072229   17.416038663 XXXX 1      oap1    O  -0.800
O481    20.484039772   31.328994659    2.439115334 XXXX 1      oap1    O  -0.650
O482    23.508233116   22.936878528    1.561031375 XXXX 1      oap1    O  -0.650
O483    21.001159739   15.678609097    0.479958637 XXXX 1      oap1    O  -0.650
O484    21.574853476   10.205468379    1.093243013 XXXX 1      oap1    O  -0.650
O485    16.798491188   30.318308038    9.494022226 XXXX 1      oap1    O  -0.800
O486    17.170995590   23.028834658    9.503062418 XXXX 1      oap1    O  -0.800
O487    17.227008465   16.331612970    9.329063665 XXXX 1      oap1    O  -0.800
O488    17.184910901    9.589882813    9.335559050 XXXX 1      oap1    O  -0.800
O489    12.388239339   30.225411312   17.604138246 XXXX 1      oap1    O  -0.800
O490    12.471795545   23.166703677   17.511034674 XXXX 1      oap1    O  -0.800
O491    12.491091457   16.483322065   17.418087513 XXXX 1      oap1    O  -0.800
O492    12.466705845    9.743865877   17.456185294 XXXX 1      oap1    O  -0.800
O493     7.834263340   29.998393174   25.797992745 XXXX 1      oap1    O  -0.800
O494     7.791958566   23.447925601   25.676574242 XXXX 1      oap1    O  -0.800
O495     7.780419783   16.570335053   25.686077506 XXXX 1      oap1    O  -0.800
O496     7.998094328    9.717458617   25.626725272 XXXX 1      oap1    O  -0.800
O497     1.957239902   32.244075153    2.890654530 XXXX 1      oap1    O  -0.650
O498     2.380135434   21.279480184    2.150576139 XXXX 1      oap1    O  -0.600
O499     2.169785877   16.350524709    3.394672515 XXXX 1      oap1    O  -0.600
O500     1.508012910    8.261399678    0.883331486 XXXX 1      oap1    O  -0.650
O501    10.611210968   33.694628571    1.989638412 XXXX 1      oap1    O  -0.600
O502    12.586762495   23.920436402    3.482717522 XXXX 1      oap1    O  -0.650
O503     9.887001574   15.756526213    1.849033575 XXXX 1      oap1    O  -0.600
O504    12.987273002    8.289249592    2.884226248 XXXX 1      oap1    O  -0.650
O505     6.496276079   30.166618350   11.531655780 XXXX 1      oap1    O  -0.800
O506     6.407914162   23.351569203   11.571211774 XXXX 1      oap1    O  -0.800
O507     6.283087864   16.668567714   11.598541726 XXXX 1      oap1    O  -0.800
O508     6.406667301    9.646215643   11.647652592 XXXX 1      oap1    O  -0.800
O509     1.687942701   30.491637973   19.760453389 XXXX 1      oap1    O  -0.800
O510     1.741400648   23.545417376   19.598334296 XXXX 1      oap1    O  -0.800
O511     1.771581113   16.692864986   19.620209604 XXXX 1      oap1    O  -0.800
O512     1.783810066    9.629431433   19.716134597 XXXX 1      oap1    O  -0.800
O513    22.271340805   32.420794195    0.962454640 XXXX 1      oap1    O  -0.650
O514    22.322985585   22.527552374    3.697027705 XXXX 1      oap1    O  -0.600
O515    19.803323559   14.317075790    2.266159767 XXXX 1      oap1    O  -0.650
O516    20.067851231   10.205042651    3.119995670 XXXX 1      oap1    O  -0.650
O517    15.795134834   30.086831704   11.858761836 XXXX 1      oap1    O  -0.800
O518    15.662335746   23.485144754   11.496445878 XXXX 1      oap1    O  -0.800
O519    15.930698050   16.416114564   11.546882244 XXXX 1      oap1    O  -0.800
O520    15.889793320    9.591689119   11.511403474 XXXX 1      oap1    O  -0.800
O521    10.997699829   30.267312388   19.675760941 XXXX 1      oap1    O  -0.800
O522    11.037454290   23.453703314   19.517177105 XXXX 1      oap1    O  -0.800
O523    11.062170330   16.542425163   19.566422919 XXXX 1      oap1    O  -0.800
O524    11.292465331    9.720748194   19.675047526 XXXX 1      oap1    O  -0.800
O525     6.512481001   30.347391703   27.919866004 XXXX 1      oap1    O  -0.800
O526     6.317029319   23.504974724   27.776731804 XXXX 1      oap1    O  -0.800
O527     6.407076468   16.579797746   27.763137431 XXXX 1      oap1    O  -0.800
O528     6.465727039    9.735034946   27.583981636 XXXX 1      oap1    O  -0.800
Ca209    5.664009131   30.341760126    7.934049865 XXXX 1      ca+h    Ca  1.500
Ca210    5.672298028   23.529910740    7.976882864 XXXX 1      ca+h    Ca  1.500
Ca211    5.632433840   16.314895808    8.025437382 XXXX 1      ca+h    Ca  1.500
Ca212    5.771143610    9.554010299    7.901141292 XXXX 1      ca+h    Ca  1.500
Ca213    1.123173758   30.246453946   16.179666762 XXXX 1      ca+h    Ca  1.500
Ca214    1.198541731   23.370456013   16.173766070 XXXX 1      ca+h    Ca  1.500
Ca215    1.085513449   16.562158820   16.144411155 XXXX 1      ca+h    Ca  1.500
Ca216    0.973439596    9.749737374   16.164217396 XXXX 1      ca+h    Ca  1.500
Ca217   15.058430701   30.159737786    7.868660634 XXXX 1      ca+h    Ca  1.500
Ca218   15.200839008   23.334243431    7.888670035 XXXX 1      ca+h    Ca  1.500
Ca219   15.191001453   16.559129896    7.623254951 XXXX 1      ca+h    Ca  1.500
Ca220   15.166297522    9.718500077    8.052618637 XXXX 1      ca+h    Ca  1.500
Ca221   10.405472452   30.231015613   16.381186940 XXXX 1      ca+h    Ca  1.500
Ca222   10.348638143   23.182353997   16.254335216 XXXX 1      ca+h    Ca  1.500
Ca223   10.358016546   16.413911255   16.178534174 XXXX 1      ca+h    Ca  1.500
Ca224   10.458190299    9.523902327   16.018911409 XXXX 1      ca+h    Ca  1.500
Ca225    5.789808963   30.292058969   24.454507215 XXXX 1      ca+h    Ca  1.500
Ca226    5.868278811   23.527796605   24.384951225 XXXX 1      ca+h    Ca  1.500
Ca227    5.878363718   16.590412465   24.375763554 XXXX 1      ca+h    Ca  1.500
Ca228    5.944457081    9.583120342   24.261700063 XXXX 1      ca+h    Ca  1.500
P109     8.449760245   30.515243787    6.232543025 XXXX 1      pap     P   1.000
P110     8.331617501   23.445369777    6.240799784 XXXX 1      pap     P   1.000
P111     8.168857506   16.435837105    6.133743096 XXXX 1      pap     P   1.000
P112     8.338487283    9.494285069    6.240684821 XXXX 1      pap     P   1.000
P113     3.526561664   30.348820393   14.287441028 XXXX 1      pap     P   1.000
P114     3.627949155   23.314199443   14.400300328 XXXX 1      pap     P   1.000
P115     3.546749815   16.516613811   14.291153193 XXXX 1      pap     P   1.000
P116     3.580105782    9.554538216   14.397941498 XXXX 1      pap     P   1.000
P117    17.843466299   30.315024443    6.202740114 XXXX 1      pap     P   1.000
P118    17.656316660   23.461937277    6.138803881 XXXX 1      pap     P   1.000
P119    17.922061527   16.577782209    6.185326282 XXXX 1      pap     P   1.000
P120    17.796820893    9.909636317    6.241952207 XXXX 1      pap     P   1.000
P121    12.963782355   30.112331773   14.565143073 XXXX 1      pap     P   1.000
P122    13.038831843   23.277966010   14.264089456 XXXX 1      pap     P   1.000
P123    13.001367795   16.528009104   14.285890531 XXXX 1      pap     P   1.000
P124    13.091016929    9.564357372   14.335481613 XXXX 1      pap     P   1.000
P125     8.216449832   30.258161195   22.631955841 XXXX 1      pap     P   1.000
P126     8.388861843   23.356137473   22.583572353 XXXX 1      pap     P   1.000
P127     8.274838640   16.604425026   22.490198974 XXXX 1      pap     P   1.000
P128     8.559120220    9.676468421   22.614840079 XXXX 1      pap     P   1.000
O529     9.588822645   30.186506306    7.220638414 XXXX 1      oap1    O  -0.800
O530     9.644347418   23.419722735    7.033158259 XXXX 1      oap1    O  -0.800
O531     9.529487943   16.304708183    6.850142305 XXXX 1      oap1    O  -0.800
O532     9.762667210    9.566827507    6.808892209 XXXX 1      oap1    O  -0.800
O533     4.895499328   30.441826689   14.944437676 XXXX 1      oap1    O  -0.800
O534     5.028591103   23.377746490   15.087029480 XXXX 1      oap1    O  -0.800
O535     4.877800071   16.282197305   15.025411426 XXXX 1      oap1    O  -0.800
O536     4.927914514    9.780663430   15.135719627 XXXX 1      oap1    O  -0.800
O537    18.842466098   30.395000781    7.372204337 XXXX 1      oap1    O  -0.800
O538    19.022786371   23.550884561    6.885936097 XXXX 1      oap1    O  -0.800
O539    19.069043904   16.537739052    7.215143185 XXXX 1      oap1    O  -0.800
O540    19.127662545    9.804447535    6.952407813 XXXX 1      oap1    O  -0.800
O541    14.352931681   30.305597676   15.224652465 XXXX 1      oap1    O  -0.800
O542    14.399722763   23.454918729   15.003960136 XXXX 1      oap1    O  -0.800
O543    14.317245876   16.368839676   15.095431438 XXXX 1      oap1    O  -0.800
O544    14.394792634    9.647040987   15.057696846 XXXX 1      oap1    O  -0.800
O545     9.578818507   30.223711187   23.339295671 XXXX 1      oap1    O  -0.800
O546     9.735459569   23.386570342   23.315163972 XXXX 1      oap1    O  -0.800
O547     9.635216555   16.591764642   23.243367058 XXXX 1      oap1    O  -0.800
O548     9.954745218    9.717048282   23.217954258 XXXX 1      oap1    O  -0.800
O549     9.118043577   30.683747152    4.876692712 XXXX 1      oap1    O  -0.800
O550     8.695681101   23.347195098    4.733925737 XXXX 1      oap1    O  -0.800
O551     8.345433746   16.601896702    4.557232721 XXXX 1      oap1    O  -0.800
O552     8.405735629    9.551115860    4.719184446 XXXX 1      oap1    O  -0.800
O553     3.661494388   30.330381234   12.723180377 XXXX 1      oap1    O  -0.800
O554     3.705761600   23.297807763   12.811693128 XXXX 1      oap1    O  -0.800
O555     3.638180333   16.370083323   12.786273500 XXXX 1      oap1    O  -0.800
O556     3.713654434    9.532095060   12.830333123 XXXX 1      oap1    O  -0.800
O557    18.639281246   30.061595557    4.923283181 XXXX 1      oap1    O  -0.800
O558    17.809796925   23.621863989    4.582158930 XXXX 1      oap1    O  -0.800
O559    18.513432720   16.658878116    4.750787827 XXXX 1      oap1    O  -0.800
O560    17.877193088   10.173554408    4.707310290 XXXX 1      oap1    O  -0.800
O561    13.016753912   30.160055459   13.005387861 XXXX 1      oap1    O  -0.800
O562    13.174540470   23.140024326   12.728158744 XXXX 1      oap1    O  -0.800
O563    13.233242196   16.638489970   12.784366308 XXXX 1      oap1    O  -0.800
O564    13.344529791    9.595051438   12.777005998 XXXX 1      oap1    O  -0.800
O565     8.478763970   30.229567709   21.117137700 XXXX 1      oap1    O  -0.800
O566     8.532262884   23.365578352   20.999682470 XXXX 1      oap1    O  -0.800
O567     8.467037698   16.484233814   20.919129732 XXXX 1      oap1    O  -0.800
O568     8.703190711    9.665115905   21.037606226 XXXX 1      oap1    O  -0.800
Ca229    2.460575385   30.347961392    5.972533369 XXXX 1      ca+h    Ca  1.500
Ca230    2.497099239   23.464622411    5.785355166 XXXX 1      ca+h    Ca  1.500
Ca231    2.323633272   16.532727676    5.743616111 XXXX 1      ca+h    Ca  1.500
Ca232    2.574070474    9.607951286    5.966119052 XXXX 1      ca+h    Ca  1.500
Ca233   11.428382140   30.392507689    5.803498130 XXXX 1      ca+h    Ca  1.500
Ca234   11.723328461   23.038672829    5.823981218 XXXX 1      ca+h    Ca  1.500
Ca235   11.880380250   16.352442393    5.940135495 XXXX 1      ca+h    Ca  1.500
Ca236   12.134961789    9.596376555    5.940924796 XXXX 1      ca+h    Ca  1.500
Ca237    6.963200888   30.243761402   14.011811379 XXXX 1      ca+h    Ca  1.500
Ca238    7.060848609   23.457443285   13.986434905 XXXX 1      ca+h    Ca  1.500
Ca239    6.993171054   16.494841876   14.012702047 XXXX 1      ca+h    Ca  1.500
Ca240    7.038992111    9.660289566   14.020568508 XXXX 1      ca+h    Ca  1.500
Ca241    2.265166553   30.382538195   22.041095403 XXXX 1      ca+h    Ca  1.500
Ca242    2.521116093   23.502277683   22.171638092 XXXX 1      ca+h    Ca  1.500
Ca243    2.444676871   16.531292695   22.164578643 XXXX 1      ca+h    Ca  1.500
Ca244    2.505775202    9.638545847   22.131511937 XXXX 1      ca+h    Ca  1.500
Ca245   21.043832494   30.022074021    6.168495192 XXXX 1      ca+h    Ca  1.500
Ca246   21.614059729   23.310294023    6.007788720 XXXX 1      ca+h    Ca  1.500
Ca247   21.194019506   16.563428042    5.999361719 XXXX 1      ca+h    Ca  1.500
Ca248   21.192378472    9.762242467    5.658244222 XXXX 1      ca+h    Ca  1.500
Ca249   16.462273525   30.257682728   14.155426787 XXXX 1      ca+h    Ca  1.500
Ca250   16.552499686   23.426581777   14.017350774 XXXX 1      ca+h    Ca  1.500
Ca251   16.494068492   16.569332877   14.018199189 XXXX 1      ca+h    Ca  1.500
Ca252   16.588529424    9.596521146   13.931918197 XXXX 1      ca+h    Ca  1.500
Ca253   11.779038243   30.275077032   22.300756692 XXXX 1      ca+h    Ca  1.500
Ca254   11.908579517   23.402486672   22.195694848 XXXX 1      ca+h    Ca  1.500
Ca255   11.748421492   16.527047093   22.176073375 XXXX 1      ca+h    Ca  1.500
Ca256   11.991274589    9.632209463   22.106392670 XXXX 1      ca+h    Ca  1.500
P129     2.565057672   30.362866660    8.975313335 XXXX 1      pap     P   1.000
P130     2.677727766   23.494448200    8.892248708 XXXX 1      pap     P   1.000
P131     2.775097394   16.457044549    8.814626849 XXXX 1      pap     P   1.000
P132     2.506900292    9.598464996    8.991978840 XXXX 1      pap     P   1.000
P133    12.157640744   30.204618097    8.950871349 XXXX 1      pap     P   1.000
P134    12.064611375   23.227146367    8.824414297 XXXX 1      pap     P   1.000
P135    11.922127395   16.453758637    8.990870753 XXXX 1      pap     P   1.000
P136    12.029561583    9.754959871    9.117831237 XXXX 1      pap     P   1.000
P137     7.321366460   30.268531765   17.149927058 XXXX 1      pap     P   1.000
P138     7.279834221   23.364357186   17.198521115 XXXX 1      pap     P   1.000
P139     7.301807314   16.455877009   17.158464833 XXXX 1      pap     P   1.000
P140     7.435193079    9.613316600   17.001459798 XXXX 1      pap     P   1.000
P141     2.701800390   30.332555969   25.268491988 XXXX 1      pap     P   1.000
P142     2.581341274   23.431129935   25.307251404 XXXX 1      pap     P   1.000
P143     2.642961645   16.407311288   25.272229929 XXXX 1      pap     P   1.000
P144     2.664728354    9.707531977   25.218545015 XXXX 1      pap     P   1.000
P145    21.519506463   30.175367843    9.152005365 XXXX 1      pap     P   1.000
P146    21.407321935   23.320482308    9.059587551 XXXX 1      pap     P   1.000
P147    21.626176596   16.634793538    8.998781599 XXXX 1      pap     P   1.000
P148    21.510570559    9.659906093    9.010656856 XXXX 1      pap     P   1.000
P149    16.797009418   30.214545175   17.338913018 XXXX 1      pap     P   1.000
P150    16.685531319   23.399039292   17.160616934 XXXX 1      pap     P   1.000
P151    16.767778130   16.514008152   17.152113118 XXXX 1      pap     P   1.000
P152    16.924311209    9.721714577   17.100417021 XXXX 1      pap     P   1.000
P153    12.116938867   30.208699029   25.396359774 XXXX 1      pap     P   1.000
P154    12.064884893   23.339497850   25.448445952 XXXX 1      pap     P   1.000
P155    12.113427725   16.607190098   25.335256432 XXXX 1      pap     P   1.000
P156    12.248247095    9.652153328   25.192444728 XXXX 1      pap     P   1.000
O569     1.324414123   30.544007669    9.869853658 XXXX 1      oap1    O  -0.800
O570     1.318711369   23.333670416    9.568387174 XXXX 1      oap1    O  -0.800
O571     1.400392395   16.454830607    9.518443176 XXXX 1      oap1    O  -0.800
O572     1.243684354    9.566351823    9.849982800 XXXX 1      oap1    O  -0.800
O573    10.816940383   30.347453669    9.662307651 XXXX 1      oap1    O  -0.800
O574    10.869809466   23.759655694    9.626703427 XXXX 1      oap1    O  -0.800
O575    10.600744388   16.457837224    9.816317130 XXXX 1      oap1    O  -0.800
O576    10.626174896    9.832859117    9.847692817 XXXX 1      oap1    O  -0.800
O577     6.042003523   30.207322353   17.995327211 XXXX 1      oap1    O  -0.800
O578     5.959205625   23.292027481   18.038670634 XXXX 1      oap1    O  -0.800
O579     6.017940237   16.388058783   17.968671414 XXXX 1      oap1    O  -0.800
O580     6.063077826    9.666714593   17.732502491 XXXX 1      oap1    O  -0.800
O581     1.456872182   30.338008802   26.065043544 XXXX 1      oap1    O  -0.800
O582     1.329179632   23.527446426   26.150781650 XXXX 1      oap1    O  -0.800
O583     1.363793460   16.484956386   26.140479351 XXXX 1      oap1    O  -0.800
O584     1.370527827    9.667397403   26.082938890 XXXX 1      oap1    O  -0.800
O585    20.260147564   30.143965831   10.068329550 XXXX 1      oap1    O  -0.800
O586    20.102929880   23.326628109    9.820953976 XXXX 1      oap1    O  -0.800
O587    20.269061994   16.829504056    9.709159756 XXXX 1      oap1    O  -0.800
O588    20.190571050    9.841839803    9.762022633 XXXX 1      oap1    O  -0.800
O589    15.566253463   30.177081002   18.267161194 XXXX 1      oap1    O  -0.800
O590    15.396897955   23.194971197   17.937849656 XXXX 1      oap1    O  -0.800
O591    15.466298660   16.389922804   17.982537824 XXXX 1      oap1    O  -0.800
O592    15.593316212    9.596702013   17.872566293 XXXX 1      oap1    O  -0.800
O593    10.918254425   30.128456678   26.306497008 XXXX 1      oap1    O  -0.800
O594    10.782138609   23.183483037   26.273745569 XXXX 1      oap1    O  -0.800
O595    10.839841178   16.476382719   26.207092549 XXXX 1      oap1    O  -0.800
O596    10.936676404    9.675660204   26.005289787 XXXX 1      oap1    O  -0.800
O597     3.842368996   30.238151736    9.777979958 XXXX 1      oap1    O  -0.800
O598     3.892810969   23.406625730    9.867327735 XXXX 1      oap1    O  -0.800
O599     3.975811033   16.380713054    9.763193723 XXXX 1      oap1    O  -0.800
O600     3.849048317    9.603979904    9.784261334 XXXX 1      oap1    O  -0.800
O601    13.390124193   30.334724193    9.884581436 XXXX 1      oap1    O  -0.800
O602    13.347062698   23.189099759    9.776615435 XXXX 1      oap1    O  -0.800
O603    13.223682746   16.435224488    9.846555447 XXXX 1      oap1    O  -0.800
O604    13.337360860    9.700147660   10.020813787 XXXX 1      oap1    O  -0.800
O605     8.575569766   30.265041655   18.097113098 XXXX 1      oap1    O  -0.800
O606     8.607397998   23.401075990   18.013090879 XXXX 1      oap1    O  -0.800
O607     8.508709138   16.504172466   18.073399987 XXXX 1      oap1    O  -0.800
O608     8.575391823    9.525074246   18.048638872 XXXX 1      oap1    O  -0.800
O609     3.965034874   30.453706932   26.219557295 XXXX 1      oap1    O  -0.800
O610     3.913335230   23.362729636   26.149589284 XXXX 1      oap1    O  -0.800
O611     3.924142158   16.352798508   26.105639063 XXXX 1      oap1    O  -0.800
O612     3.998130093    9.511982498   26.006247845 XXXX 1      oap1    O  -0.800
O613    22.842490754   30.245086093    9.963525496 XXXX 1      oap1    O  -0.800
O614    22.635566460   23.372882599   10.012248399 XXXX 1      oap1    O  -0.800
O615    22.832239298   16.646110434    9.994325221 XXXX 1      oap1    O  -0.800
O616    22.745845492    9.672352291    9.950787352 XXXX 1      oap1    O  -0.800
O617    18.126708672   30.215606607   18.105213693 XXXX 1      oap1    O  -0.800
O618    17.948521258   23.424864449   18.137440274 XXXX 1      oap1    O  -0.800
O619    18.074795625   16.518878022   17.994689610 XXXX 1      oap1    O  -0.800
O620    18.127824600    9.746723092   18.073944846 XXXX 1      oap1    O  -0.800
O621    13.415008080   30.371635373   26.158920524 XXXX 1      oap1    O  -0.800
O622    13.309308916   23.403893238   26.329320176 XXXX 1      oap1    O  -0.800
O623    13.434089968   16.713785832   26.113379849 XXXX 1      oap1    O  -0.800
O624    13.605141833    9.667544163   26.012753071 XXXX 1      oap1    O  -0.800
O625     6.765162589   31.219556846    2.790144321 XXXX 1      oap2    O  -1.100
O626     4.529306293   28.888347089    6.236398355 XXXX 1      oap2    O  -1.100
O627     4.839716055   20.429005155    5.645864338 XXXX 1      oap2    O  -1.100
O628     4.527780886   11.457433369    6.123407347 XXXX 1      oap2    O  -1.100
O629    -0.071704725   33.078698028   13.980828749 XXXX 1      oap2    O  -1.100
O630     0.040286114   26.486471189   13.938101706 XXXX 1      oap2    O  -1.100
O631    -0.067691795   20.326677234   13.962439133 XXXX 1      oap2    O  -1.100
O632     0.130601204   12.888811042   14.188430739 XXXX 1      oap2    O  -1.100
O633    14.133972295   32.860988401    6.022674261 XXXX 1      oap2    O  -1.100
O634    14.292912476   27.734740305    6.139298647 XXXX 1      oap2    O  -1.100
O635    14.081937057   18.311939232    5.870528293 XXXX 1      oap2    O  -1.100
O636    14.205838910   11.751073849    6.218500802 XXXX 1      oap2    O  -1.100
O637     9.396111776   33.030512791   14.028356575 XXXX 1      oap2    O  -1.100
O638     9.285537246   27.123406179   14.065646788 XXXX 1      oap2    O  -1.100
O639     9.283226453   20.577887431   13.936001197 XXXX 1      oap2    O  -1.100
O640     9.357531251   13.720917453   14.176939355 XXXX 1      oap2    O  -1.100
O641     4.689731257   33.542834434   22.307366932 XXXX 1      oap2    O  -1.100
O642     4.782033197   26.107357161   22.323732050 XXXX 1      oap2    O  -1.100
O643     4.845496750   19.484589798   22.443548780 XXXX 1      oap2    O  -1.100
O644     4.877994957   12.842515658   22.183998295 XXXX 1      oap2    O  -1.100
O645     4.863653725   31.781330811    5.999936399 XXXX 1      oap2    O  -1.100
O646     4.841291962   23.620494216    5.694236409 XXXX 1      oap2    O  -1.100
O647     4.732016616   16.791226678    5.627818612 XXXX 1      oap2    O  -1.100
O648     4.552512258    8.054125347    6.247235942 XXXX 1      oap2    O  -1.100
O649    -0.073296861   29.972057128   14.182853934 XXXX 1      oap2    O  -1.100
O650     0.157735616   23.592973408   14.060332991 XXXX 1      oap2    O  -1.100
O651     0.065377610   16.323848333   14.026649859 XXXX 1      oap2    O  -1.100
O652     0.052780277    8.751655523   14.100341499 XXXX 1      oap2    O  -1.100
O653    13.064483187   30.101902757    3.806896792 XXXX 1      oap2    O  -1.100
O654    13.935221819   21.923030163    6.329541118 XXXX 1      oap2    O  -1.100
O655    13.816456579   14.798865920    5.886278307 XXXX 1      oap2    O  -1.100
O656    14.131381406    7.992000155    6.288031245 XXXX 1      oap2    O  -1.100
O657     9.392022320   30.244215489   14.211134458 XXXX 1      oap2    O  -1.100
O658     9.398002266   23.928392837   14.187085994 XXXX 1      oap2    O  -1.100
O659     9.247856963   17.298846998   14.198227918 XXXX 1      oap2    O  -1.100
O660     9.412823702   10.461079948   14.022519348 XXXX 1      oap2    O  -1.100
O661     4.621123022   30.517979961   22.404271972 XXXX 1      oap2    O  -1.100
O662     4.750590659   22.653319800   22.436240322 XXXX 1      oap2    O  -1.100
O663     4.759249132   16.067465152   22.433103889 XXXX 1      oap2    O  -1.100
O664     4.985416599    9.732719428   22.163047837 XXXX 1      oap2    O  -1.100
H1       6.803544233   30.626949792    1.970208516 XXXX 1      hop     H   0.200
H2       4.350336750   28.044674290    5.809245024 XXXX 1      hop     H   0.200
H3       5.135024227   21.256378712    5.402701040 XXXX 1      hop     H   0.200
H4       4.735931597   10.939570167    5.298905175 XXXX 1      hop     H   0.200
H5      -0.094905618   32.118553686   14.137597499 XXXX 1      hop     H   0.200
H6       0.070526534   25.606047190   13.573098141 XXXX 1      hop     H   0.200
H7      -0.289971417   21.266087128   13.769010948 XXXX 1      hop     H   0.200
H8       0.361158100   13.809792794   14.215508491 XXXX 1      hop     H   0.200
H9      14.138269572   32.041122211    5.559099588 XXXX 1      hop     H   0.200
H10     14.390260279   28.664455160    6.149948265 XXXX 1      hop     H   0.200
H11     13.340856743   18.768533875    5.512584036 XXXX 1      hop     H   0.200
H12     14.260195274   11.219702911    5.497226791 XXXX 1      hop     H   0.200
H13      9.115699768   32.128143366   14.229547274 XXXX 1      hop     H   0.200
H14      9.027229704   28.045868962   13.970540961 XXXX 1      hop     H   0.200
H15      9.398446677   21.476205324   14.228522699 XXXX 1      hop     H   0.200
H16      9.888091212   14.447876340   13.854813398 XXXX 1      hop     H   0.200
H17      4.677677086   32.596417343   22.170582281 XXXX 1      hop     H   0.200
H18      5.054366266   25.230241353   22.422294033 XXXX 1      hop     H   0.200
H19      5.201277867   18.651593914   22.625055925 XXXX 1      hop     H   0.200
H20      4.969300088   11.892202591   22.185517954 XXXX 1      hop     H   0.200
H21      4.238816347   32.370953292    5.555641259 XXXX 1      hop     H   0.200
H22      5.042272035   22.819522036    5.178843726 XXXX 1      hop     H   0.200
H23      5.302298181   17.459589643    5.921140584 XXXX 1      hop     H   0.200
H24      4.704885139    7.891965948    5.356425025 XXXX 1      hop     H   0.200
H25     -0.073494405   29.035602803   13.979793902 XXXX 1      hop     H   0.200
H26     -0.088979187   24.470635981   14.197711731 XXXX 1      hop     H   0.200
H27      0.786901921   15.655365797   14.084488814 XXXX 1      hop     H   0.200
H28     -0.216374513    7.871271075   14.074097325 XXXX 1      hop     H   0.200
H29     13.787695490   30.713388256    3.799336708 XXXX 1      hop     H   0.200
H30     13.512411276   21.346402236    5.740754383 XXXX 1      hop     H   0.200
H31     14.400088882   15.161623667    5.243468908 XXXX 1      hop     H   0.200
H32     13.942131421    7.755450808    5.418441350 XXXX 1      hop     H   0.200
H33     10.032658277   30.969377391   14.277714911 XXXX 1      hop     H   0.200
H34      9.522212313   24.862227874   14.233961150 XXXX 1      hop     H   0.200
H35      9.697854103   18.077632263   14.196168753 XXXX 1      hop     H   0.200
H36      8.884994195   11.194433473   14.176930067 XXXX 1      hop     H   0.200
H37      4.304131040   31.376883174   22.759587426 XXXX 1      hop     H   0.200
H38      4.837828109   21.767780303   22.747568908 XXXX 1      hop     H   0.200
H39      4.877656232   15.122592505   22.362797192 XXXX 1      hop     H   0.200
H40      4.952442034   10.667607669   22.331339682 XXXX 1      hop     H   0.200
H41      1.347576969    8.264933870    4.034802003 XXXX 1      hop     H   0.400
H42      1.249553594   18.348334468    2.109091390 XXXX 1      hop     H   0.400
H43      3.113579126   22.832995453    0.138419599 XXXX 1      hop     H   0.400
H44      4.181506128   31.713050017    1.292042427 XXXX 1      hop     H   0.400
H45      1.009680468    8.206892575    0.130883687 XXXX 1      hop     H   0.400
H46      2.565089320   16.799437575    0.207289354 XXXX 1      hop     H   0.400
H47      4.822754211   23.653130288    2.562776445 XXXX 1      hop     H   0.400
H48      2.238047696   32.366250969    3.856333836 XXXX 1      hop     H   0.400
H49      6.267729020   12.325963630    1.086538426 XXXX 1      hop     H   0.400
H50      5.472462670   21.092818936    1.790047158 XXXX 1      hop     H   0.400
H51      5.158830798   24.910984913    5.397629448 XXXX 1      hop     H   0.400
H52      6.016681872   32.332482436    2.350649385 XXXX 1      hop     H   0.400
H53      6.444873322   36.274822521    1.613743412 XXXX 1      hop     H   0.400
H54      3.321202480   26.027949078    4.137248946 XXXX 1      hop     H   0.400
H55      8.259321811   20.704344211    3.644138081 XXXX 1      hop     H   0.400
H56      8.463697029   15.116550835    1.656823480 XXXX 1      hop     H   0.400
H57     12.053450556   31.013768768    3.034471477 XXXX 1      hop     H   0.400
H58     13.471114940   23.639737651    3.267256178 XXXX 1      hop     H   0.400
H59     11.238648643   14.862812646    3.684206950 XXXX 1      hop     H   0.400
H60     12.295196549    7.949396578    3.448484667 XXXX 1      hop     H   0.400
H61     16.679555712   11.019741986    3.812727084 XXXX 1      hop     H   0.400
H62     14.372974927   17.452904998    4.834473530 XXXX 1      hop     H   0.400
H63     16.620823924   23.894835057    3.602335906 XXXX 1      hop     H   0.400
H64     14.457334290   33.353853452    1.757242547 XXXX 1      hop     H   0.400
H65     15.238831193   35.684389938    1.659816344 XXXX 1      hop     H   0.400
H66     15.790798478   25.398554986    0.642394279 XXXX 1      hop     H   0.400
H67     13.624418049   17.493314801    2.231409944 XXXX 1      hop     H   0.400
H68     16.618201797   12.949737502    0.978744127 XXXX 1      hop     H   0.400
H69     21.925305464   10.842552939    0.579536593 XXXX 1      hop     H   0.400
H70     21.904318935   15.702206425    0.391742311 XXXX 1      hop     H   0.400
H71     24.405718653   22.972453243    1.778382152 XXXX 1      hop     H   0.400
H72     20.938358166   30.404873201    2.431145911 XXXX 1      hop     H   0.400
H73     19.497408833   10.843078508    3.689781589 XXXX 1      hop     H   0.400
H74     20.422416926   13.559254902    2.175271177 XXXX 1      hop     H   0.400
H75     23.185564927   32.592391917    1.100407933 XXXX 1      hop     H   0.400
H76     23.278776381   24.787304377    4.298739003 XXXX 1      hop     H   0.400
H77     12.219271558   33.060435067   -0.092253321 XXXX 1      hop     H   0.400
H78     13.541874689   24.591887405    0.930596201 XXXX 1      hop     H   0.400
H79     12.411230257   16.389832880    0.355003759 XXXX 1      hop     H   0.400
H80     13.995357930   10.816474399    1.652483007 XXXX 1      hop     H   0.400
end
O1       5.589858886    7.518912111    8.797262995 XXXX 1      oap1    O  -0.800
O2       0.941183445    7.585620155   16.857593531 XXXX 1      oap1    O  -0.800
O3      14.972932773    7.442471779    8.788705028 XXXX 1      oap1    O  -0.800
O4      10.363349975    7.468386273   17.012987276 XXXX 1      oap1    O  -0.800
O5       5.530034743    7.478955299   25.228711576 XXXX 1      oap1    O  -0.800
O6       1.822378291    7.521897836    5.128688220 XXXX 1      oap1    O  -0.800
O7      11.309215127    7.491916004    5.228954760 XXXX 1      oap1    O  -0.800
O8       6.257910933    7.475626222   13.322529427 XXXX 1      oap1    O  -0.800
O9       2.160872767    7.316727038   21.536540406 XXXX 1      oap1    O  -0.800
O10     20.199398401    7.625744587    5.139714971 XXXX 1      oap1    O  -0.800
O11     16.037159034    7.361185674   13.422808456 XXXX 1      oap1    O  -0.800
O12     11.359159512    7.489683029   21.490179396 XXXX 1      oap1    O  -0.800
O13      6.545497392    7.693572706   29.481711417 XXXX 1      oap1    O  -0.800
O14      6.700718341    4.897654689    3.618657048 XXXX 1      oap1    O  -0.600
O15      2.069843559    7.300528946   11.961680272 XXXX 1      oap1    O  -0.800
O16     15.891115097    6.940840427    3.781739485 XXXX 1      oap1    O  -0.600
O17     11.635338156    7.483123889   11.781424904 XXXX 1      oap1    O  -0.800
O18      6.699465782    7.414580998   20.228533512 XXXX 1      oap1    O  -0.800
O19      1.808658784    7.434170291   28.424733736 XXXX 1      oap1    O  -0.800
O20      3.911357470    2.950051613    3.383884523 XXXX 1      oap1    O  -0.600
O21     13.068725769    4.436909600    3.547350806 XXXX 1      oap1    O  -0.650
O22      8.728121843    4.085584264   11.358935632 XXXX 1      oap1    O  -0.800
O23      3.942124055    4.122095545   19.289939879 XXXX 1      oap1    O  -0.800
O24     21.282976717    2.396508479    3.609271669 XXXX 1      oap1    O  -0.600
O25     17.951219217    4.173865929   11.199057608 XXXX 1      oap1    O  -0.800
O26     13.197369282    4.203209622   19.357437854 XXXX 1      oap1    O  -0.800
O27      8.687991063    3.948892953   27.911661488 XXXX 1      oap1    O  -0.800
O28      7.198926094    3.707318968    6.371431760 XXXX 1      oap1    O  -0.800
O29      2.703607018    3.994242206   14.761564264 XXXX 1      oap1    O  -0.800
O30     16.888123871    3.936139169    6.547322475 XXXX 1      oap1    O  -0.800
O31     12.040615641    3.941423480   14.714701672 XXXX 1      oap1    O  -0.800
O32      7.536085622    4.110128993   22.979480653 XXXX 1      oap1    O  -0.800
O33      2.459212800    4.152051157    8.154459624 XXXX 1      oap1    O  -0.800
O34     12.001402909    4.060395191    8.253222432 XXXX 1      oap1    O  -0.800
O35      7.313092995    4.076288969   16.349120316 XXXX 1      oap1    O  -0.800
O36      2.716127720    4.076002028   24.396092640 XXXX 1      oap1    O  -0.800
O37     21.616343875    4.047167402    8.238422345 XXXX 1      oap1    O  -0.800
O38     16.674290915    4.062976239   16.564437022 XXXX 1      oap1    O  -0.800
O39     11.982753194    4.128152676   24.552413834 XXXX 1      oap1    O  -0.800
O40      1.573888037    3.161329104    2.649814326 XXXX 1      oap1    O  -0.600
O41     13.629437464    2.002645858    3.154323948 XXXX 1      oap1    O  -0.600
O42      8.484225227    1.651348454   11.284104558 XXXX 1      oap1    O  -0.800
O43      3.903248178    1.659859065   19.635203267 XXXX 1      oap1    O  -0.800
O44     22.237606829    3.536153548    1.588521733 XXXX 1      oap1    O  -0.650
O45     18.152439383    1.653188193   11.308235174 XXXX 1      oap1    O  -0.800
O46     13.247986954    1.623774621   19.729219449 XXXX 1      oap1    O  -0.800
O47      8.530578438    1.515777068   27.554729702 XXXX 1      oap1    O  -0.800
O48      7.658491802    1.509639192    7.083844979 XXXX 1      oap1    O  -0.800
O49      2.989903639    1.507158663   15.062831208 XXXX 1      oap1    O  -0.800
O50     17.132158274    1.482407560    6.878893613 XXXX 1      oap1    O  -0.800
O51     12.179984852    1.486194194   14.615416218 XXXX 1      oap1    O  -0.800
O52      7.640284046    1.693080497   23.202167008 XXXX 1      oap1    O  -0.800
O53      2.511119703    1.635978636    8.047065158 XXXX 1      oap1    O  -0.800
O54     12.185382489    1.640740659    8.012550433 XXXX 1      oap1    O  -0.800
O55      7.445956167    1.528020768   16.148067666 XXXX 1      oap1    O  -0.800
O56      2.624285418    1.542996279   24.400881051 XXXX 1      oap1    O  -0.800
O57     21.484701736    1.546029914    8.180343400 XXXX 1      oap1    O  -0.800
O58     16.664723530    1.577584897   16.305528644 XXXX 1      oap1    O  -0.800
O59     12.181542544    1.618463100   24.472182342 XXXX 1      oap1    O  -0.800
O60      5.386151748    5.037422111    8.845559575 XXXX 1      oap1    O  -0.800
O61      0.806359400    5.125280469   16.661521545 XXXX 1      oap1    O  -0.800
O62     14.976626529    5.015809886    8.880745108 XXXX 1      oap1    O  -0.800
O63     10.336045529    4.929681916   16.986810540 XXXX 1      oap1    O  -0.800
O64      5.538619325    5.067769321   25.239723567 XXXX 1      oap1    O  -0.800
O65      1.623965362    4.993624360    5.261323996 XXXX 1      oap1    O  -0.800
O66     11.417116468    4.981907054    5.373522825 XXXX 1      oap1    O  -0.800
O67      6.707358634    4.955714730   13.524873701 XXXX 1      oap1    O  -0.800
O68      1.715214692    4.930273529   21.340919821 XXXX 1      oap1    O  -0.800
O69     20.568716964    5.136397375    4.903099212 XXXX 1      oap1    O  -0.800
O70     15.906928060    4.954440852   13.350161909 XXXX 1      oap1    O  -0.800
O71     11.758256097    5.026346102   21.786087805 XXXX 1      oap1    O  -0.800
O72      6.640666481    5.185026640   29.774875002 XXXX 1      oap1    O  -0.800
O73      7.760280523    2.947013400    2.381119765 XXXX 1      oap1    O  -0.600
O74      2.274844659    4.942506541   11.819373727 XXXX 1      oap1    O  -0.800
O75     15.954284092    4.747072780    2.673333268 XXXX 1      oap1    O  -0.600
O76     11.493018608    4.921251500   11.959591610 XXXX 1      oap1    O  -0.800
O77      6.753505386    4.961836646   20.016594650 XXXX 1      oap1    O  -0.800
O78      2.189716382    5.017201524   28.156900928 XXXX 1      oap1    O  -0.800
Ca1      0.012018743    7.961426132    8.650870206 XXXX 1      ca+h    Ca  1.500
Ca2      9.370531655    7.950305454    8.617888511 XXXX 1      ca+h    Ca  1.500
Ca3      4.576155579    7.981433391   16.790289916 XXXX 1      ca+h    Ca  1.500
Ca4      0.106156741    7.895340971   24.744254976 XXXX 1      ca+h    Ca  1.500
Ca5     18.886390420    7.990913763    8.504107613 XXXX 1      ca+h    Ca  1.500
Ca6     14.247231450    7.948879935   16.779812681 XXXX 1      ca+h    Ca  1.500
Ca7      9.616966461    7.992200580   25.003229820 XXXX 1      ca+h    Ca  1.500
Ca8      0.128272672    4.975530618    3.319567719 XXXX 1      ca+h    Ca  1.500
Ca9      4.598511786    4.649697688   11.102072906 XXXX 1      ca+h    Ca  1.500
Ca10    -0.133105832    4.488140108   19.639618538 XXXX 1      ca+h    Ca  1.500
Ca11    14.162045549    4.535509261   11.328462353 XXXX 1      ca+h    Ca  1.500
Ca12     9.343767783    4.412675826   19.447529161 XXXX 1      ca+h    Ca  1.500
Ca13     4.813103105    4.619027422   27.868507944 XXXX 1      ca+h    Ca  1.500
Ca14     0.382775761    1.251937364    3.344526580 XXXX 1      ca+h    Ca  1.500
Ca15     9.424039168    1.249632690    3.090425919 XXXX 1      ca+h    Ca  1.500
Ca16     4.579244951    1.218685506   11.246013753 XXXX 1      ca+h    Ca  1.500
Ca17     0.063946246    1.079089711   19.586123731 XXXX 1      ca+h    Ca  1.500
Ca18    19.129974993    1.087169098    3.376326338 XXXX 1      ca+h    Ca  1.500
Ca19    14.061243766    1.053114186   11.522387825 XXXX 1      ca+h    Ca  1.500
Ca20     9.430827350    1.109057546   19.636729061 XXXX 1      ca+h    Ca  1.500
Ca21     4.753473331    1.100968110   27.669603962 XXXX 1      ca+h    Ca  1.500
Ca22     0.010293714    4.647427600    8.553975853 XXXX 1      ca+h    Ca  1.500
Ca23     9.505826829    4.541134706    8.772679848 XXXX 1      ca+h    Ca  1.500
Ca24     4.755899797    4.502719998   16.982762673 XXXX 1      ca+h    Ca  1.500
Ca25    -0.043375889    4.544615398   25.039482079 XXXX 1      ca+h    Ca  1.500
Ca26    18.703300782    4.538779733    8.555707176 XXXX 1      ca+h    Ca  1.500
Ca27    14.071169655    4.539716684   16.999715028 XXXX 1      ca+h    Ca  1.500
Ca28     9.495413146    4.579319694   24.920846555 XXXX 1      ca+h    Ca  1.500
Ca29     3.535027634    6.301932546    7.599275053 XXXX 1      ca+h    Ca  1.500
Ca30    12.897879155    6.363517692    7.720672307 XXXX 1      ca+h    Ca  1.500
Ca31     8.230691220    6.234958796   16.154209134 XXXX 1      ca+h    Ca  1.500
Ca32     3.415405206    6.350548383   24.327742861 XXXX 1      ca+h    Ca  1.500
P1       6.323672068    6.222875881    9.201552632 XXXX 1      pap     P   1.000
P2       1.641903224    6.228621862   17.333251176 XXXX 1      pap     P   1.000
P3      15.789641797    6.275688100    9.224770725 XXXX 1      pap     P   1.000
P4      11.147862054    6.171791441   17.419345942 XXXX 1      pap     P   1.000
P5       6.414989720    6.308075480   25.609845750 XXXX 1      pap     P   1.000
O79      6.357580575    6.271494073   10.688439238 XXXX 1      oap1    O  -0.800
O80      1.594572937    6.179846014   18.866584010 XXXX 1      oap1    O  -0.800
O81     15.942140008    6.279539713   10.716811663 XXXX 1      oap1    O  -0.800
O82     11.239809343    6.161157777   18.969968738 XXXX 1      oap1    O  -0.800
O83      6.580084796    6.261497956   27.103558676 XXXX 1      oap1    O  -0.800
O84      7.722610680    6.126144605    8.536664316 XXXX 1      oap1    O  -0.800
O85      3.096124721    6.132109595   16.845788568 XXXX 1      oap1    O  -0.800
O86     17.075292009    6.260729255    8.437482493 XXXX 1      oap1    O  -0.800
O87     12.552992620    6.247294399   16.673093437 XXXX 1      oap1    O  -0.800
O88      7.832492782    6.279290843   24.817557224 XXXX 1      oap1    O  -0.800
Ca33     8.308752734    6.280207687   12.112186725 XXXX 1      ca+h    Ca  1.500
Ca34     3.651594503    6.212802642   20.117530580 XXXX 1      ca+h    Ca  1.500
Ca35    17.816002070    6.301894704   12.100041709 XXXX 1      ca+h    Ca  1.500
Ca36    13.204133260    6.320294239   20.227609737 XXXX 1      ca+h    Ca  1.500
Ca37     8.582200540    6.209500471   28.650510907 XXXX 1      ca+h    Ca  1.500
P6       1.002312350    6.307034094    5.723636478 XXXX 1      pap     P   1.000
P7      10.525183522    6.232773245    5.596017489 XXXX 1      pap     P   1.000
P8       5.786163434    6.173044789   13.905878333 XXXX 1      pap     P   1.000
P9       1.208351167    6.199643783   21.991804158 XXXX 1      pap     P   1.000
P10     19.756961467    6.207015815    5.705309974 XXXX 1      pap     P   1.000
P11     15.176744731    6.180510288   13.788304961 XXXX 1      pap     P   1.000
P12     10.722428795    6.211078039   21.972521348 XXXX 1      pap     P   1.000
P13      5.869228347    6.464604750   30.143802642 XXXX 1      pap     P   1.000
O89     -0.436119860    6.263553876    5.193039411 XXXX 1      oap1    O  -0.800
O90      9.108955849    6.111540158    4.974571803 XXXX 1      oap1    O  -0.800
O91      4.471517318    5.994490981   13.119440127 XXXX 1      oap1    O  -0.800
O92     -0.207498795    6.462232052   21.322224720 XXXX 1      oap1    O  -0.800
O93     18.266046445    6.229409811    5.308569037 XXXX 1      oap1    O  -0.800
O94     13.837504379    6.204778950   13.001119924 XXXX 1      oap1    O  -0.800
O95      9.387711596    5.979347010   21.133114904 XXXX 1      oap1    O  -0.800
O96      4.428591015    6.253768806   29.545570112 XXXX 1      oap1    O  -0.800
O97      1.051172809    6.307289939    7.308263125 XXXX 1      oap1    O  -0.800
O98     10.350324822    6.211512272    7.156511835 XXXX 1      oap1    O  -0.800
O99      5.616184580    6.217566881   15.429966982 XXXX 1      oap1    O  -0.800
O100     1.015334496    6.131247623   23.542776242 XXXX 1      oap1    O  -0.800
O101    19.939669800    6.096299782    7.188817814 XXXX 1      oap1    O  -0.800
O102    14.976280584    6.195128237   15.355401610 XXXX 1      oap1    O  -0.800
O103    10.269424931    6.309048992   23.443352530 XXXX 1      oap1    O  -0.800
O104     5.900125389    6.606107604   31.722193973 XXXX 1      oap1    O  -0.800
Ca38     6.994504392    6.133177208    5.979541274 XXXX 1      ca+h    Ca  1.500
Ca39     2.344002466    6.186741943   14.262587502 XXXX 1      ca+h    Ca  1.500
Ca40    15.992313513    6.459562436    6.226847420 XXXX 1      ca+h    Ca  1.500
Ca41    11.739406061    6.165130711   14.109497676 XXXX 1      ca+h    Ca  1.500
Ca42     7.205487523    6.254442528   22.286985576 XXXX 1      ca+h    Ca  1.500
Ca43     2.302092279    6.218129294   30.379255381 XXXX 1      ca+h    Ca  1.500
P14      7.802854431    4.508112330    2.486406229 XXXX 1      pap     P   1.000
P15      2.035036933    6.174308541   10.957609915 XXXX 1      pap     P   1.000
P16     16.097178324    6.236820279    2.410880683 XXXX 1      pap     P   1.000
P17     11.471071374    6.188191049   10.982527239 XXXX 1      pap     P   1.000
P18      6.823440272    6.283448646   19.210854307 XXXX 1      pap     P   1.000
P19      2.004651884    6.353759154   27.391234562 XXXX 1      pap     P   1.000
O105     9.237379907    5.040183987    2.847557677 XXXX 1      oap1    O  -0.650
O106     3.233398938    6.291161974   10.035520504 XXXX 1      oap1    O  -0.800
O107    17.541209302    6.528716550    2.045299985 XXXX 1      oap1    O  -0.650
O108    12.741711633    6.086943007   10.102893555 XXXX 1      oap1    O  -0.800
O109     8.187794746    6.286516645   18.468814052 XXXX 1      oap1    O  -0.800
O110     3.308796711    6.507681949   26.676933707 XXXX 1      oap1    O  -0.800
O111     7.430208930    5.156578327    1.142763267 XXXX 1      oap1    O  -0.650
O112     0.638642615    6.088514315   10.248906187 XXXX 1      oap1    O  -0.800
O113    15.146232444    6.752605761    1.377850658 XXXX 1      oap1    O  -0.650
O114    10.204674907    6.273209191   10.064571136 XXXX 1      oap1    O  -0.800
O115     5.742000883    6.366527488   18.155244829 XXXX 1      oap1    O  -0.800
O116     0.793697967    6.327427124   26.408914997 XXXX 1      oap1    O  -0.800
Ca44     5.942910840    2.730471047    4.577070618 XXXX 1      ca+h    Ca  1.500
Ca45     1.238748036    2.883160052   12.276810315 XXXX 1      ca+h    Ca  1.500
Ca46    15.352524553    3.294747457    4.480399416 XXXX 1      ca+h    Ca  1.500
Ca47    10.664442409    2.814482432   12.181483940 XXXX 1      ca+h    Ca  1.500
Ca48     6.074883488    2.783316203   20.250760315 XXXX 1      ca+h    Ca  1.500
Ca49     1.212100727    2.858315066   28.675781261 XXXX 1      ca+h    Ca  1.500
Ca50    20.101154373    3.014433289   12.246962085 XXXX 1      ca+h    Ca  1.500
Ca51    15.419184276    2.699306415   20.577465874 XXXX 1      ca+h    Ca  1.500
Ca52    10.629694546    2.982355283   28.710533842 XXXX 1      ca+h    Ca  1.500
P20      3.011516909    3.207934819    2.112492888 XXXX 1      pap     P   1.000
P21     12.630789792    3.163301822    2.804764789 XXXX 1      pap     P   1.000
P22      7.818085326    2.948766559   10.886634908 XXXX 1      pap     P   1.000
P23      3.124759501    2.840555589   19.009369521 XXXX 1      pap     P   1.000
P24     20.929277250    3.264020089    2.407189517 XXXX 1      pap     P   1.000
P25     17.270032248    2.852771492   10.863244273 XXXX 1      pap     P   1.000
P26     12.499774119    2.851059727   19.142595590 XXXX 1      pap     P   1.000
P27      7.894554744    2.894768584   27.176296653 XXXX 1      pap     P   1.000
O117     3.283445317    2.187744339    1.074756453 XXXX 1      oap1    O  -0.650
O118    12.580103393    3.418471515    1.309550290 XXXX 1      oap1    O  -0.650
O119     7.825870176    2.917489547    9.295799152 XXXX 1      oap1    O  -0.800
O120     3.056384871    2.692825251   17.491119142 XXXX 1      oap1    O  -0.800
O121    20.052735717    4.484134916    2.710105528 XXXX 1      oap1    O  -0.650
O122    17.174764749    2.789776297    9.324186086 XXXX 1      oap1    O  -0.800
O123    12.420293499    2.724768867   17.619745051 XXXX 1      oap1    O  -0.800
O124     8.005740774    3.008813579   25.662216052 XXXX 1      oap1    O  -0.800
O125     3.408725809    4.559543650    1.521612409 XXXX 1      oap1    O  -0.650
O126    11.293476113    2.694992437    3.355918267 XXXX 1      oap1    O  -0.600
O127     6.381641146    3.035789832   11.549991864 XXXX 1      oap1    O  -0.800
O128     1.713343258    2.949642966   19.618596819 XXXX 1      oap1    O  -0.800
O129    20.124205334    2.213156961    1.598393242 XXXX 1      oap1    O  -0.600
O130    15.858203148    2.721446750   11.439967327 XXXX 1      oap1    O  -0.800
O131    11.082798864    2.896164789   19.795498525 XXXX 1      oap1    O  -0.800
O132     6.498454719    2.875215665   27.708608409 XXXX 1      oap1    O  -0.800
Ca53     5.659413586    2.772406137    7.983865199 XXXX 1      ca+h    Ca  1.500
Ca54     1.148099441    2.772399893   16.163461470 XXXX 1      ca+h    Ca  1.500
Ca55    15.122337224    2.815841527    7.938063642 XXXX 1      ca+h    Ca  1.500
Ca56    10.469442475    2.777454800   16.155877370 XXXX 1      ca+h    Ca  1.500
Ca57     5.918462885    2.949971112   24.363048049 XXXX 1      ca+h    Ca  1.500
P28      8.329566053    2.700900688    6.331861570 XXXX 1      pap     P   1.000
P29      3.629380565    2.754594859   14.427641626 XXXX 1      pap     P   1.000
P30     17.724214538    2.680586791    6.183882569 XXXX 1      pap     P   1.000
P31     12.918392617    2.753897525   14.336075096 XXXX 1      pap     P   1.000
P32      8.355525524    2.898082260   22.532591048 XXXX 1      pap     P   1.000
O133     9.668770950    3.138064810    7.017944810 XXXX 1      oap1    O  -0.800
O134     4.932418859    2.859254197   15.212560669 XXXX 1      oap1    O  -0.800
O135    19.138968766    2.866657859    6.819249439 XXXX 1      oap1    O  -0.800
O136    14.194568326    2.775580150   15.240100306 XXXX 1      oap1    O  -0.800
O137     9.698158950    2.968487940   23.213516664 XXXX 1      oap1    O  -0.800
O138     8.448757261    2.219521789    4.886046820 XXXX 1      oap1    O  -0.800
O139     3.844011983    2.640363657   12.900868345 XXXX 1      oap1    O  -0.800
O140    17.612600155    2.348463390    4.697030696 XXXX 1      oap1    O  -0.800
O141    13.342892740    2.848045255   12.877893073 XXXX 1      oap1    O  -0.800
O142     8.426787396    2.806889847   20.993802246 XXXX 1      oap1    O  -0.800
Ca58     2.544102940    2.878055800    5.987722706 XXXX 1      ca+h    Ca  1.500
Ca59    11.777788589    2.895198812    6.085872291 XXXX 1      ca+h    Ca  1.500
Ca60     6.987998530    2.702344595   13.982595502 XXXX 1      ca+h    Ca  1.500
Ca61     2.393714129    2.941231674   22.216324636 XXXX 1      ca+h    Ca  1.500
Ca62    21.396866625    3.111414586    5.991056878 XXXX 1      ca+h    Ca  1.500
Ca63    16.330721215    2.803384641   14.033046957 XXXX 1      ca+h    Ca  1.500
Ca64    11.914194895    2.724414967   22.311398184 XXXX 1      ca+h    Ca  1.500
P33      2.581860079    2.857881961    9.017453909 XXXX 1      pap     P   1.000
P34     12.118837962    2.700196732    9.061618345 XXXX 1      pap     P   1.000
P35      7.347469676    2.751014167   17.125084953 XXXX 1      pap     P   1.000
P36      2.711832194    2.782396491   25.301736586 XXXX 1      pap     P   1.000
P37     21.555652189    2.794142249    9.131070407 XXXX 1      pap     P   1.000
P38     16.765101863    2.739061282   17.300080382 XXXX 1      pap     P   1.000
P39     12.119256909    2.889856699   25.395303412 XXXX 1      pap     P   1.000
O143     1.335112799    2.818902688    9.869137390 XXXX 1      oap1    O  -0.800
O144    10.780014998    2.517545985    9.906797672 XXXX 1      oap1    O  -0.800
O145     6.025386794    2.598537640   17.831712943 XXXX 1      oap1    O  -0.800
O146     1.446150562    2.795465714   26.128974986 XXXX 1      oap1    O  -0.800
O147    20.220017597    2.852706447    9.864672600 XXXX 1      oap1    O  -0.800
O148    15.568809478    2.613192676   18.236453063 XXXX 1      oap1    O  -0.800
O149    10.924559462    2.741366242   26.349667399 XXXX 1      oap1    O  -0.800
O150     3.892168046    2.839354620    9.867310862 XXXX 1      oap1    O  -0.800
O151    13.373487456    2.688662885    9.885220492 XXXX 1      oap1    O  -0.800
O152     8.537617477    2.714802038   18.074183076 XXXX 1      oap1    O  -0.800
O153     3.932631268    2.811951248   26.256750485 XXXX 1      oap1    O  -0.800
O154    22.779883009    2.702666529   10.023470277 XXXX 1      oap1    O  -0.800
O155    18.057182223    2.637739429   18.118720072 XXXX 1      oap1    O  -0.800
O156    13.440520872    2.932056982   26.140189601 XXXX 1      oap1    O  -0.800
O157     4.512624894    4.309220690    6.127038357 XXXX 1      oap2    O  -1.100
O158    -0.068176399    5.396229329   13.984215050 XXXX 1      oap2    O  -1.100
O159    14.185388069    4.712222157    6.139041101 XXXX 1      oap2    O  -1.100
O160     9.457061862    7.008400706   14.097249562 XXXX 1      oap2    O  -1.100
O161     4.794101616    5.999182507   22.298934771 XXXX 1      oap2    O  -1.100
O162     4.711493446    1.210154265    6.200660141 XXXX 1      oap2    O  -1.100
O163     0.077597776    2.070386497   14.184287217 XXXX 1      oap2    O  -1.100
O164    14.018048289    1.791719581    5.816340320 XXXX 1      oap2    O  -1.100
O165     9.348668908    2.471665738   14.051969893 XXXX 1      oap2    O  -1.100
O166     4.792406393    3.021999407   22.273312121 XXXX 1      oap2    O  -1.100
H1       4.372212988    4.889637570    5.387498549 XXXX 1      hop     H   0.200
H2       0.145235839    4.450745959   13.901908363 XXXX 1      hop     H   0.200
H3      13.239067310    4.897472676    5.869220166 XXXX 1      hop     H   0.200
H4       9.598948543    7.865024357   13.594316769 XXXX 1      hop     H   0.200
H5       4.925777662    5.159660388   22.708362622 XXXX 1      hop     H   0.200
H6       3.874078405    1.212095753    5.795014665 XXXX 1      hop     H   0.200
H7      -0.098120640    1.215322040   14.563850818 XXXX 1      hop     H   0.200
H8      13.918391285    1.229032301    6.543993937 XXXX 1      hop     H   0.200
H9       9.154601245    1.546170191   14.325312060 XXXX 1      hop     H   0.200
H10      4.697733807    3.943940131   22.067484950 XXXX 1      hop     H   0.200
H11      4.188119699    2.006613291    1.137769595 XXXX 1      hop     H   0.400
H12      4.231860177    4.907858653    1.948740582 XXXX 1      hop     H   0.400
H13      8.095779644    5.786236972    1.097100267 XXXX 1      hop     H   0.400
H14      9.130521464    5.501570670    3.706009694 XXXX 1      hop     H   0.400
H15     12.368173430    4.756858092    4.155019946 XXXX 1      hop     H   0.400
H16     14.479315368    7.292983835    1.881975188 XXXX 1      hop     H   0.400
H17     17.919481123    5.753538892    1.674092008 XXXX 1      hop     H   0.400
H18     20.302808524    4.829914764    3.600678684 XXXX 1      hop     H   0.400
H19     21.918928016    3.535346182    0.696135018 XXXX 1      hop     H   0.400
H20     12.842179675    4.290976091    1.217274296 XXXX 1      hop     H   0.400
end
O1       1.334514503   32.967301758   33.313513156 XXXX 1      oap1    O  -0.600
O2       0.143365899   27.817571623   32.972759974 XXXX 1      oap1    O  -0.650
O3       1.344039417   19.651597658   32.544317281 XXXX 1      oap1    O  -0.600
O4       1.516837120   13.361552868   32.877362491 XXXX 1      oap1    O  -0.600
O5       2.897913373   31.759955682   30.877174882 XXXX 1      oap1    O  -0.800
O6       3.124933051   25.068781297   30.909920383 XXXX 1      oap1    O  -0.800
O7       3.107257755   17.926867602   31.093432383 XXXX 1      oap1    O  -0.800
O8       2.842511882   10.880547052   30.924015045 XXXX 1      oap1    O  -0.800
O9       6.841616400   27.184070691   33.841402866 XXXX 1      oap1    O  -0.600
O10      5.679196543   24.190892979   34.634164048 XXXX 1      oap1    O  -0.600
O11      7.067247742   16.037986666   32.681282440 XXXX 1      oap1    O  -0.600
O12      7.453906329    9.947921234   32.437628851 XXXX 1      oap1    O  -0.600
O13      2.891351493   29.378516980   31.213130904 XXXX 1      oap1    O  -0.800
O14      2.533057286   22.685235825   31.076142162 XXXX 1      oap1    O  -0.800
O15      2.709461729   15.441978762   31.111968196 XXXX 1      oap1    O  -0.800
O16      2.974143769    8.350963685   30.800327088 XXXX 1      oap1    O  -0.800
O17      4.434783648   27.013296373   34.591196283 XXXX 1      oap1    O  -0.600
O18      7.411449956   23.993398195   32.760817234 XXXX 1      oap1    O  -0.600
O19      7.619380212   15.145846832   34.974172453 XXXX 1      oap1    O  -0.600
O20      9.021997597    8.313681175   33.532634369 XXXX 1      oap1    O  -0.600
O21      3.338352574   31.400236438   33.517470864 XXXX 1      oap1    O  -0.600
O22      2.474417241   26.958485322   32.858063586 XXXX 1      oap1    O  -0.600
O23      1.604706595   17.487348086   33.935168988 XXXX 1      oap1    O  -0.600
O24      1.420311686   10.870676088   33.092702458 XXXX 1      oap1    O  -0.650
Ca1      5.550800469   35.667292489   32.770218950 XXXX 1      ca+h    Ca  1.500
Ca2      4.208213005   29.085309734   33.092202039 XXXX 1      ca+h    Ca  1.500
Ca3      4.445266336   25.313522633   32.813364372 XXXX 1      ca+h    Ca  1.500
Ca4      5.156016846   18.070422024   32.543902848 XXXX 1      ca+h    Ca  1.500
Ca5      5.575173098   11.440923223   32.635556218 XXXX 1      ca+h    Ca  1.500
P1       2.749388194   32.774750922   33.983133631 XXXX 1      pap     P   1.000
P2       1.432363003   27.626404937   33.745180101 XXXX 1      pap     P   1.000
P3       1.857373539   19.006394244   33.883043527 XXXX 1      pap     P   1.000
P4       1.869758422   12.163914210   33.773590612 XXXX 1      pap     P   1.000
O25      2.672262721   32.904536663   35.493079977 XXXX 1      oap1    O  -0.650
O26      1.291526197   26.646793785   34.886832818 XXXX 1      oap1    O  -0.650
O27      1.131911996   19.569979597   35.084422581 XXXX 1      oap1    O  -0.650
O28      1.259108265   12.346998460   35.134336117 XXXX 1      oap1    O  -0.650
O29      3.728813429   33.784229710   33.394734447 XXXX 1      oap1    O  -0.650
O30      1.870265607   29.026002870   34.191102254 XXXX 1      oap1    O  -0.600
O31      3.335196569   19.347205728   33.882988882 XXXX 1      oap1    O  -0.650
O32      3.423951441   11.987842014   33.847088556 XXXX 1      oap1    O  -0.600
Ca6      1.052361183   30.627875336   32.222793080 XXXX 1      ca+h    Ca  1.500
Ca7      0.818867790   15.745312764   32.519660709 XXXX 1      ca+h    Ca  1.500
P5       3.656593630   30.496380183   30.549939096 XXXX 1      pap     P   1.000
P6       3.617063150   23.652660737   30.631705721 XXXX 1      pap     P   1.000
P7       3.602325200   16.539259290   30.563991770 XXXX 1      pap     P   1.000
P8       3.635593763    9.675484763   30.392842644 XXXX 1      pap     P   1.000
O33      5.027523520   30.366057222   31.249764934 XXXX 1      oap1    O  -0.800
O34      4.974320545   23.528139074   31.424633067 XXXX 1      oap1    O  -0.800
O35      5.063446863   16.448859214   30.921480097 XXXX 1      oap1    O  -0.800
O36      5.106152434    9.762229659   30.939931590 XXXX 1      oap1    O  -0.800
O37      3.610151240   30.293911511   29.036443974 XXXX 1      oap1    O  -0.800
O38      3.770123620   23.551299709   29.095522059 XXXX 1      oap1    O  -0.800
O39      3.499759314   16.615348467   29.013233273 XXXX 1      oap1    O  -0.800
O40      3.624977694    9.793783475   28.822391093 XXXX 1      oap1    O  -0.800
Ca8      7.304300209   30.430270135   30.365694191 XXXX 1      ca+h    Ca  1.500
Ca9      7.155832286   23.564567232   30.225419025 XXXX 1      ca+h    Ca  1.500
Ca10     7.297171157   16.601946472   30.326340133 XXXX 1      ca+h    Ca  1.500
Ca11     7.477483948    9.788671766   29.983324056 XXXX 1      ca+h    Ca  1.500
P9       5.878376026   27.238477447   35.069036938 XXXX 1      pap     P   1.000
P10      6.767195400   23.293054851   33.969699890 XXXX 1      pap     P   1.000
P11      6.469789825   15.326972725   33.934618548 XXXX 1      pap     P   1.000
P12      7.622145331    8.985008171   33.659872196 XXXX 1      pap     P   1.000
O41      5.860843970   28.621129723   35.813595380 XXXX 1      oap1    O  -0.650
O42      6.037414654   22.024190686   33.423199840 XXXX 1      oap1    O  -0.650
O43      5.787448527   13.988188183   33.684786856 XXXX 1      oap1    O  -0.650
O44      6.512291565    7.945287162   33.677920038 XXXX 1      oap1    O  -0.650
O45      6.146505783   26.148871070   36.032120988 XXXX 1      oap1    O  -0.650
O46      7.863733650   22.931848602   34.963044706 XXXX 1      oap1    O  -0.650
O47      5.488375774   16.398103224   34.539211466 XXXX 1      oap1    O  -0.650
O48      7.594166019    9.993703485   34.806283202 XXXX 1      oap1    O  -0.650
O49      0.021251424   32.539896691   30.815504127 XXXX 1      oap2    O  -1.100
O50      0.096515521   26.622862922   30.736163314 XXXX 1      oap2    O  -1.100
O51     -0.235446860   17.459831694   31.129054321 XXXX 1      oap2    O  -1.100
O52      0.092784976   14.308013536   30.616052080 XXXX 1      oap2    O  -1.100
O53      0.109904119   29.274801342   30.272227109 XXXX 1      oap2    O  -1.100
O54      0.014202851   21.035834738   30.097044145 XXXX 1      oap2    O  -1.100
O55     36.208903732   14.852575094   33.281345032 XXXX 1      oap2    O  -1.100
O56     -0.146096587   11.200417416   30.232857136 XXXX 1      oap2    O  -1.100
H1       0.572339442   32.158971087   30.116417404 XXXX 1      hop     H   0.200
H2      -0.713339112   26.919922762   31.092501443 XXXX 1      hop     H   0.200
H3       0.629473473   17.939285171   31.085281119 XXXX 1      hop     H   0.200
H4       0.750935957   14.712210968   30.089858149 XXXX 1      hop     H   0.200
H5      -0.174244075   28.450331794   30.642511342 XXXX 1      hop     H   0.200
H6      -0.322866005   21.888604904   30.100430579 XXXX 1      hop     H   0.200
H7      36.362266238   14.428665984   34.099270890 XXXX 1      hop     H   0.200
H8       0.727262395   11.053279162   30.308813882 XXXX 1      hop     H   0.200
H9       6.185168982   28.556946476   36.692862154 XXXX 1      hop     H   0.400
H10      5.838716645   25.324890504   35.655797808 XXXX 1      hop     H   0.400
H11      5.640721491   22.350131770   32.632776208 XXXX 1      hop     H   0.400
H12      8.607537010   22.957421683   34.391343268 XXXX 1      hop     H   0.400
H13      5.526416579   13.970787268   32.701276943 XXXX 1      hop     H   0.400
H14      5.476041310   16.218309623   35.461658738 XXXX 1      hop     H   0.400
H15      6.353489835    7.602587474   32.750689940 XXXX 1      hop     H   0.400
H16      8.184135434   10.678156848   34.578392771 XXXX 1      hop     H   0.400
H17      2.668325910   32.019044420   35.746825018 XXXX 1      hop     H   0.400
H18      0.816393508   25.968812697   34.508180905 XXXX 1      hop     H   0.400
H19      0.485830238   18.932033210   35.168136718 XXXX 1      hop     H   0.400
H20      1.892581437   12.248437501   35.827218351 XXXX 1      hop     H   0.400
H21      4.327699627   33.306796611   32.735236221 XXXX 1      hop     H   0.400
H22      0.149097969   27.136195682   32.339975801 XXXX 1      hop     H   0.400
H23      3.348479916   20.129711511   34.385307837 XXXX 1      hop     H   0.400
H24      2.016700712   10.716859163   32.392884190 XXXX 1      hop     H   0.400
end
O1       0.909584468    6.394385300   32.382306504 XXXX 1      oap1    O  -0.600
O2       2.978030069    4.183621597   31.403850598 XXXX 1      oap1    O  -0.800
O3       6.140369980    3.611421215   34.351357745 XXXX 1      oap1    O  -0.600
O4       3.420979740    1.696435239   31.614526869 XXXX 1      oap1    O  -0.800
O5       7.682950226    2.676501061   32.619194593 XXXX 1      oap1    O  -0.600
O6       0.907131368    4.035155380   33.038764479 XXXX 1      oap1    O  -0.650
Ca1      4.798371621    5.166581135   33.057138180 XXXX 1      ca+h    Ca  1.500
P1       1.179062805    5.427808475   33.538071201 XXXX 1      pap     P   1.000
O7       0.187036415    5.692409997   34.661351727 XXXX 1      oap1    O  -0.650
O8       2.652593573    5.596573338   33.959140534 XXXX 1      oap1    O  -0.600
P2       3.863263215    3.037271061   30.930332610 XXXX 1      pap     P   1.000
O9       5.325780060    3.260385770   31.441638328 XXXX 1      oap1    O  -0.800
O10      3.808981076    2.904538376   29.377302402 XXXX 1      oap1    O  -0.800
Ca2      7.709413394    2.920990593   30.176192367 XXXX 1      ca+h    Ca  1.500
P3       7.664060286    3.499711202   33.917689099 XXXX 1      pap     P   1.000
O11      8.503486634    2.791896428   34.919390829 XXXX 1      oap1    O  -0.650
O12      8.358403343    4.903577447   33.722085543 XXXX 1      oap1    O  -0.650
O13      0.043783004    4.620695491   30.031039094 XXXX 1      oap2    O  -1.100
O14      0.406773596    1.116928705   30.793912333 XXXX 1      oap2    O  -1.100
H1       0.109808287    4.967996176   30.865605857 XXXX 1      hop     H   0.200
H2       1.057589513    1.640469924   31.338782581 XXXX 1      hop     H   0.200
H3       8.196345310    3.130249331   35.705581741 XXXX 1      hop     H   0.400
H4       8.981325691    4.687401904   33.075651207 XXXX 1      hop     H   0.400
H5       0.133171899    6.670794143   34.785699447 XXXX 1      hop     H   0.400
H6       1.610207625    3.950990531   32.381600111 XXXX 1      hop     H   0.400
end
Ca193   36.815734989   34.149420182   32.286932043 XXXX 1      ca+h    Ca  1.500
Ca195   36.717803461   19.879439208   32.019006763 XXXX 1      ca+h    Ca  1.500
Ca196   36.516419850   12.670154836   31.938176334 XXXX 1      ca+h    Ca  1.500
end
end
