!BIOSYM archive 3
PBC=ON
Materials Studio Generated CAR File
!DATE Thu May 31 17:09:25 2012
PBC   24.3692  122.8529   25.2748   90.0000   90.0000   90.0000 (P1)
CA1     11.063240395    2.000244833    2.597163584 XXX  1      ca++    Ca  1.500
CA2      9.199459917    5.191380603    5.466952468 XXX  1      ca++    Ca  1.500
CA5      8.176394537    3.438430659    2.883154978 XXX  1      ca++    Ca  1.500
SI2      0.106415174    0.066459983    5.198593845 XXX  1      sc1     Si  1.000
SI3      8.039214321    0.161572526    2.954011398 XXX  1      sc1     Si  1.000
O1       2.119334862    3.467942083    4.505667712 XXX  1      oc1     O  -1.000
O2      10.215353660    3.488810991    4.198321703 XXX  1      oc2     O  -1.500
O3      -0.494229200    1.418813354    5.940114092 XXX  1      oc1     O  -1.000
O4       1.628892414   -0.213765399    5.628671973 XXX  1      oc1     O  -1.000
O6       0.102666075    0.241401691    3.589354999 XXX  1      oc1     O  -1.000
O7      10.150807910    3.998828296    7.097534299 XXX  1      oc2     O  -1.500
O9       8.014802254   -0.681731353    6.702611591 XXX  1      oc1     O  -1.000
O10      0.670679053    3.570884374    2.343213960 XXX  1      oc1     O  -1.000
O11      0.600684051    3.630327337    8.124058447 XXX  1      oc1     O  -1.000
O12      2.990587902    4.730780459    2.365695691 XXX  1      oc1     O  -1.000
CA7      7.134252980    1.886384808   10.934768179 XXX  1      ca++    Ca  1.500
CA8      5.131492615    5.322942625   13.960321442 XXX  1      ca++    Ca  1.500
CA9     11.158721118    2.067487447    8.362831697 XXX  1      ca++    Ca  1.500
CA10     7.965081025    3.488185814   13.996744263 XXX  1      ca++    Ca  1.500
CA11     4.470679619    3.608923869   11.054952831 XXX  1      ca++    Ca  1.500
CA12     8.096229032    3.650423705    8.269561377 XXX  1      ca++    Ca  1.500
SI4      8.266155549    0.038411618    8.200755854 XXX  1      sc1     Si  1.000
SI5      8.248409136    0.090538001   13.627540448 XXX  1      sc1     Si  1.000
O13     10.134216882    3.596838141   12.844657908 XXX  1      oc1     O  -1.000
O14      6.323671110    3.541869085   12.488712846 XXX  1      oc2     O  -1.500
O15      7.344382506    1.250189471   14.299445169 XXX  1      oc1     O  -1.000
O16      9.718775920    0.130468215   14.248990211 XXX  1      oc1     O  -1.000
O17      8.972509699   -0.925497767    9.324686099 XXX  1      oc1     O  -1.000
O18      8.360762678    0.325469701   12.043279790 XXX  1      oc1     O  -1.000
O19      5.979187503    3.551511008   15.689978579 XXX  1      oc2     O  -1.500
O21      5.293244305   -0.091777937   17.345581496 XXX  1      oc1     O  -1.000
O22      8.843850009    3.552950521   10.668056376 XXX  1      oc1     O  -1.000
O23      8.720588518    3.350101579   16.563388451 XXX  1      oc1     O  -1.000
O24     11.080508194    4.748355743   10.713400392 XXX  1      oc1     O  -1.000
CA13     2.969275148    1.798156544   19.741455857 XXX  1      ca++    Ca  1.500
CA14     1.022579511    5.139235814   22.685834725 XXX  1      ca++    Ca  1.500
CA15     6.997316500    1.665428049   16.723441282 XXX  1      ca++    Ca  1.500
CA16     3.874924961    3.440616359   22.711583014 XXX  1      ca++    Ca  1.500
CA17     0.119431600    3.429890008   19.815629680 XXX  1      ca++    Ca  1.500
CA18     3.833297934    3.440813805   16.826608336 XXX  1      ca++    Ca  1.500
SI7      3.872733203    0.113797535   16.653240744 XXX  1      sc1     Si  1.000
SI8      4.167918391   -0.143958885   22.467537797 XXX  1      sc1     Si  1.000
O25      5.906403246    3.370677105   21.382687884 XXX  1      oc1     O  -1.000
O26      2.110501452    3.472021573   21.177993154 XXX  1      oc2     O  -1.500
O27      3.431925182    1.217909349   23.033516784 XXX  1      oc1     O  -1.000
O28      5.582570467   -0.332725725   23.259085434 XXX  1      oc1     O  -1.000
O29      2.666471606    0.360394751   17.748158005 XXX  1      oc1     O  -1.000
O30      4.272028943    0.040787881   20.838541567 XXX  1      oc1     O  -1.000
O31      1.893495305    3.316510987   24.101618519 XXX  1      oc2     O  -1.500
O34      4.596880759    3.284030664   19.055456190 XXX  1      oc1     O  -1.000
O35      4.675530045    3.333345559   -0.316282009 XXX  1      oc1     O  -1.000
O36      6.835106189    4.759196036   19.225028495 XXX  1      oc1     O  -1.000
CA19    10.970923415    8.736376510    2.950342822 XXX  1      ca++    Ca  1.500
CA20     9.176110627   12.284674556    5.805816522 XXX  1      ca++    Ca  1.500
CA23     8.105586070   10.512771969    2.944163653 XXX  1      ca++    Ca  1.500
SI10     0.056813593    7.092310988    0.117734743 XXX  1      sc1     Si  1.000
SI11     0.101432597    7.082672932    5.447966409 XXX  1      sc1     Si  1.000
SI12     8.024498412    6.962250452    2.812926362 XXX  1      sc1     Si  1.000
O37      2.107197136   10.679460780    4.496240830 XXX  1      oc1     O  -1.000
O38     10.081979831   10.728648510    4.352220456 XXX  1      oc2     O  -1.500
O39     -0.573946914    8.475556016    4.926429006 XXX  1      oc1     O  -1.000
O40      1.562390379    6.978741170    4.982055466 XXX  1      oc1     O  -1.000
O41      0.266076224    7.120182539    1.722092629 XXX  1      oc1     O  -1.000
O42     -0.722889902    5.852085920    4.877130923 XXX  1      oc1     O  -1.000
O43     10.125606300   10.352812861    7.292987774 XXX  1      oc2     O  -1.500
O44      4.076088384    7.139064327    0.900593655 XXX  1      oc2     O  -1.500
O45      7.382742594    8.398433497    8.902114484 XXX  1      oc1     O  -1.000
O46      0.580290630   10.733375460    2.272520301 XXX  1      oc1     O  -1.000
O47      0.527032810   10.476650834    7.805752283 XXX  1      oc1     O  -1.000
O48      2.846666925   11.966899651    2.387126471 XXX  1      oc1     O  -1.000
CA25     6.837082463    8.917459384   11.186730476 XXX  1      ca++    Ca  1.500
CA26     5.005340424   12.117514255   14.116015039 XXX  1      ca++    Ca  1.500
CA27    11.336054959    8.701154013    8.511965876 XXX  1      ca++    Ca  1.500
CA28     7.789527493   10.399256531   14.318208157 XXX  1      ca++    Ca  1.500
CA29     4.012860637   10.598215512   11.148483796 XXX  1      ca++    Ca  1.500
CA30     8.063016262   10.560886242    8.408163357 XXX  1      ca++    Ca  1.500
SI13     8.220651483    7.152832979    8.330760908 XXX  1      sc1     Si  1.000
SI14     8.101434691    7.043519501   13.823530643 XXX  1      sc1     Si  1.000
SI15     4.038251598    7.122920712   11.186378014 XXX  1      sc1     Si  1.000
O49      9.959935308   10.398654532   13.205040369 XXX  1      oc1     O  -1.000
O50      5.874463083   10.473500006   12.533112729 XXX  1      oc2     O  -1.500
O51      7.139687698    8.264590121   14.293046702 XXX  1      oc1     O  -1.000
O52      9.595734453    7.219982806   14.410454994 XXX  1      oc1     O  -1.000
O53      7.473882860    5.836798988    8.773262307 XXX  1      oc1     O  -1.000
O54      8.165285835    6.993494352   12.224428954 XXX  1      oc1     O  -1.000
O55      5.946810307   10.291720927   15.705215420 XXX  1      oc2     O  -1.500
O56     -0.030321488    7.215574000    9.626994255 XXX  1      oc2     O  -1.500
O57      3.887718302    7.013744140   15.262812804 XXX  1      oc1     O  -1.000
O58      8.593425004   10.419231021   10.967227311 XXX  1      oc1     O  -1.000
O59      8.585109149   10.303587666   16.506829957 XXX  1      oc1     O  -1.000
O60     10.653908273   11.854567691   11.039566439 XXX  1      oc1     O  -1.000
CA31     2.961244312    8.854308240   19.598106077 XXX  1      ca++    Ca  1.500
CA32     0.941289907   12.268196016   22.376716885 XXX  1      ca++    Ca  1.500
CA33     7.017170282    8.514779834   16.766450855 XXX  1      ca++    Ca  1.500
CA34     3.842021086   10.798054986   22.513650808 XXX  1      ca++    Ca  1.500
CA35     0.157598076   10.448958973   19.536881737 XXX  1      ca++    Ca  1.500
CA36     3.945524893   10.610943492   16.849664788 XXX  1      ca++    Ca  1.500
SI16     3.951727233    6.998069153   16.830193877 XXX  1      sc1     Si  1.000
SI17     4.070168732    7.024469395   22.306206158 XXX  1      sc1     Si  1.000
SI18     0.024862505    6.911308521   19.855780840 XXX  1      sc1     Si  1.000
O61      6.027961654   10.502213405   21.344664047 XXX  1      oc1     O  -1.000
O62      2.116262784   10.573787651   20.981440848 XXX  1      oc2     O  -1.500
O63      3.311192502    8.362011273   22.845545104 XXX  1      oc1     O  -1.000
O64      5.537806469    7.029645141   22.832657394 XXX  1      oc1     O  -1.000
O65      3.224198933    5.752562739   17.425558022 XXX  1      oc1     O  -1.000
O66      4.130886356    6.938705819   20.629045849 XXX  1      oc1     O  -1.000
O67      1.860794689   10.787926402   24.012343698 XXX  1      oc2     O  -1.500
O68      8.399550737    6.930069236   17.871724730 XXX  1      oc2     O  -1.500
O69      0.664842435    5.723404965   -0.399016606 XXX  1      oc1     O  -1.000
O70      4.574480511   10.559700948   19.180327013 XXX  1      oc1     O  -1.000
O71      4.625805851   10.775276464   -0.590831894 XXX  1      oc1     O  -1.000
O72      6.851394280   11.782632082   19.268042912 XXX  1      oc1     O  -1.000
CA37    11.331450556   16.029486902    2.739278338 XXX  1      ca++    Ca  1.500
CA38     6.551741208   20.761187363    5.244043041 XXX  1      ca++    Ca  1.500
CA40     0.141895444   17.642381486    5.790985612 XXX  1      ca++    Ca  1.500
CA41     8.178267031   17.802399579    2.862340182 XXX  1      ca++    Ca  1.500
SI19    -0.057399425   14.194755158   -0.094093489 XXX  1      sc1     Si  1.000
SI20    -0.063952465   14.081040782    5.466668475 XXX  1      sc1     Si  1.000
SI21     8.134174661   14.101889850    3.080708867 XXX  1      sc1     Si  1.000
O73      1.639389900   16.868266580    4.240435379 XXX  1      oc1     O  -1.000
O74     10.382684537   17.802267381    4.091465035 XXX  1      oc5     O  -1.050
O75     -0.830270496   15.413760496    5.998759691 XXX  1      oc1     O  -1.000
O76      1.436867611   14.090202242    6.006609158 XXX  1      oc1     O  -1.000
O77     -0.694132838   12.821371421    0.494763988 XXX  1      oc1     O  -1.000
O78     -0.203549327   14.108900176    3.864300624 XXX  1      oc1     O  -1.000
O79     10.479202530   18.053149111    7.379092654 XXX  1      oc5     O  -1.050
O80      4.293960793   14.008082895    1.008947606 XXX  1      oc2     O  -1.500
O81      8.889922014   12.819736712    8.101244710 XXX  1      oc1     O  -1.000
O82      0.697649575   17.608554984    1.939541998 XXX  1      oc1     O  -1.000
O83      1.291890730   16.394949597    8.401151861 XXX  1      oc1     O  -1.000
O84      2.880355155   18.802371820    3.138674380 XXX  1      oc1     O  -1.000
CA43     7.407413934   15.979492198   11.500460367 XXX  1      ca++    Ca  1.500
CA44     5.118211867   19.690629715   13.999670132 XXX  1      ca++    Ca  1.500
CA45    11.219215498   15.930212172    8.373640230 XXX  1      ca++    Ca  1.500
CA46    10.757921331   18.760763042   14.203225135 XXX  1      ca++    Ca  1.500
CA47     4.133385308   17.768998931   11.093214845 XXX  1      ca++    Ca  1.500
CA48     8.206990716   17.767906747    8.273049415 XXX  1      ca++    Ca  1.500
SI22     8.286474009   14.204129280    8.508867965 XXX  1      sc1     Si  1.000
SI23     7.786920535   13.886456603   14.166149495 XXX  1      sc1     Si  1.000
SI24     3.974285588   14.252267592   11.532323800 XXX  1      sc1     Si  1.000
O85      9.832546496   16.359198064   12.416948885 XXX  1      oc1     O  -1.000
O86      6.119441521   17.762035329   12.697759481 XXX  1      oc5     O  -1.050
O87      6.996596008   15.127523618   14.736554482 XXX  1      oc1     O  -1.000
O88      9.399027170   13.931883522   14.512501204 XXX  1      oc1     O  -1.000
O89      8.255752983   14.339562250   10.103910995 XXX  1      oc1     O  -1.000
O90      7.658396041   13.825894791   12.619113337 XXX  1      oc1     O  -1.000
O91      6.137528719   17.805328863   15.663606371 XXX  1      oc5     O  -1.050
O92     -0.207283835   14.009580834    9.589468349 XXX  1      oc2     O  -1.500
O93      4.689726559   12.852265887   16.330197588 XXX  1      oc1     O  -1.000
O94      8.849528234   17.620909849   10.468827863 XXX  1      oc1     O  -1.000
O95      8.932406133   18.508805154   16.069173389 XXX  1      oc1     O  -1.000
O96     10.687300085   18.864505958   11.993703362 XXX  1      oc1     O  -1.000
CA49     3.177205666   15.905026893   19.750217630 XXX  1      ca++    Ca  1.500
CA51     6.947266664   15.783359954   16.980220002 XXX  1      ca++    Ca  1.500
CA53     0.126867840   17.612633204   19.286983534 XXX  1      ca++    Ca  1.500
CA54     4.183941755   18.037663073   16.887709434 XXX  1      ca++    Ca  1.500
SI25     3.983234423   14.191338614   16.860335290 XXX  1      sc1     Si  1.000
SI26     4.030875831   14.187299816   22.393922593 XXX  1      sc1     Si  1.000
SI27    -0.060479442   14.217624541   19.666448164 XXX  1      sc1     Si  1.000
O97      5.923547858   17.479106531   21.395255658 XXX  1      oc1     O  -1.000
O98      2.011577559   18.007240957   20.977637185 XXX  1      oc5     O  -1.050
O99      3.384385284   15.627259943   22.760613372 XXX  1      oc1     O  -1.000
O100     5.485001204   13.853147910   23.094228250 XXX  1      oc1     O  -1.000
O101     3.950606409   14.132086314   18.409791340 XXX  1      oc1     O  -1.000
O102     4.175436409   14.116081451   20.820224296 XXX  1      oc1     O  -1.000
O103     1.951324846   17.696016084   24.251587308 XXX  1      oc5     O  -1.050
O104     7.978730686   13.869208792   17.926307020 XXX  1      oc2     O  -1.500
O105    -0.124742685   14.082954722   -1.694229498 XXX  1      oc1     O  -1.000
O106     4.625302273   17.537076252   19.157712575 XXX  1      oc1     O  -1.000
O107     4.817475823   17.537855569   -0.508375524 XXX  1      oc1     O  -1.000
O108     6.981047337   18.725547966   19.122546233 XXX  1      oc1     O  -1.000
H1      10.496993812   18.768292883    4.009231246 XXXX 3      hoc     H   0.300
O1       4.408250403   21.165957592    6.764962002 XXXX 3      oc5     O  -1.050
H2       4.231751505   22.114364822    6.608876216 XXXX 3      hoc     H   0.300
H3      10.804848569   18.760120866    7.874608120 XXXX 3      hoc     H   0.300
O2       7.116916720   20.380361835    7.518744441 XXXX 3      oc5     O  -1.050
H4       7.867315361   20.844496704    7.927553680 XXXX 3      hoc     H   0.300
H5       7.017769629   18.113949304   12.726193312 XXXX 3      hoc     H   0.300
O3      16.383113433   19.992667525   11.483045135 XXXX 3      oc5     O  -1.050
H6      16.348218441   20.898355284   11.205190742 XXXX 3      hoc     H   0.300
H7       7.027272484   17.809736094   15.357333171 XXXX 3      hoc     H   0.300
O4       6.980951896   20.991740201   14.641515244 XXXX 3      oc5     O  -1.050
H8       7.713015678   21.525531084   14.501506752 XXXX 3      hoc     H   0.300
H9       2.227091333   18.885484498   20.674321352 XXXX 3      hoc     H   0.300
O5       8.579033351   21.472003974   18.461982218 XXXX 3      oc5     O  -1.050
H10      8.830955076   22.379106836   18.379718338 XXXX 3      hoc     H   0.300
H11      2.351356195   18.516680370   24.500130757 XXXX 3      hoc     H   0.300
O6       5.024781350   20.263801033   22.917409041 XXXX 3      oc5     O  -1.050
H12      4.527965205   20.968038142   23.345450228 XXXX 3      hoc     H   0.300
H13      9.084434703   18.612729334    0.513327124 XXXX 3      hoc     H   0.300
O7       4.450601480   21.216854886    3.748414350 XXXX 3      oc5     O  -1.050
H14      4.097582382   22.084463621    3.520617041 XXXX 3      hoc     H   0.300
H15      6.856795165   18.256634620   10.537372427 XXXX 3      hoc     H   0.300
O8       7.438542434   20.057532994    3.055673495 XXXX 3      oc5     O  -1.050
H16      7.333422296   20.342992698    2.169594574 XXXX 3      hoc     H   0.300
H17      1.713732776   18.792923389   18.099574032 XXXX 3      hoc     H   0.300
O9       4.766979689   20.256730078   16.413082783 XXXX 3      oc5     O  -1.050
H18      4.498891654   21.166971660   16.624858584 XXXX 3      hoc     H   0.300
CA1     10.910535615    5.218707762    2.744606552 XXX  4      ca++    Ca  1.500
CA2      9.239158479    2.033740101    5.779476500 XXX  4      ca++    Ca  1.500
O1      -0.687978621   -1.300914825    5.619605335 XXX  4      oc1     O  -1.000
O2       8.996918320    1.453970353    8.046245902 XXX  4      oc1     O  -1.000
O3       2.915828431    2.176865366    2.384147289 XXX  4      oc1     O  -1.000
CA4      5.178444716    5.458751508    2.727539541 XXX  4      ca++    Ca  1.500
CA5      3.023185549    1.708746181    5.820092011 XXX  4      ca++    Ca  1.500
CA7      6.071799310    0.046033623    5.733669838 XXX  4      ca++    Ca  1.500
SI1      6.200785005    3.586272925    0.020658841 XXX  4      sc1     Si  1.000
SI2      6.011139510    3.485087113    5.601914064 XXX  4      sc1     Si  1.000
SI3      2.158497042    3.480561549    2.898540436 XXX  4      sc1     Si  1.000
O4       7.822448325    0.713403256    4.407784404 XXX  4      oc1     O  -1.000
O6       5.427091371    4.895476918    6.181120035 XXX  4      oc1     O  -1.000
O7       7.560464597    3.514698565    5.934962105 XXX  4      oc1     O  -1.000
O8       6.418696127    3.702543144    1.596829793 XXX  4      oc1     O  -1.000
O9       5.797388676    3.378275627    4.025448088 XXX  4      oc1     O  -1.000
O11      9.938261319    3.816918137    1.110082391 XXX  4      oc2     O  -1.500
O12      2.852629093    2.408576258    7.903967786 XXX  4      oc1     O  -1.000
O13      6.582106885   -0.039599070    2.169373846 XXX  4      oc1     O  -1.000
O14      6.896657957    0.459030706    8.912790857 XXX  4      oc1     O  -1.000
O15      8.874671900    1.243845392    2.094803963 XXX  4      oc1     O  -1.000
CA10     5.227996320    1.844715658    2.549825115 XXX  4      ca++    Ca  1.500
CA11     3.327149233    5.448163240    5.650462197 XXX  4      ca++    Ca  1.500
O16      5.280439733    2.218658121    6.363161526 XXX  4      oc1     O  -1.000
O17      2.870830674    4.934102940    7.892305423 XXX  4      oc1     O  -1.000
O18      8.802512759   -1.262171569    2.953855242 XXX  4      oc1     O  -1.000
CA13     7.178862774    5.167663748   10.961333348 XXX  4      ca++    Ca  1.500
CA14     5.102166424    2.091907268   13.981248907 XXX  4      ca++    Ca  1.500
CA15    11.353150570    5.350639545    8.462645660 XXX  4      ca++    Ca  1.500
O19      7.632225905   -1.345289822   13.899944880 XXX  4      oc1     O  -1.000
O20      3.942961736    1.362869889   15.700838141 XXX  4      oc1     O  -1.000
O21     10.978794372    2.091296598   10.895162521 XXX  4      oc1     O  -1.000
CA16     0.955354868    5.528289572   11.098512745 XXX  4      ca++    Ca  1.500
CA17    11.296874034    1.669160117   13.693946662 XXX  4      ca++    Ca  1.500
CA18     5.048485451    5.322878003    8.381019250 XXX  4      ca++    Ca  1.500
SI4      2.152614539    3.676475470    8.505413700 XXX  4      sc1     Si  1.000
SI5      2.030610145    3.457284713   13.807403937 XXX  4      sc1     Si  1.000
SI6     10.308667723    3.480201731   11.237565367 XXX  4      sc1     Si  1.000
O24      1.832149633    3.542381717   15.444057775 XXX  4      oc1     O  -1.000
O25      3.591417942    3.642317092   13.424203513 XXX  4      oc1     O  -1.000
O26      2.366995062    3.662056300   10.109245726 XXX  4      oc1     O  -1.000
O27      1.259818863    4.681941733   13.158890154 XXX  4      oc1     O  -1.000
O29      6.018623807    3.507356952    9.463958276 XXX  4      oc2     O  -1.500
O30     11.047488114    2.202953607   15.945301490 XXX  4      oc1     O  -1.000
O32      3.581272193   -1.143846399   15.751205187 XXX  4      oc1     O  -1.000
CA22     1.238256554    1.642482733   11.063142423 XXX  4      ca++    Ca  1.500
CA23    11.349150499    5.490251114   14.106081074 XXX  4      ca++    Ca  1.500
CA24     4.933433385    1.647405747    8.499245817 XXX  4      ca++    Ca  1.500
O34      1.423041328    1.970419357   13.301139729 XXX  4      oc1     O  -1.000
O35     10.785134855    4.899221680   16.203766346 XXX  4      oc1     O  -1.000
CA25     2.972747783    4.942193823   19.608099178 XXX  4      ca++    Ca  1.500
CA26     1.081771915    1.746922478   22.555035192 XXX  4      ca++    Ca  1.500
CA27     7.114963918    5.180157920   16.870326597 XXX  4      ca++    Ca  1.500
O37      3.161035563   -1.330322941   22.786857331 XXX  4      oc1     O  -1.000
O39      6.931870777    2.037711862   19.286481462 XXX  4      oc1     O  -1.000
CA28     9.214060856    5.376362170   19.479929707 XXX  4      ca++    Ca  1.500
CA29     7.129666348    1.327842549   22.704459105 XXX  4      ca++    Ca  1.500
CA30     1.006721144    5.055352948   17.027680177 XXX  4      ca++    Ca  1.500
SI7     10.359318080    3.438304163   16.719018961 XXX  4      sc1     Si  1.000
SI8     10.048097657    3.431727413   22.318973983 XXX  4      sc1     Si  1.000
SI9      6.064899440    3.357198905   19.737655586 XXX  4      sc1     Si  1.000
O42      9.251082291    4.739681203   22.797927788 XXX  4      oc1     O  -1.000
O43     11.487071060    3.515799167   22.961040942 XXX  4      oc1     O  -1.000
O44     10.607708027    3.379281737   18.242637560 XXX  4      oc1     O  -1.000
O45     10.179559689    3.653762261   20.776818411 XXX  4      oc1     O  -1.000
O47      1.900091154    3.283165128   18.234977266 XXX  4      oc2     O  -1.500
O48      7.052741950    2.460578146   -0.629590569 XXX  4      oc1     O  -1.000
CA34     9.260186068    1.921379599   19.490340875 XXX  4      ca++    Ca  1.500
CA35     7.093423472    5.381316344   22.392126246 XXX  4      ca++    Ca  1.500
CA36     0.907771642    1.688181734   16.876795819 XXX  4      ca++    Ca  1.500
O52      9.299321659    2.005482237   22.672985051 XXX  4      oc1     O  -1.000
O53      6.731300928    4.956580639   -0.654486201 XXX  4      oc1     O  -1.000
CA37    11.031649610   12.114397785    2.749497204 XXX  4      ca++    Ca  1.500
CA38     9.110001852    9.060296110    5.657433204 XXX  4      ca++    Ca  1.500
O55      0.103778779    7.016515953    7.060446434 XXX  4      oc1     O  -1.000
O56      8.187945207    7.170514238    6.707243375 XXX  4      oc1     O  -1.000
O57      2.835646907    9.325694849    2.329462321 XXX  4      oc1     O  -1.000
CA40     5.068125909   12.387464138    2.760280525 XXX  4      ca++    Ca  1.500
CA41     3.256984484    8.629656007    5.591103495 XXX  4      ca++    Ca  1.500
CA43     6.062185516    7.055771292    5.747505241 XXX  4      ca++    Ca  1.500
CA44     2.377288263    7.065946051    2.618239687 XXX  4      ca++    Ca  1.500
SI10     6.093190121   10.553994039   -0.118653704 XXX  4      sc1     Si  1.000
SI11     6.053111088   10.610297400    5.627204532 XXX  4      sc1     Si  1.000
SI12     2.044760256   10.658334760    2.876461531 XXX  4      sc1     Si  1.000
O58      7.977026835    5.578500774    3.680692375 XXX  4      oc1     O  -1.000
O59      4.377844458    7.112079129    4.169680802 XXX  4      oc2     O  -1.500
O60      5.219946795   11.915150841    6.230708134 XXX  4      oc1     O  -1.000
O61      7.566781731   10.539216681    6.171225178 XXX  4      oc1     O  -1.000
O62      6.186279087   10.484654886    1.513649378 XXX  4      oc1     O  -1.000
O63      6.102421223   10.716981232    3.985212691 XXX  4      oc1     O  -1.000
O64      4.094706673    7.032680066    7.127753365 XXX  4      oc2     O  -1.500
O65      9.849844889   10.288325584    1.403650366 XXX  4      oc2     O  -1.500
O66      2.743134884    9.219276976    7.840522961 XXX  4      oc1     O  -1.000
O67      6.698158913    7.159819261    1.970577180 XXX  4      oc1     O  -1.000
O68      9.731050880    7.141272409    8.849170330 XXX  4      oc1     O  -1.000
O69      8.218784056    8.302048072    3.779719004 XXX  4      oc1     O  -1.000
CA46     5.162525446    8.789312577    2.516751880 XXX  4      ca++    Ca  1.500
CA47     3.093448899   12.364177804    5.677158119 XXX  4      ca++    Ca  1.500
O70      5.387510114    9.274351879    6.017270401 XXX  4      oc1     O  -1.000
O71      2.751812273   11.928321934    7.898406223 XXX  4      oc1     O  -1.000
O72      9.279117883    6.896150275    1.827082207 XXX  4      oc1     O  -1.000
CA49     6.952173676   12.212384619   11.082683246 XXX  4      ca++    Ca  1.500
CA50     4.833329069    8.851982341   14.179562243 XXX  4      ca++    Ca  1.500
CA51    11.054275482   12.184625630    8.462147203 XXX  4      ca++    Ca  1.500
O73      7.463142860    5.714471380   14.428015952 XXX  4      oc1     O  -1.000
O74      5.521267759    6.842167056   17.253536916 XXX  4      oc1     O  -1.000
O75     10.921829481    9.312773360   10.970820958 XXX  4      oc1     O  -1.000
CA52     0.846626853   12.348350964   11.186817392 XXX  4      ca++    Ca  1.500
CA53    11.287695936    8.700611179   14.153979606 XXX  4      ca++    Ca  1.500
CA54     4.967986693   12.654082008    8.463062790 XXX  4      ca++    Ca  1.500
CA55     1.853124320    6.973006887   13.978625105 XXX  4      ca++    Ca  1.500
CA56    10.404848821    6.955609626   10.998375517 XXX  4      ca++    Ca  1.500
CA57     1.951030612    7.094888700    8.381808669 XXX  4      ca++    Ca  1.500
SI13     2.029191167   10.571949427    8.395162760 XXX  4      sc1     Si  1.000
SI14     1.883943537   10.561757914   14.026044348 XXX  4      sc1     Si  1.000
SI15    10.033025681   10.473276051   11.570657925 XXX  4      sc1     Si  1.000
O76      4.096176955    7.129944589   12.753086981 XXX  4      oc1     O  -1.000
O77     -0.108515299    7.103272246   12.659413358 XXX  4      oc2     O  -1.500
O78      1.174064854   11.843605550   14.641950985 XXX  4      oc1     O  -1.000
O79      3.403332075   10.505484008   14.423131875 XXX  4      oc1     O  -1.000
O80      1.873360599   10.597798149    9.974193357 XXX  4      oc1     O  -1.000
O81      1.808254096   10.602507220   12.450572943 XXX  4      oc1     O  -1.000
O82      0.277610486    6.802829690   15.670006948 XXX  4      oc2     O  -1.500
O83      5.880221624   10.833796894    9.513867981 XXX  4      oc2     O  -1.500
O84     11.022004932    9.084682130   16.391894380 XXX  4      oc1     O  -1.000
O85      2.551531836    7.008661930   10.631389840 XXX  4      oc1     O  -1.000
O86      3.366454075    8.380065581   17.446968495 XXX  4      oc1     O  -1.000
O87      4.588164465    8.482915048   10.606103733 XXX  4      oc1     O  -1.000
CA58     0.858148518    8.737017115   11.256949547 XXX  4      ca++    Ca  1.500
CA59    11.117004113   12.438776256   14.152009169 XXX  4      ca++    Ca  1.500
CA60     4.953494457    8.895594139    8.410680781 XXX  4      ca++    Ca  1.500
O88      1.141099023    9.157740652   14.407668462 XXX  4      oc1     O  -1.000
O89     10.719387304   11.727456649   16.572136625 XXX  4      oc1     O  -1.000
O90      5.018530701    5.922007500   10.672099770 XXX  4      oc1     O  -1.000
CA61     2.920273873   12.301182058   19.440884561 XXX  4      ca++    Ca  1.500
CA62     1.162082160    9.089707297   22.364156292 XXX  4      ca++    Ca  1.500
CA63     6.882112125   12.075560036   16.918956698 XXX  4      ca++    Ca  1.500
O91      3.321755948    5.685782101   22.875351560 XXX  4      oc1     O  -1.000
O92      0.878916756    8.352701116   -0.566366012 XXX  4      oc1     O  -1.000
O93      6.840750631    9.114300089   19.254790397 XXX  4      oc1     O  -1.000
CA64     9.107101490   12.355383098   19.548612316 XXX  4      ca++    Ca  1.500
CA65     7.165400290    8.567839188   22.328400033 XXX  4      ca++    Ca  1.500
CA66     0.670050939   12.438896363   16.931569994 XXX  4      ca++    Ca  1.500
CA67    10.042848783    6.939880129   22.390366766 XXX  4      ca++    Ca  1.500
CA68     6.245604625    6.916515828   19.476161444 XXX  4      ca++    Ca  1.500
CA69    10.341501502    7.007911352   16.781855027 XXX  4      ca++    Ca  1.500
SI16    10.130249159   10.360092901   16.983448973 XXX  4      sc1     Si  1.000
SI17    10.227294006   10.459051046   22.386368205 XXX  4      sc1     Si  1.000
SI18     6.092228935   10.504199356   19.749679665 XXX  4      sc1     Si  1.000
O94      0.017097111    6.986205144   21.550956252 XXX  4      oc1     O  -1.000
O95      8.066264550    6.828913833   20.893054236 XXX  4      oc2     O  -1.500
O96      9.505375900   11.752358306   21.788979154 XXX  4      oc1     O  -1.000
O97     10.146233488   10.453241194   23.906207997 XXX  4      oc1     O  -1.000
O98     10.187086497   10.336960022   18.590984307 XXX  4      oc1     O  -1.000
O99     11.733795610   10.497217535   21.907457319 XXX  4      oc1     O  -1.000
O100     8.131057977    7.063040405   23.742219418 XXX  4      oc2     O  -1.500
O101     1.853379195   10.651026167   17.860109313 XXX  4      oc2     O  -1.500
O102     6.710329418    9.235672255   -0.799383500 XXX  4      oc1     O  -1.000
O103    -1.498133076    6.939023431   19.287841828 XXX  4      oc1     O  -1.000
O104    -1.497928517    7.121583381   -0.289279484 XXX  4      oc1     O  -1.000
O105     0.846356331    8.188506938   19.337513942 XXX  4      oc1     O  -1.000
CA70     9.075166273    8.602772612   19.681762101 XXX  4      ca++    Ca  1.500
CA71     7.368161382   12.361634546   22.465805032 XXX  4      ca++    Ca  1.500
CA72     1.105081746    8.714222085   16.805188294 XXX  4      ca++    Ca  1.500
O106     9.530291116    9.194923111   21.781147755 XXX  4      oc1     O  -1.000
O107     6.986014323   11.723080163   -0.576539335 XXX  4      oc1     O  -1.000
O108     0.814304763    5.614150291   19.308441640 XXX  4      oc1     O  -1.000
CA74     9.203487648   15.922886538    5.589586241 XXX  4      ca++    Ca  1.500
O109    -0.786764083   12.742167632    6.002579440 XXX  4      oc1     O  -1.000
O110     9.117215456   15.482074688    7.871935768 XXX  4      oc1     O  -1.000
O111     3.088759452   16.338100631    2.159271988 XXX  4      oc1     O  -1.000
CA76     3.171702626   19.554380495    5.193999394 XXX  4      ca++    Ca  1.500
CA77     3.107561295   15.782305871    5.590323410 XXX  4      ca++    Ca  1.500
CA79     5.771214202   14.177847103    5.775112059 XXX  4      ca++    Ca  1.500
CA80     2.306593115   14.232620365    2.546648304 XXX  4      ca++    Ca  1.500
SI19     6.217925587   17.484891369    0.216984237 XXX  4      sc1     Si  1.000
SI20     6.091310217   17.561196314    5.633751837 XXX  4      sc1     Si  1.000
SI21     2.062406092   17.449847062    2.834586390 XXX  4      sc1     Si  1.000
O112     7.986291244   13.978440281    4.751815741 XXX  4      oc1     O  -1.000
O113     4.046202684   13.963659593    4.271767785 XXX  4      oc2     O  -1.500
O114     7.633896282   17.472752355    5.225718363 XXX  4      oc1     O  -1.000
O115     5.954851972   17.555592392    7.230922388 XXX  4      oc1     O  -1.000
O116     6.123273782   17.384460142    1.901049870 XXX  4      oc1     O  -1.000
O117     5.374745409   16.242905353    5.062043682 XXX  4      oc1     O  -1.000
O118     4.050112070   14.484479774    7.420554912 XXX  4      oc2     O  -1.500
O119     9.738618669   18.131292822    1.036153259 XXX  4      oc5     O  -1.050
O120     3.549979410   17.712483900    8.904736651 XXX  4      oc1     O  -1.000
O121     6.674989167   13.984652477    2.438384485 XXX  4      oc1     O  -1.000
O122     6.757957523   14.211282798    7.978429508 XXX  4      oc1     O  -1.000
O123     8.951281978   15.532364736    2.715497548 XXX  4      oc1     O  -1.000
CA82     5.076901614   15.621397491    2.848784739 XXX  4      ca++    Ca  1.500
O124     5.392357248   18.837093592    4.921170701 XXX  4      oc1     O  -1.000
O125     2.265343835   17.980061342    6.665639424 XXX  4      oc1     O  -1.000
O126     8.927548815   12.839382800    2.497285823 XXX  4      oc1     O  -1.000
CA86     4.927763724   16.053866266   14.188262428 XXX  4      ca++    Ca  1.500
O127     7.223467254   12.484169231   14.690603544 XXX  4      oc1     O  -1.000
O128     4.741986604   15.495494874   16.411490014 XXX  4      oc1     O  -1.000
O129    11.375279341   16.967032323   10.409109786 XXX  4      oc1     O  -1.000
CA88     0.535274506   18.951369999   11.013690301 XXX  4      ca++    Ca  1.500
CA89    11.093860660   15.676665455   14.131524535 XXX  4      ca++    Ca  1.500
CA90     5.009858287   19.502845181    8.416972586 XXX  4      ca++    Ca  1.500
CA91     1.699247349   14.027572813   14.136259698 XXX  4      ca++    Ca  1.500
CA92    10.113664332   14.075060732   11.302769185 XXX  4      ca++    Ca  1.500
CA93     1.936672019   14.176835541    8.406468106 XXX  4      ca++    Ca  1.500
SI22     2.074696177   17.759466433    8.232363625 XXX  4      sc1     Si  1.000
SI23     1.883480389   17.686461525   13.520999450 XXX  4      sc1     Si  1.000
SI24    10.177882997   17.469766243   11.291381774 XXX  4      sc1     Si  1.000
O130     3.763404862   14.317163718   13.126847111 XXX  4      oc1     O  -1.000
O131    -0.114462257   13.974027925   12.706955481 XXX  4      oc2     O  -1.500
O132     0.865993526   18.961416596   13.641033344 XXX  4      oc1     O  -1.000
O133     3.374352625   18.008337641   14.233815014 XXX  4      oc1     O  -1.000
O134     1.265228332   18.923622820    8.983436395 XXX  4      oc1     O  -1.000
O135     2.023476170   17.382476627   11.930237161 XXX  4      oc1     O  -1.000
O136    -0.199454518   14.219985336   15.699643585 XXX  4      oc2     O  -1.500
O137     6.257125653   17.771123402    9.911078482 XXX  4      oc5     O  -1.050
O138     9.133089332   16.244205777   17.225939297 XXX  4      oc1     O  -1.000
O139     2.515100995   14.120988245   10.784624993 XXX  4      oc1     O  -1.000
O140     2.498653415   14.240910996   16.217776153 XXX  4      oc1     O  -1.000
O141     4.784063743   15.534979974   11.013784882 XXX  4      oc1     O  -1.000
CA94     0.896496781   15.588688393   11.117868671 XXX  4      ca++    Ca  1.500
CA96     5.190821952   15.960101153    8.662506358 XXX  4      ca++    Ca  1.500
O142     1.169072444   16.399040691   14.159628084 XXX  4      oc1     O  -1.000
O143    11.027658878   17.205279983   15.726807066 XXX  4      oc1     O  -1.000
O144     4.783546974   12.939906020   11.090697748 XXX  4      oc1     O  -1.000
CA97     3.982282666   17.942009025   22.679998283 XXX  4      ca++    Ca  1.500
CA98     1.001137221   16.173367883   22.578516407 XXX  4      ca++    Ca  1.500
CA99     7.218089218   19.923010465   16.799394782 XXX  4      ca++    Ca  1.500
O145     3.014668562   13.001880548   22.777541302 XXX  4      oc1     O  -1.000
O146     1.523409486   14.319489424    0.332993559 XXX  4      oc1     O  -1.000
O147     6.659661692   16.160453999   19.359777739 XXX  4      oc1     O  -1.000
CA101    7.068435708   15.653211910   22.559078083 XXX  4      ca++    Ca  1.500
CA102    2.315777166   -0.038492638   13.962240191 XXX  4      ca++    Ca  1.500
CA103   10.116764373   14.214979246   22.318261889 XXX  4      ca++    Ca  1.500
CA104    6.213976430   13.987093578   19.633997685 XXX  4      ca++    Ca  1.500
CA105    9.973137412   14.014746100   16.845576995 XXX  4      ca++    Ca  1.500
SI25     9.915964464   17.551742970   16.852156971 XXX  4      sc1     Si  1.000
SI26    10.017933135   17.562441934   22.187525130 XXX  4      sc1     Si  1.000
SI27     6.057580141   17.510080879   19.768431063 XXX  4      sc1     Si  1.000
O148    -0.068768642   14.508023194   21.218660337 XXX  4      oc1     O  -1.000
O149     8.200796297   14.191028641   21.023030749 XXX  4      oc2     O  -1.500
O150     9.155360592   18.941381111   22.017323667 XXX  4      oc1     O  -1.000
O151    11.353775448   17.621910995   23.067088029 XXX  4      oc1     O  -1.000
O152    10.508158944   18.236918875   18.170185492 XXX  4      oc1     O  -1.000
O153    10.285587254   16.970418851   20.720302875 XXX  4      oc1     O  -1.000
O154     8.411308216   13.964226510   24.074515638 XXX  4      oc2     O  -1.500
O155     1.951398068   17.909496763   17.800741205 XXX  4      oc5     O  -1.050
O156     6.909855706   16.086149140   -0.324835160 XXX  4      oc1     O  -1.000
O157    -1.564062473   14.239024176   19.010728466 XXX  4      oc1     O  -1.000
O158    -0.793699330   15.567618909    0.364297180 XXX  4      oc1     O  -1.000
O159     0.809313690   15.468305828   19.091369185 XXX  4      oc1     O  -1.000
CA106    9.017460934   15.598660120   19.456365104 XXX  4      ca++    Ca  1.500
CA107    9.055062896   19.461489024   19.750198643 XXX  4      ca++    Ca  1.500
CA108    1.022541868   16.027710536   16.477545896 XXX  4      ca++    Ca  1.500
O160     9.100300353   16.512619596   22.877422679 XXX  4      oc1     O  -1.000
O161     7.148822260   18.752896770   -0.248099451 XXX  4      oc1     O  -1.000
O162     0.612223629   12.846082181   19.399472009 XXX  4      oc1     O  -1.000
end
CA1     23.321183482    1.925204399    2.663571296 XXX  1      ca++    Ca  1.500
CA2     21.375291705    5.113758349    5.587697797 XXX  1      ca++    Ca  1.500
CA4     12.001916353    3.594308903    5.645492689 XXX  1      ca++    Ca  1.500
CA5     20.387140162    3.461930849    2.738326913 XXX  1      ca++    Ca  1.500
SI2     12.301678139    0.334751648    5.465966284 XXX  1      sc1     Si  1.000
SI3     20.221059252    0.271991470    3.008634158 XXX  1      sc1     Si  1.000
O1      14.224585687    3.513447648    4.618734496 XXX  1      oc1     O  -1.000
O2      22.415060540    3.473881468    4.209004135 XXX  1      oc2     O  -1.500
O3      11.395600977    1.406827099    6.232477996 XXX  1      oc1     O  -1.000
O4      13.628740475    0.152395536    6.187767686 XXX  1      oc1     O  -1.000
O6      12.596561302    0.956509874    4.055471601 XXX  1      oc1     O  -1.000
O7      22.523605508    3.561459979    7.116485947 XXX  1      oc2     O  -1.500
O9      20.019069365   -0.808064030    6.755136596 XXX  1      oc1     O  -1.000
O10     12.752432576    3.589746085    2.283978156 XXX  1      oc1     O  -1.000
O11     12.826696074    3.496555952    7.881593449 XXX  1      oc1     O  -1.000
O12     15.086654235    4.883042294    2.458865140 XXX  1      oc1     O  -1.000
CA7     19.217980566    1.977454330   10.861494643 XXX  1      ca++    Ca  1.500
CA8     17.314382771    5.206826466   14.011460454 XXX  1      ca++    Ca  1.500
CA9     23.578077740    1.846166969    8.426782966 XXX  1      ca++    Ca  1.500
CA10    20.153043208    3.595287522   13.945774814 XXX  1      ca++    Ca  1.500
CA11    16.513861162    3.710714427   11.017793775 XXX  1      ca++    Ca  1.500
CA12    20.346204338    3.282705300    8.147502300 XXX  1      ca++    Ca  1.500
SI4     20.363248184   -0.010513515    8.212294548 XXX  1      sc1     Si  1.000
SI5     20.198332361    0.159696252   13.495787583 XXX  1      sc1     Si  1.000
O13     22.247071097    3.400952599   12.929407602 XXX  1      oc1     O  -1.000
O14     18.411814227    3.732491040   12.401842310 XXX  1      oc2     O  -1.500
O15     19.470976834    1.419343708   14.201308246 XXX  1      oc1     O  -1.000
O16     21.622760469    0.045170558   14.193612163 XXX  1      oc1     O  -1.000
O17     20.773612938   -0.961216959    9.396589569 XXX  1      oc1     O  -1.000
O18     20.364674049    0.366795715   11.959095629 XXX  1      oc1     O  -1.000
O19     18.080854609    3.523593124   15.675384096 XXX  1      oc2     O  -1.500
O21     17.599591649   -0.128541798   17.124755539 XXX  1      oc1     O  -1.000
O22     20.935918513    3.266435680   10.470844464 XXX  1      oc1     O  -1.000
O23     20.865849427    3.249225272   16.234786547 XXX  1      oc1     O  -1.000
O24     23.208891616    4.717703751   10.656756818 XXX  1      oc1     O  -1.000
CA13    15.108117934    1.739134061   19.681654644 XXX  1      ca++    Ca  1.500
CA14    13.219538269    5.124903242   22.442591118 XXX  1      ca++    Ca  1.500
CA15    19.058227782    1.539226765   16.457078446 XXX  1      ca++    Ca  1.500
CA16    16.235351508    3.522264708   22.575795653 XXX  1      ca++    Ca  1.500
CA17    12.290903946    3.391207518   19.691376085 XXX  1      ca++    Ca  1.500
CA18    16.083889635    3.472785443   16.934410472 XXX  1      ca++    Ca  1.500
SI7     16.111376801    0.026759779   16.591357909 XXX  1      sc1     Si  1.000
SI8     16.393685480    0.060713257   22.439740710 XXX  1      sc1     Si  1.000
SI9     12.059870828   -0.012603487   19.551005143 XXX  1      sc1     Si  1.000
O25     18.239327866    3.696064277   21.461085624 XXX  1      oc1     O  -1.000
O26     14.275251782    3.419925708   21.063143430 XXX  1      oc2     O  -1.500
O27     15.606357563    1.411511264   22.763589373 XXX  1      oc1     O  -1.000
O28     17.732278091    0.057651243   23.339508988 XXX  1      oc1     O  -1.000
O29     14.998385547    0.304153573   17.753629900 XXX  1      oc1     O  -1.000
O30     16.633717324    0.011331194   20.893182607 XXX  1      oc1     O  -1.000
O31     14.129073558    3.387709260   24.096273855 XXX  1      oc2     O  -1.500
O34     16.861243796    3.356728356   19.131078630 XXX  1      oc1     O  -1.000
O35     16.831856331    3.488834224   -0.418124251 XXX  1      oc1     O  -1.000
O36     19.186765100    4.591813585   19.131951616 XXX  1      oc1     O  -1.000
CA19    23.284000943    9.046953406    2.788441619 XXX  1      ca++    Ca  1.500
CA20    21.292740166   12.173971006    5.723514776 XXX  1      ca++    Ca  1.500
CA22    11.994258169   10.571838075    5.687881822 XXX  1      ca++    Ca  1.500
CA23    20.371911029   10.583920213    2.682345525 XXX  1      ca++    Ca  1.500
SI10    12.159934912    7.065287131    0.059787789 XXX  1      sc1     Si  1.000
SI11    12.197426182    7.006551992    5.521151982 XXX  1      sc1     Si  1.000
SI12    20.277213733    7.083463458    2.991613507 XXX  1      sc1     Si  1.000
O37     14.100178558   10.812985739    4.619479734 XXX  1      oc1     O  -1.000
O38     22.222226897   10.714265198    4.158797815 XXX  1      oc2     O  -1.500
O39     11.485994455    8.375725944    5.143939631 XXX  1      oc1     O  -1.000
O40     13.690305977    7.018994899    4.874373863 XXX  1      oc1     O  -1.000
O41     12.091468905    6.913832087    1.669666955 XXX  1      oc1     O  -1.000
O42     11.331240556    5.792281465    4.988982590 XXX  1      oc1     O  -1.000
O43     22.282670786   10.508356125    7.137278768 XXX  1      oc2     O  -1.500
O44     16.220717639    7.081601941    0.892127835 XXX  1      oc2     O  -1.500
O45     20.849900698    5.635463890    7.983080679 XXX  1      oc1     O  -1.000
O46     12.598998484   10.478820652    2.574661239 XXX  1      oc1     O  -1.000
O47     12.620100584   10.687497442    7.974460877 XXX  1      oc1     O  -1.000
O48     14.869053699   11.705810047    2.389691388 XXX  1      oc1     O  -1.000
CA25    19.147392801    8.995043485   11.073623992 XXX  1      ca++    Ca  1.500
CA26    17.232901566   12.273780009   13.986472199 XXX  1      ca++    Ca  1.500
CA27    23.347749796    8.819483043    8.405692707 XXX  1      ca++    Ca  1.500
CA28    20.065117264   10.370565244   14.303408418 XXX  1      ca++    Ca  1.500
CA29    16.294018153   10.699837463   11.037900028 XXX  1      ca++    Ca  1.500
CA30    20.322131322   10.418140155    8.299091555 XXX  1      ca++    Ca  1.500
SI13    20.269461354    7.110909303    8.405833026 XXX  1      sc1     Si  1.000
SI14    20.394893917    6.873954627   13.869616883 XXX  1      sc1     Si  1.000
SI15    16.387104606    7.164635008   11.170457371 XXX  1      sc1     Si  1.000
O49     22.182861374   10.548286784   13.169324126 XXX  1      oc1     O  -1.000
O50     18.094007850   10.646337080   12.533425115 XXX  1      oc2     O  -1.500
O51     20.821884628    6.237252994   12.448378338 XXX  1      oc1     O  -1.000
O52     19.524218688    8.212222302   13.701143222 XXX  1      oc1     O  -1.000
O53     20.254157973    7.183748138   10.028273511 XXX  1      oc1     O  -1.000
O54     21.775557813    7.091545206   14.728721459 XXX  1      oc1     O  -1.000
O55     18.130489719   10.273178472   15.747530474 XXX  1      oc2     O  -1.500
O56     12.383167340    7.078956659    9.728573732 XXX  1      oc2     O  -1.500
O57     16.130057115    6.946197950   15.116882440 XXX  1      oc1     O  -1.000
O58     20.790873557   10.463887585   10.809786170 XXX  1      oc1     O  -1.000
O59     20.698784301   10.278044692   16.673489175 XXX  1      oc1     O  -1.000
O60     22.895572729   11.879255694   10.942511953 XXX  1      oc1     O  -1.000
CA31    15.184771345    8.967996145   19.474118881 XXX  1      ca++    Ca  1.500
CA32    13.168482355   12.249314216   22.303355340 XXX  1      ca++    Ca  1.500
CA33    19.175018371    8.598846808   17.047532798 XXX  1      ca++    Ca  1.500
CA34    16.147745543   10.662694872   22.551242843 XXX  1      ca++    Ca  1.500
CA35    12.378902777   10.337057357   19.496602131 XXX  1      ca++    Ca  1.500
CA36    16.108197064   10.649416082   16.748377779 XXX  1      ca++    Ca  1.500
SI16    16.199139767    6.909679894   16.780058381 XXX  1      sc1     Si  1.000
SI17    16.176853282    6.970046473   22.153962164 XXX  1      sc1     Si  1.000
SI18    12.199843683    6.995985304   19.907692682 XXX  1      sc1     Si  1.000
O61     18.266975056   10.608070187   21.447860035 XXX  1      oc1     O  -1.000
O62     14.349926614   10.518511660   20.985745623 XXX  1      oc2     O  -1.500
O63     15.514276752    8.340699998   22.767388912 XXX  1      oc1     O  -1.000
O64     17.766187653    6.879149716   22.689006214 XXX  1      oc1     O  -1.000
O65     17.760512125    6.784134384   17.227076821 XXX  1      oc1     O  -1.000
O66     16.223304624    7.017162147   20.548060884 XXX  1      oc1     O  -1.000
O67     13.885357610   10.688240731   24.090855666 XXX  1      oc2     O  -1.500
O68     20.485697569    6.874967692   17.863420375 XXX  1      oc2     O  -1.500
O69     13.109758907    5.938049735   -0.547891220 XXX  1      oc1     O  -1.000
O70     16.803762681   10.613717898   19.221767219 XXX  1      oc1     O  -1.000
O71     16.757105412   10.499807626   -0.523177020 XXX  1      oc1     O  -1.000
O72     19.049688146   11.795790649   19.319599170 XXX  1      oc1     O  -1.000
CA37    23.363415815   16.039131093    2.619333199 XXX  1      ca++    Ca  1.500
CA38    18.725143180   20.676939720    5.234944556 XXX  1      ca++    Ca  1.500
CA40    12.322871344   17.692960373    5.659231326 XXX  1      ca++    Ca  1.500
CA41    20.272524893   17.593461244    2.825719564 XXX  1      ca++    Ca  1.500
CA42    11.861658166   18.212347718   -0.127478481 XXX  1      ca++    Ca  1.500
SI19    12.128044307   14.064550169   -0.069956580 XXX  1      sc1     Si  1.000
SI20    12.230570076   14.180983963    5.384184374 XXX  1      sc1     Si  1.000
SI21    20.301102838   14.007348331    2.992766527 XXX  1      sc1     Si  1.000
O73     13.893453821   17.091978226    4.305710875 XXX  1      oc1     O  -1.000
O74     22.445110377   17.612359014    4.228477300 XXX  1      oc5     O  -1.050
O75     11.382742488   15.484660403    5.950250556 XXX  1      oc1     O  -1.000
O76     13.749346284   14.176214570    5.934480041 XXX  1      oc1     O  -1.000
O77     11.322864703   12.732391412    0.397381650 XXX  1      oc1     O  -1.000
O78     12.217321839   14.121232460    3.744446382 XXX  1      oc1     O  -1.000
O79     22.740141177   18.245905998    7.291534097 XXX  1      oc5     O  -1.050
O80     16.397234133   13.915274236    1.007378222 XXX  1      oc2     O  -1.500
O81     20.935119258   12.716625759    7.914276525 XXX  1      oc1     O  -1.000
O82     12.825859388   17.650693826    1.985088131 XXX  1      oc1     O  -1.000
O83     13.624511328   16.299226245    8.412176754 XXX  1      oc1     O  -1.000
O84     15.148234318   18.782419454    2.812045068 XXX  1      oc1     O  -1.000
CA43    19.721516463   15.919982134   11.439433040 XXX  1      ca++    Ca  1.500
CA44    17.075700638   19.588602053   13.870816456 XXX  1      ca++    Ca  1.500
CA45    23.374373977   15.906737111    8.304630072 XXX  1      ca++    Ca  1.500
CA46    23.100049841   19.193959224   14.228596011 XXX  1      ca++    Ca  1.500
CA47    16.361326401   17.483280788   11.171452629 XXX  1      ca++    Ca  1.500
CA48    20.487041099   17.818988951    8.126779654 XXX  1      ca++    Ca  1.500
SI22    20.328893569   14.117445675    8.406273383 XXX  1      sc1     Si  1.000
SI23    20.111308561   13.908295971   14.077255971 XXX  1      sc1     Si  1.000
SI24    16.251455431   14.127868732   11.320732140 XXX  1      sc1     Si  1.000
O85     22.034427907   16.213340481   12.239542632 XXX  1      oc1     O  -1.000
O86     18.343300321   17.636565064   12.784319492 XXX  1      oc5     O  -1.050
O87     19.201869465   15.054237528   14.542247412 XXX  1      oc1     O  -1.000
O88     21.612218395   14.125047086   14.557300514 XXX  1      oc1     O  -1.000
O89     20.433835207   14.199220625    9.975906738 XXX  1      oc1     O  -1.000
O90     20.105440060   13.853462189   12.435945553 XXX  1      oc1     O  -1.000
O91     18.376508147   17.857511966   15.574836390 XXX  1      oc5     O  -1.050
O92     12.053094876   13.996471299    9.516269695 XXX  1      oc2     O  -1.500
O93     17.008758161   12.868737775   16.166330988 XXX  1      oc1     O  -1.000
O94     21.089205361   17.614828485   10.302585799 XXX  1      oc1     O  -1.000
O95     21.386776047   18.818158937   15.967028208 XXX  1      oc1     O  -1.000
O96     22.725374298   18.747721996   12.077870520 XXX  1      oc1     O  -1.000
CA49    15.353619278   15.737351707   19.509039099 XXX  1      ca++    Ca  1.500
CA51    19.283948452   15.834615385   16.813430781 XXX  1      ca++    Ca  1.500
CA53    12.139477070   17.574067252   19.485767833 XXX  1      ca++    Ca  1.500
CA54    16.268718952   18.083637116   17.043594744 XXX  1      ca++    Ca  1.500
SI25    16.174069982   14.083530146   16.747289839 XXX  1      sc1     Si  1.000
SI26    16.181463921   14.068264823   22.426785899 XXX  1      sc1     Si  1.000
SI27    12.219206319   14.192440934   19.567094876 XXX  1      sc1     Si  1.000
O97     18.292326755   17.567224063   21.488795086 XXX  1      oc1     O  -1.000
O98     14.158094292   17.525602110   21.089113591 XXX  1      oc5     O  -1.050
O99     15.389548899   15.443893477   22.854467677 XXX  1      oc1     O  -1.000
O100    17.650160521   13.971750472   22.992326031 XXX  1      oc1     O  -1.000
O101    16.224466176   13.914120482   18.375629806 XXX  1      oc1     O  -1.000
O102    16.314983141   14.014786292   20.828209137 XXX  1      oc1     O  -1.000
O103    14.105084406   17.688212003   24.354775403 XXX  1      oc5     O  -1.050
O104    20.108483679   13.868133549   17.896121429 XXX  1      oc2     O  -1.500
O105    12.201119925   13.997467253   -1.636471729 XXX  1      oc1     O  -1.000
O106    16.708556820   17.519489139   19.211470923 XXX  1      oc1     O  -1.000
O107    16.745614274   17.218009228   -0.339738613 XXX  1      oc1     O  -1.000
O108    19.174133310   18.625455122   19.166762574 XXX  1      oc1     O  -1.000
H1      22.091537124   18.457196586    3.913391389 XXXX 3      hoc     H   0.300
O1      16.317209717   20.926076091    6.720726837 XXXX 3      oc5     O  -1.050
H2      16.005767345   21.752165441    6.284720589 XXXX 3      hoc     H   0.300
H3      23.223527311   18.765995494    7.904902717 XXXX 3      hoc     H   0.300
O2      19.477851819   20.205887297    7.452635496 XXXX 3      oc5     O  -1.050
H4      20.130557543   20.650351287    7.904574249 XXXX 3      hoc     H   0.300
H5      19.224261528   18.035168934   12.736723571 XXXX 3      hoc     H   0.300
H7      19.035272596   17.904997309   14.932068920 XXXX 3      hoc     H   0.300
O4      19.066484748   20.928123242   14.663941407 XXXX 3      oc5     O  -1.050
H8      18.782431084   21.829027872   14.633634516 XXXX 3      hoc     H   0.300
H9      14.522272684   18.466548866   21.061920039 XXXX 3      hoc     H   0.300
O5      20.830852338   21.049820241   18.329387897 XXXX 3      oc5     O  -1.050
H10     21.007888942   21.974117012   18.514906564 XXXX 3      hoc     H   0.300
H11     14.597950543   18.237131969   24.989800874 XXXX 3      hoc     H   0.300
O6      16.845412610   20.205456627   22.798134987 XXXX 3      oc5     O  -1.050
H12     16.267965631   20.863967222   22.561106629 XXXX 3      hoc     H   0.300
H13     21.540397207   18.440757647    0.510486834 XXXX 3      hoc     H   0.300
O7      16.887656226   21.341351942    3.818441636 XXXX 3      oc5     O  -1.050
H14     16.506481996   22.164673122    3.539897499 XXXX 3      hoc     H   0.300
H15     19.306237549   18.109136423   10.317304197 XXXX 3      hoc     H   0.300
O8      19.774221574   20.130282692    3.033948672 XXXX 3      oc5     O  -1.050
H16     20.439769749   20.649795345    2.639447555 XXXX 3      hoc     H   0.300
H17     13.508697089   18.622396546   17.186120971 XXXX 3      hoc     H   0.300
O9      16.736316769   20.258739266   16.318622374 XXXX 3      oc5     O  -1.050
H18     16.425571156   21.130992982   16.268646446 XXXX 3      hoc     H   0.300
CA1     23.257702984    5.109317598    2.721489174 XXX  4      ca++    Ca  1.500
CA2     21.520438290    1.763803646    5.796909657 XXX  4      ca++    Ca  1.500
O1      11.519898733   -0.962043458    5.384354194 XXX  4      oc1     O  -1.000
O2      21.570348542    0.958424418    7.992110391 XXX  4      oc1     O  -1.000
O3      15.024771916    2.230058704    2.386506493 XXX  4      oc1     O  -1.000
CA4     17.201040384    5.351874345    2.571706550 XXX  4      ca++    Ca  1.500
CA5     15.102225965    1.779435658    5.805350449 XXX  4      ca++    Ca  1.500
CA7     18.251734704    0.003997705    5.683559014 XXX  4      ca++    Ca  1.500
SI1     18.386182845    3.586596214   -0.031139524 XXX  4      sc1     Si  1.000
SI2     18.241310424    3.478311443    5.549296553 XXX  4      sc1     Si  1.000
SI3     14.243812882    3.548838836    2.934303112 XXX  4      sc1     Si  1.000
O4      19.783686993    0.975726635    4.353452183 XXX  4      oc1     O  -1.000
O6      17.642328207    4.844786980    6.181237482 XXX  4      oc1     O  -1.000
O7      19.802294292    3.470665898    5.953561809 XXX  4      oc1     O  -1.000
O8      18.472514184    3.576289415    1.546062267 XXX  4      oc1     O  -1.000
O9      18.064107613    3.633578523    3.951556033 XXX  4      oc1     O  -1.000
O11     22.266815990    3.729840938    1.091355432 XXX  4      oc2     O  -1.500
O12     15.084239027    2.157992694    8.077075195 XXX  4      oc1     O  -1.000
O13     18.911457989   -0.004749070    2.151589203 XXX  4      oc1     O  -1.000
O14     19.298008834    0.995023188    8.746953988 XXX  4      oc1     O  -1.000
O15     21.120800432    1.387919817    2.255721831 XXX  4      oc1     O  -1.000
CA10    17.482376910    1.777370325    2.661893420 XXX  4      ca++    Ca  1.500
CA11    15.420347924    5.352694379    5.680834632 XXX  4      ca++    Ca  1.500
O16     17.430419396    2.199506680    6.119460134 XXX  4      oc1     O  -1.000
O17     15.105891486    4.771714357    7.891846116 XXX  4      oc1     O  -1.000
O18     21.032049015   -1.039004307    3.360280906 XXX  4      oc1     O  -1.000
CA13    19.478938270    5.104660693   10.832101817 XXX  4      ca++    Ca  1.500
CA14    17.276154985    2.105774787   13.873432880 XXX  4      ca++    Ca  1.500
CA15    23.316895782    5.474191135    8.330879060 XXX  4      ca++    Ca  1.500
O19     19.379653023   -1.174744399   13.683930594 XXX  4      oc1     O  -1.000
O20     16.052839785    1.364792586   15.689675057 XXX  4      oc1     O  -1.000
O21     23.294279851    1.974960375   10.876008423 XXX  4      oc1     O  -1.000
CA16    13.244242070    5.514069912   11.265030888 XXX  4      ca++    Ca  1.500
CA17    23.333926379    1.534751971   13.755721877 XXX  4      ca++    Ca  1.500
CA18    17.286146996    5.567796521    8.291211286 XXX  4      ca++    Ca  1.500
SI4     14.333125427    3.541629895    8.466610197 XXX  4      sc1     Si  1.000
SI5     14.211707519    3.475141087   13.808729050 XXX  4      sc1     Si  1.000
SI6     22.402452385    3.322922679   11.209850750 XXX  4      sc1     Si  1.000
O24     14.279656733    3.432023713   15.455045857 XXX  4      oc1     O  -1.000
O25     15.732364098    3.635144013   13.283441622 XXX  4      oc1     O  -1.000
O26     14.395131652    3.559819762   10.107617894 XXX  4      oc1     O  -1.000
O27     13.429745226    4.759576053   13.354692043 XXX  4      oc1     O  -1.000
O29     18.263284586    3.625938087    9.435872764 XXX  4      oc2     O  -1.500
O30     23.158640242    2.080969078   15.960411593 XXX  4      oc1     O  -1.000
O32     15.644895676   -1.218302960   15.674766662 XXX  4      oc1     O  -1.000
CA22    13.380674341    1.690713597   10.940610445 XXX  4      ca++    Ca  1.500
CA23    23.517178834    5.355235595   13.984419837 XXX  4      ca++    Ca  1.500
CA24    17.344437279    1.760216150    8.395907765 XXX  4      ca++    Ca  1.500
O34     13.531876709    2.176738301   13.260351934 XXX  4      oc1     O  -1.000
O35     23.120863170    4.671775765   16.265907418 XXX  4      oc1     O  -1.000
CA25    15.081112213    5.133224941   19.550085555 XXX  4      ca++    Ca  1.500
CA26    13.340355812    1.879344579   22.509639771 XXX  4      ca++    Ca  1.500
CA27    19.358993897    5.096765053   16.718113953 XXX  4      ca++    Ca  1.500
O37     15.407996868   -1.162352535   22.747698141 XXX  4      oc1     O  -1.000
O39     19.056997384    1.957167801   19.648089779 XXX  4      oc1     O  -1.000
CA28    21.324351453    5.248163627   19.504233527 XXX  4      ca++    Ca  1.500
CA29    19.329046843    1.448319692   22.452941724 XXX  4      ca++    Ca  1.500
CA30    13.109021273    5.005538042   16.906137094 XXX  4      ca++    Ca  1.500
SI7     22.415349049    3.253396658   16.685557680 XXX  4      sc1     Si  1.000
SI8     22.311680585    3.390954068   22.358240625 XXX  4      sc1     Si  1.000
SI9     18.335785628    3.377370288   19.845921533 XXX  4      sc1     Si  1.000
O40     12.849562447    1.234124031   20.118038771 XXX  4      oc1     O  -1.000
O42     21.561311071    4.572549959   23.121846039 XXX  4      oc1     O  -1.000
O43     23.802007750    3.408706264   22.873024919 XXX  4      oc1     O  -1.000
O44     22.690215403    3.166673565   18.246941768 XXX  4      oc1     O  -1.000
O45     22.317101785    3.600334218   20.772245483 XXX  4      oc1     O  -1.000
O47     14.115678952    3.297904266   18.182317329 XXX  4      oc2     O  -1.500
O48     19.328232373    2.420819576   -0.572758183 XXX  4      oc1     O  -1.000
O49     10.493531704    0.001389793   20.176751738 XXX  4      oc1     O  -1.000
O51     11.933883667    0.107542003   17.967820665 XXX  4      oc1     O  -1.000
CA34    21.525399606    1.678012591   19.526507636 XXX  4      ca++    Ca  1.500
CA35    19.450914258    5.340280781   22.497769661 XXX  4      ca++    Ca  1.500
CA36    13.315282449    1.626461451   16.836727980 XXX  4      ca++    Ca  1.500
O52     21.594578723    1.905499444   22.678436521 XXX  4      oc1     O  -1.000
O53     19.003642482    5.015231618   -0.498651235 XXX  4      oc1     O  -1.000
O54     12.851286547   -1.332539550   19.859823366 XXX  4      oc1     O  -1.000
CA37    23.235952441   12.188035208    2.641975294 XXX  4      ca++    Ca  1.500
CA38    21.424896366    8.948660922    5.581936418 XXX  4      ca++    Ca  1.500
O55     12.300021588    6.846745828    7.064867673 XXX  4      oc1     O  -1.000
O56     21.178476636    8.202933012    7.787844766 XXX  4      oc1     O  -1.000
O57     14.831479725    9.164814481    2.730510781 XXX  4      oc1     O  -1.000
CA40    17.103024324   12.254926308    2.684395293 XXX  4      ca++    Ca  1.500
CA41    15.303219785    8.641694703    5.431723567 XXX  4      ca++    Ca  1.500
CA43    18.057272648    7.045970215    5.593673559 XXX  4      ca++    Ca  1.500
CA44    14.262518140    6.938419857    2.659999774 XXX  4      ca++    Ca  1.500
SI10    18.252697695   10.547873048   -0.073353245 XXX  4      sc1     Si  1.000
SI11    18.239119620   10.616644360    5.572108676 XXX  4      sc1     Si  1.000
SI12    14.087816997   10.525236501    3.063044604 XXX  4      sc1     Si  1.000
O58     20.325542572    7.028318693    4.639026676 XXX  4      oc1     O  -1.000
O59     16.430153374    7.040801792    4.000357325 XXX  4      oc2     O  -1.500
O60     17.487154951   11.891640492    6.245898946 XXX  4      oc1     O  -1.000
O61     19.750856732   10.429115146    6.116253453 XXX  4      oc1     O  -1.000
O62     18.317541555   10.425198637    1.528438667 XXX  4      oc1     O  -1.000
O63     18.271864265   10.920609205    3.976953122 XXX  4      oc1     O  -1.000
O64     16.116435397    7.098884737    7.029321164 XXX  4      oc2     O  -1.500
O65     22.339400189   10.494401895    1.184822545 XXX  4      oc2     O  -1.500
O66     14.803812124    9.349251535    7.752817913 XXX  4      oc1     O  -1.000
O67     18.762225327    7.127401094    2.355319887 XXX  4      oc1     O  -1.000
O68     18.772953250    7.289580718    7.792206199 XXX  4      oc1     O  -1.000
O69     20.994348322    8.434362677    2.562584278 XXX  4      oc1     O  -1.000
CA46    17.091504319    8.715802505    2.539517427 XXX  4      ca++    Ca  1.500
CA47    15.183761119   12.592865266    5.791451573 XXX  4      ca++    Ca  1.500
O70     17.422007893    9.365262515    5.841179133 XXX  4      oc1     O  -1.000
O71     14.939137523   11.934835752    8.015832365 XXX  4      oc1     O  -1.000
O72     21.109973559    5.816515813    2.422918403 XXX  4      oc1     O  -1.000
CA49    19.240396127   12.241434106   11.191628548 XXX  4      ca++    Ca  1.500
CA50    17.356825097    8.869942245   13.955594290 XXX  4      ca++    Ca  1.500
CA51    23.198504783   12.284914587    8.434807309 XXX  4      ca++    Ca  1.500
O73     19.484006346    5.777083121   14.557100221 XXX  4      oc1     O  -1.000
O74     15.644788429    8.335637010   17.264219713 XXX  4      oc1     O  -1.000
O75     23.119012824    9.312663118   10.952465362 XXX  4      oc1     O  -1.000
CA52    12.964619554   12.294463372   11.149680326 XXX  4      ca++    Ca  1.500
CA53    23.297474146    8.700677465   14.123678426 XXX  4      ca++    Ca  1.500
CA54    17.175824979   12.617449666    8.415558193 XXX  4      ca++    Ca  1.500
CA55    14.242926775    7.061173734   14.026839366 XXX  4      ca++    Ca  1.500
CA56    22.394343993    7.129630579   11.094667957 XXX  4      ca++    Ca  1.500
CA57    14.236870187    7.104236976    8.369100537 XXX  4      ca++    Ca  1.500
SI13    14.173824381   10.636362980    8.412638673 XXX  4      sc1     Si  1.000
SI14    14.162561712   10.613872275   13.954053870 XXX  4      sc1     Si  1.000
SI15    22.227662700   10.531014459   11.487836625 XXX  4      sc1     Si  1.000
O76     16.338147351    7.226846908   12.748063795 XXX  4      oc1     O  -1.000
O77     12.247284535    7.153881348   12.563126363 XXX  4      oc2     O  -1.500
O78     13.326015306   11.826732230   14.657510350 XXX  4      oc1     O  -1.000
O79     15.671896924   10.602119832   14.436508482 XXX  4      oc1     O  -1.000
O80     14.220934992   10.465064682    9.975273794 XXX  4      oc1     O  -1.000
O81     14.073680341   10.810328257   12.355830736 XXX  4      oc1     O  -1.000
O82     12.539782018    6.834426461   15.665395297 XXX  4      oc2     O  -1.500
O83     18.265645755   10.657541343    9.463479482 XXX  4      oc2     O  -1.500
O84     23.130480460    9.218386479   16.432166011 XXX  4      oc1     O  -1.000
O85     14.910562277    7.078397887   10.640181667 XXX  4      oc1     O  -1.000
O86     15.298254237    5.712827580   17.362178922 XXX  4      oc1     O  -1.000
O87     16.945998440    8.593967419   10.603969671 XXX  4      oc1     O  -1.000
CA58    13.281906920    8.665664312   11.180941138 XXX  4      ca++    Ca  1.500
CA59    23.217126453   12.493246617   14.253251751 XXX  4      ca++    Ca  1.500
CA60    17.129085025    8.925474947    8.218794554 XXX  4      ca++    Ca  1.500
O88     13.515675983    9.188397044   14.443790841 XXX  4      oc1     O  -1.000
O89     22.798971232   11.806451373   16.504407014 XXX  4      oc1     O  -1.000
O90     17.224196022    5.907936245   10.638384020 XXX  4      oc1     O  -1.000
CA61    15.277514264   12.139425794   19.592658211 XXX  4      ca++    Ca  1.500
CA62    13.233313040    8.967490993   22.716223840 XXX  4      ca++    Ca  1.500
CA63    19.141740447   12.021671680   16.878999267 XXX  4      ca++    Ca  1.500
O91     15.407530680    5.670762199   22.679333422 XXX  4      oc1     O  -1.000
O92     12.867383527    8.447155501   -0.262172317 XXX  4      oc1     O  -1.000
O93     19.033746783    9.060609822   19.385084091 XXX  4      oc1     O  -1.000
CA64    21.288838993   12.440597070   19.657805827 XXX  4      ca++    Ca  1.500
CA65    19.476158097    8.546554912   22.303723875 XXX  4      ca++    Ca  1.500
CA66    13.048153225   12.339293145   16.816371319 XXX  4      ca++    Ca  1.500
CA67    22.326998989    6.932707231   22.478685985 XXX  4      ca++    Ca  1.500
CA68    18.490870461    6.787218698   19.701319634 XXX  4      ca++    Ca  1.500
CA69    22.567023095    6.900598548   16.771926225 XXX  4      ca++    Ca  1.500
SI16    22.283528177   10.392226713   17.061844623 XXX  4      sc1     Si  1.000
SI17    22.431166540   10.425369666   22.323612114 XXX  4      sc1     Si  1.000
SI18    18.302419235   10.496387390   19.875774333 XXX  4      sc1     Si  1.000
O94     12.301494154    7.120548339   21.574291324 XXX  4      oc1     O  -1.000
O95     20.351014534    6.776269125   20.934025948 XXX  4      oc2     O  -1.500
O96     21.655128927   11.798902176   21.890830152 XXX  4      oc1     O  -1.000
O97     23.898497630   10.441245432   21.787447169 XXX  4      oc1     O  -1.000
O98     22.465070458   10.290873899   18.598806955 XXX  4      oc1     O  -1.000
O99     21.639709163    9.134369249   21.697504619 XXX  4      oc1     O  -1.000
O100    20.411559156    7.208463899   23.895564554 XXX  4      oc2     O  -1.500
O101    14.084230080   10.542217816   17.875002135 XXX  4      oc2     O  -1.500
O102    18.986429924    9.336985458   -0.731581201 XXX  4      oc1     O  -1.000
O103    10.697318813    7.080318037   19.450269933 XXX  4      oc1     O  -1.000
O104    10.724488388    7.042275374   -0.595846047 XXX  4      oc1     O  -1.000
O105    13.049388675    8.164146704   19.196694097 XXX  4      oc1     O  -1.000
CA70    21.320155866    8.477431789   19.538405944 XXX  4      ca++    Ca  1.500
CA71    19.373952808   12.523514641   22.476752328 XXX  4      ca++    Ca  1.500
CA72    13.300479122    8.694086768   16.677976850 XXX  4      ca++    Ca  1.500
O106    22.456740659   10.336410725   23.873089117 XXX  4      oc1     O  -1.000
O107    18.944559727   11.947607129   -0.492705146 XXX  4      oc1     O  -1.000
O108    12.837178881    5.589938170   19.413109115 XXX  4      oc1     O  -1.000
CA74    21.384027856   15.836061932    5.467901432 XXX  4      ca++    Ca  1.500
O109    11.458263315   12.845841755    5.935486664 XXX  4      oc1     O  -1.000
O110    21.155567799   15.440051303    7.695152243 XXX  4      oc1     O  -1.000
O111    15.081519012   16.252283099    2.267885790 XXX  4      oc1     O  -1.000
CA76    15.405898886   19.421346132    5.072201182 XXX  4      ca++    Ca  1.500
CA77    15.315388975   15.744021484    5.628410196 XXX  4      ca++    Ca  1.500
CA79    18.075937780   14.010433936    5.611406050 XXX  4      ca++    Ca  1.500
CA80    14.339857808   13.972403270    2.666531456 XXX  4      ca++    Ca  1.500
SI19    18.256001902   17.424950443    0.095360656 XXX  4      sc1     Si  1.000
SI20    18.302673831   17.370110637    5.549975531 XXX  4      sc1     Si  1.000
SI21    14.266665532   17.421671115    2.828805102 XXX  4      sc1     Si  1.000
O112    20.244588391   13.823837747    4.584602990 XXX  4      oc1     O  -1.000
O113    16.104836902   13.890079586    4.104475106 XXX  4      oc2     O  -1.500
O114    19.811954866   17.349259362    5.117989851 XXX  4      oc1     O  -1.000
O115    18.180613224   17.503726091    7.078808362 XXX  4      oc1     O  -1.000
O116    18.290782822   17.376745875    1.715652245 XXX  4      oc1     O  -1.000
O117    17.514404999   16.124192823    5.016290526 XXX  4      oc1     O  -1.000
O118    16.070573366   14.335279501    7.294641641 XXX  4      oc2     O  -1.500
O119    21.938868549   17.841304231    1.134878567 XXX  4      oc5     O  -1.050
O120    15.884471566   17.640433761    8.776211686 XXX  4      oc1     O  -1.000
O121    18.834254968   14.068165186    2.426373235 XXX  4      oc1     O  -1.000
O122    18.781999281   14.260956327    7.914598018 XXX  4      oc1     O  -1.000
O123    21.078146113   15.434155230    2.648936201 XXX  4      oc1     O  -1.000
CA82    17.156733078   15.502225219    2.738760869 XXX  4      ca++    Ca  1.500
O124    17.621352215   18.744486520    4.941285669 XXX  4      oc1     O  -1.000
O125    14.258340169   18.264666740    6.658903297 XXX  4      oc1     O  -1.000
O126    21.068287434   12.789416454    2.265270798 XXX  4      oc1     O  -1.000
CA86    17.169207668   16.045369681   14.130949372 XXX  4      ca++    Ca  1.500
O127    19.541447029   12.523136692   14.712090300 XXX  4      oc1     O  -1.000
O128    16.891188623   15.506351121   16.404879990 XXX  4      oc1     O  -1.000
O129    23.646012240   16.951201250   10.352475838 XXX  4      oc1     O  -1.000
CA88    13.144027029   19.181772472   11.290570369 XXX  4      ca++    Ca  1.500
CA89    23.198474550   15.819605196   14.141153197 XXX  4      ca++    Ca  1.500
CA90    17.277228388   19.336663766    8.267135135 XXX  4      ca++    Ca  1.500
CA91    13.910754719   14.038163907   14.143400547 XXX  4      ca++    Ca  1.500
CA92    22.372641984   13.980330678   11.313300031 XXX  4      ca++    Ca  1.500
CA93    14.145149684   14.004747491    8.458433100 XXX  4      ca++    Ca  1.500
SI22    14.339654055   17.750163946    8.205986747 XXX  4      sc1     Si  1.000
SI23    14.110689677   17.476377120   13.584532669 XXX  4      sc1     Si  1.000
SI24    22.368252657   17.422647324   11.260806302 XXX  4      sc1     Si  1.000
O130    16.171921009   14.126561938   12.943374844 XXX  4      oc1     O  -1.000
O131    12.005882453   13.994851817   12.566029962 XXX  4      oc2     O  -1.500
O132    13.108444001   18.752396917   13.576596752 XXX  4      oc1     O  -1.000
O133    15.599793773   17.816163355   14.180436015 XXX  4      oc1     O  -1.000
O134    13.654481862   18.825356478    9.157994956 XXX  4      oc1     O  -1.000
O135    14.387735053   17.062471345   12.020974852 XXX  4      oc1     O  -1.000
O136    11.986674752   14.081403760   15.645249838 XXX  4      oc2     O  -1.500
O137    18.581064769   17.687849119    9.898526064 XXX  4      oc5     O  -1.050
O138    21.445648317   16.338495346   17.091440828 XXX  4      oc1     O  -1.000
O139    14.736160695   14.030792807   10.807938794 XXX  4      oc1     O  -1.000
O140    14.627177296   14.059545707   16.346475782 XXX  4      oc1     O  -1.000
O141    16.960379374   15.439787479   10.778516136 XXX  4      oc1     O  -1.000
CA94    13.048038472   15.508567516   10.939354448 XXX  4      ca++    Ca  1.500
CA96    17.255450015   15.854015865    8.576635962 XXX  4      ca++    Ca  1.500
O142    13.450184962   16.264014598   14.303365758 XXX  4      oc1     O  -1.000
O143    23.504218997   17.309249991   15.906475594 XXX  4      oc1     O  -1.000
O144    17.060767288   12.857872729   10.796108449 XXX  4      oc1     O  -1.000
CA97    16.160845651   17.760115787   22.811669734 XXX  4      ca++    Ca  1.500
CA98    13.041615706   15.995751693   22.721181344 XXX  4      ca++    Ca  1.500
CA99    19.533069289   19.705306707   16.768584383 XXX  4      ca++    Ca  1.500
O145    15.310131864   12.840062675   22.853525713 XXX  4      oc1     O  -1.000
O146    13.618145298   14.077066769    0.445716354 XXX  4      oc1     O  -1.000
O147    18.871156647   16.131225027   19.315476888 XXX  4      oc1     O  -1.000
CA101   19.325534560   15.663324749   22.531362137 XXX  4      ca++    Ca  1.500
CA102   14.433597630    0.249139090   13.974134053 XXX  4      ca++    Ca  1.500
CA103   22.277993392   14.201287458   22.368847922 XXX  4      ca++    Ca  1.500
CA104   18.319668329   13.952711761   19.404042590 XXX  4      ca++    Ca  1.500
CA105   22.162904857   14.006065137   16.874851437 XXX  4      ca++    Ca  1.500
SI25    22.277479109   17.668530363   16.808395251 XXX  4      sc1     Si  1.000
SI26    22.328146433   17.687493300   22.223973928 XXX  4      sc1     Si  1.000
SI27    18.219898493   17.440364846   19.828966601 XXX  4      sc1     Si  1.000
O148    12.150132233   14.405317176   21.175624644 XXX  4      oc1     O  -1.000
O149    20.286037496   14.121360095   21.017763485 XXX  4      oc2     O  -1.500
O150    21.415019857   19.035421230   22.247948401 XXX  4      oc1     O  -1.000
O151    23.661589101   17.746878766   23.109561450 XXX  4      oc1     O  -1.000
O152    22.788633563   18.285000342   18.252700377 XXX  4      oc1     O  -1.000
O153    22.687123688   17.433922121   20.679783696 XXX  4      oc1     O  -1.000
O154    20.592588693   13.932466730   24.070729499 XXX  4      oc2     O  -1.500
O155    13.783847278   17.858552968   17.678823266 XXX  4      oc5     O  -1.050
O156    19.149033443   16.199537701   -0.432049926 XXX  4      oc1     O  -1.000
O157    10.746494284   14.008801209   19.014866601 XXX  4      oc1     O  -1.000
O158    11.384287183   15.392859979    0.407792402 XXX  4      oc1     O  -1.000
O159    12.996493468   15.410281064   18.875907873 XXX  4      oc1     O  -1.000
CA106   21.197187749   15.715640783   19.449325806 XXX  4      ca++    Ca  1.500
CA107   21.249820169   19.279692306   19.789878625 XXX  4      ca++    Ca  1.500
CA108   13.040382149   15.827970409   16.615926471 XXX  4      ca++    Ca  1.500
O160    21.522198691   16.441810594   22.803516796 XXX  4      oc1     O  -1.000
O161    18.793142244   18.780487518   -0.380665596 XXX  4      oc1     O  -1.000
O162    13.009131664   12.837058285   19.253557270 XXX  4      oc1     O  -1.000
end
CA3      3.103044423    1.716511661   25.219667093 XXX  1      ca++    Ca  1.500
CA6     -0.123354021    3.558383569   25.259679897 XXX  1      ca++    Ca  1.500
CA21     3.000205889    9.057533587   25.092169427 XXX  1      ca++    Ca  1.500
CA24    -0.093354567   10.491415694   25.244640625 XXX  1      ca++    Ca  1.500
CA39     3.291083782   15.928430136   25.224486655 XXX  1      ca++    Ca  1.500
CA3      2.969193631    5.156331257   25.176202067 XXX  4      ca++    Ca  1.500
CA6      8.958491464    5.400570554   25.130691364 XXX  4      ca++    Ca  1.500
CA12     9.171366791    1.873326867   25.176246230 XXX  4      ca++    Ca  1.500
CA39     2.962932755   12.502657977   25.104448512 XXX  4      ca++    Ca  1.500
CA42     9.201147123   12.173335989   25.296074853 XXX  4      ca++    Ca  1.500
CA45     6.045706213    7.124867662   24.983753052 XXX  4      ca++    Ca  1.500
CA48     9.067564781    8.660053474   25.053379625 XXX  4      ca++    Ca  1.500
CA78     7.057261105   19.383700476   22.899218392 XXX  4      ca++    Ca  1.500
CA81     6.367444636   13.847832016   25.308071015 XXX  4      ca++    Ca  1.500
CA84     9.189895124   15.944728266   25.160818494 XXX  4      ca++    Ca  1.500
end
CA3     15.371423660    1.792268439   25.221039348 XXX  1      ca++    Ca  1.500
CA6     12.165666647    3.562056063   25.328130036 XXX  1      ca++    Ca  1.500
CA21    15.050897097    8.955500826   25.196140753 XXX  1      ca++    Ca  1.500
CA24    11.834692329   10.490904273   25.380547697 XXX  1      ca++    Ca  1.500
CA39    15.295199726   15.614964768   25.199437149 XXX  1      ca++    Ca  1.500
CA3     15.206466205    5.181199955   25.175753021 XXX  4      ca++    Ca  1.500
CA6     21.245648465    5.467304065   25.295415496 XXX  4      ca++    Ca  1.500
CA12    21.447427503    1.738544805   25.262355234 XXX  4      ca++    Ca  1.500
CA39    15.104742900   12.265177658   25.159071482 XXX  4      ca++    Ca  1.500
CA42    21.391963353   12.168354017   25.249057818 XXX  4      ca++    Ca  1.500
CA45    18.281525552    7.148888882   25.042795985 XXX  4      ca++    Ca  1.500
CA48    21.234375681    8.803169580   25.174129858 XXX  4      ca++    Ca  1.500
CA78    19.106352610   19.452236858   22.924090209 XXX  4      ca++    Ca  1.500
CA81    18.511346972   14.040562875   25.345521073 XXX  4      ca++    Ca  1.500
CA84    21.347422060   15.881420042   25.180312675 XXX  4      ca++    Ca  1.500
end
CA4     24.331034966    3.649211188    5.669511452 XXX  1      ca++    Ca  1.500
SI9     24.200682694    0.020866707   19.614828494 XXX  1      sc1     Si  1.000
CA22    24.131156902   10.607847923    5.633582081 XXX  1      ca++    Ca  1.500
CA42    24.105538676   18.108071071   -0.021664670 XXX  1      ca++    Ca  1.500
O40     25.109355260    1.154410458   20.265070902 XXX  4      oc1     O  -1.000
O49     22.759427325   -0.045772120   20.404823876 XXX  4      oc1     O  -1.000
O51     23.956136235    0.273989746   18.062986311 XXX  4      oc1     O  -1.000
O54     24.931084553   -1.378181597   19.712549113 XXX  4      oc1     O  -1.000
end
SI1      0.007923108   -0.000323385   25.140848504 XXX  1      sc1     Si  1.000
O5      -0.724345868   -1.256735488   25.690533229 XXX  1      oc1     O  -1.000
O33     -0.015702678   -0.094667279   23.517123589 XXX  1      oc1     O  -1.000
O1       8.009858514   -2.721568757   24.827833130 XXXX 2      oc5     O  -1.050
H2       7.417659402   -3.426577223   24.527509460 XXXX 2      hoc     H   0.300
CA9      6.198496522   -1.214262353   25.306424217 XXX  4      ca++    Ca  1.500
O38      1.545786615    0.054054974   25.691872445 XXX  4      oc1     O  -1.000
O50     -0.750212160    1.337428938   25.610482606 XXX  4      oc1     O  -1.000
CA75     2.698152247   -1.745018489   25.001197998 XXX  4      ca++    Ca  1.500
end
SI1     12.253467630    0.091255445   25.081999750 XXX  1      sc1     Si  1.000
O5      11.529492001   -1.246565781   25.520248451 XXX  1      oc1     O  -1.000
O33     12.219134106    0.207524846   23.473349217 XXX  1      oc1     O  -1.000
O1      20.265939138   -2.698404025   25.802277418 XXXX 2      oc5     O  -1.050
H2      19.946080975   -3.549236678   25.555427122 XXXX 2      hoc     H   0.300
CA9     18.526946749   -1.012237427   25.333891227 XXX  4      ca++    Ca  1.500
O38     13.791801887    0.089576780   25.714324905 XXX  4      oc1     O  -1.000
O50     11.447993460    1.350328231   25.650451841 XXX  4      oc1     O  -1.000
CA75    14.960472089   -1.535554699   24.921543069 XXX  4      ca++    Ca  1.500
end
O8       4.242755532   -0.078831228    1.182456630 XXX  1      oc5     O  -1.050
SI6      4.288255789   -0.038581614   11.512137689 XXX  1      sc1     Si  1.000
O20      0.528912663   -0.101546299    9.401298313 XXX  1      oc5     O  -1.050
O32      8.502450549   -0.061764066   18.005231378 XXX  1      oc5     O  -1.050
CA50     2.195468714   -2.214041160   20.983883125 XXX  1      ca++    Ca  1.500
H1       4.822512752   -0.476793045    1.878220789 XXXX 2      hoc     H   0.300
H3       1.196830204   -0.410205213   10.060711810 XXXX 2      hoc     H   0.300
O2       1.910541031   -3.525044711    6.305613095 XXXX 2      oc5     O  -1.050
H4       2.744487813   -4.034508465    6.322000474 XXXX 2      hoc     H   0.300
H5       8.907969373   -0.386435770   18.820030553 XXXX 2      hoc     H   0.300
H7       3.634142392   -0.433913646    4.780529410 XXXX 2      hoc     H   0.300
O4      14.617212325   -1.991547176    3.615948876 XXXX 2      oc5     O  -1.050
H8      15.256058182   -2.590752446    3.216517502 XXXX 2      hoc     H   0.300
H9       4.607386629   -0.805681016    7.773408323 XXXX 2      hoc     H   0.300
O5      10.928318100   -3.683051704    4.526507713 XXXX 2      oc5     O  -1.050
H10     10.656057187   -4.553020822    4.262831118 XXXX 2      hoc     H   0.300
H11      0.778697237   -0.683644548   11.748318754 XXXX 2      hoc     H   0.300
O6       9.244653654   -2.815303876   11.773825554 XXXX 2      oc5     O  -1.050
H12      9.488727341   -3.509277407   11.152168433 XXXX 2      hoc     H   0.300
O7       6.769422449   -3.955642734   14.814859990 XXXX 2      oc5     O  -1.050
H14      6.468746571   -4.884355790   14.967411205 XXXX 2      hoc     H   0.300
H15      8.878083036   -0.422356722   20.472467447 XXXX 2      hoc     H   0.300
O8       2.636398061   -3.377105628   18.885559675 XXXX 2      oc5     O  -1.050
H16      3.176783379   -4.111237730   18.571049865 XXXX 2      hoc     H   0.300
H17      8.385641665   -1.168581766   24.131597152 XXXX 2      hoc     H   0.300
O9       4.543792320   -3.126218109   25.473677864 XXXX 2      oc5     O  -1.050
H18      4.721530534   -4.043616966   25.603464652 XXXX 2      hoc     H   0.300
CA8      2.204829475   -0.032339860    2.639813652 XXX  4      ca++    Ca  1.500
O5       4.163258608    0.119586671    4.217268436 XXX  4      oc5     O  -1.050
O10      4.035126548   -0.341667506    7.142187426 XXX  4      oc5     O  -1.050
CA19     5.543833519   -1.734274319   14.562301064 XXX  4      ca++    Ca  1.500
CA20    10.318859939   -0.518707814   11.037338475 XXX  4      ca++    Ca  1.500
CA21     1.835959742   -1.367909969    7.617707446 XXX  4      ca++    Ca  1.500
O22      4.532363656   -0.095214465   13.123641024 XXX  4      oc1     O  -1.000
O23      0.120713726   -0.311947704   12.360736993 XXX  4      oc5     O  -1.050
O31      2.695541831   -0.111306954   11.288237738 XXX  4      oc1     O  -1.000
O33      4.780811773    1.348303960   10.824477496 XXX  4      oc1     O  -1.000
O36      5.043922229   -1.316257923   10.873382831 XXX  4      oc1     O  -1.000
CA31    10.214432101   -0.271164689   22.384388981 XXX  4      ca++    Ca  1.500
CA32     6.106952680   -0.177139554   19.508853988 XXX  4      ca++    Ca  1.500
CA33    10.341302875   -0.126114850   16.415648707 XXX  4      ca++    Ca  1.500
O41      8.109737501   -0.110539098   20.931359386 XXX  4      oc5     O  -1.050
O46      8.539921533   -0.214751103   24.134389558 XXX  4      oc5     O  -1.050
CA73     9.673174047   -1.984165458    1.035071556 XXX  4      ca++    Ca  1.500
CA83     0.681230128   -2.968457729    4.213704908 XXX  4      ca++    Ca  1.500
CA85     7.214300259   -1.542442541   10.801435897 XXX  4      ca++    Ca  1.500
CA87     9.442939469   -1.615903681    5.166394528 XXX  4      ca++    Ca  1.500
CA95     8.981253528   -3.136437165   14.235726898 XXX  4      ca++    Ca  1.500
CA100   13.643478626   -1.694279452   17.547044704 XXX  4      ca++    Ca  1.500
end
O8      16.354209115   -0.111111661    1.231109235 XXX  1      oc5     O  -1.050
SI6     16.391111687   -0.077730539   11.373492977 XXX  1      sc1     Si  1.000
O20     12.177968708    0.080930666    9.424971504 XXX  1      oc5     O  -1.050
O32     20.360122773   -0.031417409   17.753050423 XXX  1      oc5     O  -1.050
CA50    14.655426596   -1.908306009   20.906107196 XXX  1      ca++    Ca  1.500
H1      16.965805304   -0.585366682    1.799571017 XXXX 2      hoc     H   0.300
H3      11.913095135   -0.419413911    8.657238795 XXXX 2      hoc     H   0.300
O2      13.166642843   -2.739869206    7.709888245 XXXX 2      oc5     O  -1.050
H4      12.957400445   -3.449322400    8.308372314 XXXX 2      hoc     H   0.300
H5      20.691223296   -0.861424917   18.097925310 XXXX 2      hoc     H   0.300
O3      10.571133072   -2.543075154   16.060962565 XXXX 2      oc5     O  -1.050
H6      10.294459009   -3.064443973   16.815928117 XXXX 2      hoc     H   0.300
H7      16.120340922   -0.630779286    4.090112757 XXXX 2      hoc     H   0.300
H9      16.686580457   -1.353762082    8.050195360 XXXX 2      hoc     H   0.300
O5      22.621444732   -3.596886592    3.795626610 XXXX 2      oc5     O  -1.050
H10     22.269688816   -4.468866025    4.032630162 XXXX 2      hoc     H   0.300
H11     12.863715620   -0.913113311   11.887842312 XXXX 2      hoc     H   0.300
O6      21.258298587   -2.878681523   11.822205012 XXXX 2      oc5     O  -1.050
H12     21.728071291   -3.371779155   11.161890331 XXXX 2      hoc     H   0.300
H13     12.266384218   -1.226054593   14.991115042 XXXX 2      hoc     H   0.300
O7      18.741539846   -3.880780176   14.711802676 XXXX 2      oc5     O  -1.050
H14     18.666735207   -4.669696118   15.204133337 XXXX 2      hoc     H   0.300
H15     21.044886924   -0.601154878   20.441386726 XXXX 2      hoc     H   0.300
O8      15.312954394   -2.994497396   18.843607303 XXXX 2      oc5     O  -1.050
H16     15.795349501   -3.772707622   18.551730090 XXXX 2      hoc     H   0.300
H17     20.790800990   -1.232215182   24.730661559 XXXX 2      hoc     H   0.300
O9      16.864422328   -2.933931960   24.946018037 XXXX 2      oc5     O  -1.050
H18     17.318964859   -3.749081970   25.011879694 XXXX 2      hoc     H   0.300
CA8     14.243329965    0.216474197    2.827504381 XXX  4      ca++    Ca  1.500
O5      16.290207607    0.314324680    4.196941127 XXX  4      oc5     O  -1.050
O10     16.555651488   -0.601799469    7.433203004 XXX  4      oc5     O  -1.050
CA19    17.336873000   -1.886383084   14.186731996 XXX  4      ca++    Ca  1.500
CA20    22.416662891   -0.464522003   10.931075737 XXX  4      ca++    Ca  1.500
CA21    14.355331533   -0.547055689    8.242851678 XXX  4      ca++    Ca  1.500
O22     16.451580625   -0.073189184   12.961873432 XXX  4      oc1     O  -1.000
O23     12.464392991   -0.241895578   12.426516450 XXX  4      oc5     O  -1.050
O28     12.643339217   -0.465389427   15.482364562 XXX  4      oc5     O  -1.050
O31     14.811017419   -0.029933714   10.879501184 XXX  4      oc1     O  -1.000
O33     17.052925201    1.299351504   10.853816713 XXX  4      oc1     O  -1.000
O36     17.161999768   -1.293353286   10.731082683 XXX  4      oc1     O  -1.000
CA31    22.324121290   -0.314715996   22.557129562 XXX  4      ca++    Ca  1.500
CA32    18.389879990   -0.221067005   19.288597359 XXX  4      ca++    Ca  1.500
CA33    22.529786958   -0.268485997   16.457145680 XXX  4      ca++    Ca  1.500
O41     20.201560316   -0.332665959   20.855734573 XXX  4      oc5     O  -1.050
O46     20.705811311   -0.370959476   24.345010435 XXX  4      oc5     O  -1.050
CA73    22.201357975   -2.102943211    1.793594657 XXX  4      ca++    Ca  1.500
CA83    13.063603389   -2.632385735    5.284265666 XXX  4      ca++    Ca  1.500
CA85    19.260254191   -1.588825211   11.017792849 XXX  4      ca++    Ca  1.500
CA87    21.537542436   -1.827228586    5.344063209 XXX  4      ca++    Ca  1.500
CA95    20.901236847   -2.920259605   14.468330187 XXX  4      ca++    Ca  1.500
end
CA52     4.921743537   19.285890219    2.460144644 XXX  1      ca++    Ca  1.500
end
CA52    17.267973937   19.441544445    2.415024836 XXX  1      ca++    Ca  1.500
end
O3      22.156417747   -2.640169177   16.565772514 XXXX 2      oc5     O  -1.050
H6      22.255142824   -2.962056054   17.454759330 XXXX 2      hoc     H   0.300
H13     24.572888767   -1.081559808   14.571567068 XXXX 2      hoc     H   0.300
O28     24.804483882   -0.655960391   15.359759847 XXX  4      oc5     O  -1.050
end
O4       2.143821052   -2.574559402    2.334255057 XXXX 2      oc5     O  -1.050
H8       3.017333103   -2.951837411    2.395066209 XXXX 2      hoc     H   0.300
CA100    1.357505813   -1.670371607   17.584277466 XXX  4      ca++    Ca  1.500
end
O3       4.287950106   20.227436375   10.815624599 XXXX 3      oc5     O  -1.050
H6       4.343193098   21.163675222   10.657325477 XXXX 3      hoc     H   0.300
end
end
