!BIOSYM archive 3
PBC=ON
Materials Studio Generated CAR File
!DATE Tue May 05 05:12:17 2015
PBC   37.6680   34.3750  132.6214   90.0000   90.0000   90.0000 (P1)
O1      11.143831886   32.636126608   34.124215445 XXXX 1      oap1    O  -0.800
O2      10.829659280   27.894614025   33.841004259 XXXX 1      oap1    O  -0.800
O3      10.499471002   20.092260711   31.615391223 XXXX 1      oap1    O  -0.800
O4      11.900227758   14.760468487   33.223818741 XXXX 1      oap1    O  -0.800
O17     22.139080462   34.226420533   33.719810888 XXXX 1      oap1    O  -0.800
O18     20.350475181   26.482896392   31.819245401 XXXX 1      oap1    O  -0.800
O19     21.019762440   21.301895401   33.604405683 XXXX 1      oap1    O  -0.800
O20     20.733963861   14.870340685   33.410965602 XXXX 1      oap1    O  -0.800
O33     30.334589464   35.123999082   33.689182205 XXXX 1      oap1    O  -0.800
O34     31.750298869   26.800363180   33.197586721 XXXX 1      oap1    O  -0.800
O35     30.174269046   21.287224609   33.620104439 XXXX 1      oap1    O  -0.800
O36     30.619386255   14.729853997   33.447029910 XXXX 1      oap1    O  -0.800
O193    11.756131020   31.216362108   29.686377235 XXXX 1      oap1    O  -0.800
O194    12.085518072   24.648706091   30.024666767 XXXX 1      oap1    O  -0.800
O195    12.585933762   18.145078197   30.188111046 XXXX 1      oap1    O  -0.800
O196    12.131936152   10.954945230   30.180880464 XXXX 1      oap1    O  -0.800
O209    21.567438282   31.557223339   29.890172543 XXXX 1      oap1    O  -0.800
O210    21.675035568   24.799311730   29.688273245 XXXX 1      oap1    O  -0.800
O211    21.567941043   17.841404196   30.101290516 XXXX 1      oap1    O  -0.800
O212    22.055855409   11.327632072   30.213420916 XXXX 1      oap1    O  -0.800
O225    30.875573394   31.550230639   30.370199217 XXXX 1      oap1    O  -0.800
O226    31.578736693   25.026962388   30.087976810 XXXX 1      oap1    O  -0.800
O227    31.300732411   18.092411294   30.129191404 XXXX 1      oap1    O  -0.800
O228    31.091167780   10.880757201   30.424645458 XXXX 1      oap1    O  -0.800
O241    17.391013884   31.280544189   31.575493788 XXXX 1      oap1    O  -0.800
O242    17.090921914   24.796408896   31.535653422 XXXX 1      oap1    O  -0.800
O243    16.630330148   18.087462506   31.735484955 XXXX 1      oap1    O  -0.800
O244    16.851334606   11.226857484   31.826879174 XXXX 1      oap1    O  -0.800
O257    26.346425621   30.681089824   31.525089524 XXXX 1      oap1    O  -0.800
O258    26.172918697   24.572306337   31.462489826 XXXX 1      oap1    O  -0.800
O259    25.921575489   18.147560999   31.511221441 XXXX 1      oap1    O  -0.800
O260    26.144473567   11.048287361   31.538838464 XXXX 1      oap1    O  -0.800
O273    35.459990632   31.843103602   31.662685703 XXXX 1      oap1    O  -0.800
O274    35.542588987   24.915404280   31.662698273 XXXX 1      oap1    O  -0.800
O275    35.569459412   18.169385016   31.549504552 XXXX 1      oap1    O  -0.800
O276    35.815291265   10.757213466   31.368024742 XXXX 1      oap1    O  -0.800
O337    12.744249311   28.915007832   29.789273634 XXXX 1      oap1    O  -0.800
O338    12.592468422   22.183461346   29.777117970 XXXX 1      oap1    O  -0.800
O339    12.400008306   15.666739687   30.320068076 XXXX 1      oap1    O  -0.800
O340    12.465147961    8.469957193   30.053602785 XXXX 1      oap1    O  -0.800
O353    21.677527669   29.130748237   30.279806921 XXXX 1      oap1    O  -0.800
O354    21.657844381   22.399705879   29.809405680 XXXX 1      oap1    O  -0.800
O355    21.972597673   15.422339848   29.966870687 XXXX 1      oap1    O  -0.800
O356    21.761962681    8.928841867   30.199218003 XXXX 1      oap1    O  -0.800
O369    31.132475669   29.104295842   30.391772688 XXXX 1      oap1    O  -0.800
O370    30.954674286   22.549070682   30.181331033 XXXX 1      oap1    O  -0.800
O371    31.132194674   15.556493810   29.999268853 XXXX 1      oap1    O  -0.800
O372    31.474306545    8.357981235   30.379171398 XXXX 1      oap1    O  -0.800
O385    16.580639020   28.968638247   31.141426023 XXXX 1      oap1    O  -0.800
O386    16.833708257   22.282717733   31.476086800 XXXX 1      oap1    O  -0.800
O387    16.637148848   15.618590847   31.611193374 XXXX 1      oap1    O  -0.800
O388    16.581111774    8.724310690   31.633327484 XXXX 1      oap1    O  -0.800
O401    25.990360124   28.161963913   31.984902625 XXXX 1      oap1    O  -0.800
O402    27.130582608   22.486793758   32.428276384 XXXX 1      oap1    O  -0.800
O403    26.135852044   15.609881935   31.511394711 XXXX 1      oap1    O  -0.800
O404    26.249751494    8.498892043   31.487557842 XXXX 1      oap1    O  -0.800
O417    35.543115529   29.310346769   31.598168414 XXXX 1      oap1    O  -0.800
O418    36.256865871   22.701562126   31.345164427 XXXX 1      oap1    O  -0.800
O419    35.377561529   15.737737741   31.315390669 XXXX 1      oap1    O  -0.800
O420    35.545073127    8.278418700   31.497539149 XXXX 1      oap1    O  -0.800
O433    12.857121697   31.406765744   32.730731933 XXXX 1      oap1    O  -0.800
O434    10.924064823   27.111430234   31.450087255 XXXX 1      oap1    O  -0.800
O435    11.880175778   18.668374977   33.253552950 XXXX 1      oap1    O  -0.800
O436    10.232010997   12.989498625   32.222392465 XXXX 1      oap1    O  -0.800
O449    20.069928322   33.289912399   32.454384317 XXXX 1      oap1    O  -0.800
O450    20.503412210   25.534784405   34.166146070 XXXX 1      oap1    O  -0.800
O451    19.534833183   19.519639847   32.493495635 XXXX 1      oap1    O  -0.800
O452    19.945410090   13.311127448   31.721859752 XXXX 1      oap1    O  -0.800
O465    28.926439675   33.340553417   32.249356897 XXXX 1      oap1    O  -0.800
O466    29.537120672   25.919378294   34.209448819 XXXX 1      oap1    O  -0.800
O467    28.837898980   19.580497647   32.260502861 XXXX 1      oap1    O  -0.800
O468    29.128836650   13.235360299   31.947794539 XXXX 1      oap1    O  -0.800
Ca1     14.238312637   35.684317144   32.111273365 XXXX 1      ca+h    Ca  1.500
Ca2     14.099754845   28.921801794   31.719479685 XXXX 1      ca+h    Ca  1.500
Ca3     14.448775048   22.012713266   31.278222949 XXXX 1      ca+h    Ca  1.500
Ca4     14.214038306   15.033303936   31.779084722 XXXX 1      ca+h    Ca  1.500
Ca17    23.396472543   35.562904819   32.022040950 XXXX 1      ca+h    Ca  1.500
Ca18    23.135635874   28.712270571   32.249404897 XXXX 1      ca+h    Ca  1.500
Ca19    22.978142598   22.146403758   31.792391857 XXXX 1      ca+h    Ca  1.500
Ca20    23.506375096   15.140356442   31.712744591 XXXX 1      ca+h    Ca  1.500
Ca33    32.922100354   35.672982026   31.577845537 XXXX 1      ca+h    Ca  1.500
Ca34    32.786589077   28.694655655   32.063670523 XXXX 1      ca+h    Ca  1.500
Ca35    32.433569669   22.047760206   32.019681371 XXXX 1      ca+h    Ca  1.500
Ca36    33.056895989   15.115680257   31.612049172 XXXX 1      ca+h    Ca  1.500
Ca145   15.081019094   32.198845698   32.086453854 XXXX 1      ca+h    Ca  1.500
Ca146   13.914232208   25.261690328   31.777145120 XXXX 1      ca+h    Ca  1.500
Ca147   14.086696495   18.510928314   31.960898158 XXXX 1      ca+h    Ca  1.500
Ca148   14.139712015   11.584444498   32.078996395 XXXX 1      ca+h    Ca  1.500
Ca161   24.319901513   31.909185964   32.140520250 XXXX 1      ca+h    Ca  1.500
Ca162   23.993261521   25.273813152   31.533153498 XXXX 1      ca+h    Ca  1.500
Ca163   23.401781459   18.449382362   31.902523627 XXXX 1      ca+h    Ca  1.500
Ca164   23.880201454   11.634572387   31.921412885 XXXX 1      ca+h    Ca  1.500
Ca177   32.858165174   32.314257819   32.136976883 XXXX 1      ca+h    Ca  1.500
Ca178   33.246613444   25.149908433   31.878641777 XXXX 1      ca+h    Ca  1.500
Ca179   32.817091580   18.448247054   31.871791169 XXXX 1      ca+h    Ca  1.500
Ca180   33.065894365   11.591442132   32.003384097 XXXX 1      ca+h    Ca  1.500
Ca193    9.119068331   33.564928398   31.951302110 XXXX 1      ca+h    Ca  1.500
Ca194    8.522737015   26.931669006   31.056618828 XXXX 1      ca+h    Ca  1.500
Ca195    8.222186139   20.053138700   31.013619965 XXXX 1      ca+h    Ca  1.500
Ca196    8.208591667   13.420379810   30.969214073 XXXX 1      ca+h    Ca  1.500
Ca209   18.650971440   34.923402134   31.621314619 XXXX 1      ca+h    Ca  1.500
Ca210   18.063442213   26.992903325   31.568287672 XXXX 1      ca+h    Ca  1.500
Ca211   17.701130256   20.031359484   31.035580728 XXXX 1      ca+h    Ca  1.500
Ca212   17.844935023   13.555256859   31.100908369 XXXX 1      ca+h    Ca  1.500
Ca225   27.521776583   34.764702965   30.877969839 XXXX 1      ca+h    Ca  1.500
Ca226   27.585393064   26.852006014   33.076124143 XXXX 1      ca+h    Ca  1.500
Ca227   26.889830314   20.380772160   31.289918439 XXXX 1      ca+h    Ca  1.500
Ca228   27.061350536   13.681401900   30.908443896 XXXX 1      ca+h    Ca  1.500
P1      12.185597978   32.777336189   33.015035540 XXXX 1      pap     P   1.000
P2      11.507110305   26.884785148   32.889576500 XXXX 1      pap     P   1.000
P3      11.513042536   20.141141998   32.808963056 XXXX 1      pap     P   1.000
P4      11.710266137   13.326540827   32.707825303 XXXX 1      pap     P   1.000
P17     21.589430330   33.167143990   32.731475118 XXXX 1      pap     P   1.000
P18     21.316144646   25.762679682   32.868618971 XXXX 1      pap     P   1.000
P19     21.007946665   19.924663818   32.867206593 XXXX 1      pap     P   1.000
P20     20.869770314   13.456332812   32.905530213 XXXX 1      pap     P   1.000
P33     30.344532584   33.753781698   32.862930216 XXXX 1      pap     P   1.000
P34     30.468136479   26.007786677   33.009327951 XXXX 1      pap     P   1.000
P35     30.212890957   19.946499309   32.808212786 XXXX 1      pap     P   1.000
P36     30.494677742   13.404971375   32.557654498 XXXX 1      pap     P   1.000
O577    13.410143632   33.725781729   33.240400546 XXXX 1      oap1    O  -0.800
O578    11.237652088   25.404956006   33.313198601 XXXX 1      oap1    O  -0.800
O579    10.891046281   21.046057112   33.872121602 XXXX 1      oap1    O  -0.800
O580    12.311335227   12.196872435   33.573633014 XXXX 1      oap1    O  -0.800
O593    22.043837292   31.698992832   33.141191755 XXXX 1      oap1    O  -0.800
O594    22.653138086   26.560533246   33.025401062 XXXX 1      oap1    O  -0.800
O595    21.612450298   18.760639638   33.656883956 XXXX 1      oap1    O  -0.800
O596    20.479794997   12.356085914   33.892373526 XXXX 1      oap1    O  -0.800
O609    30.920328197   32.546748681   33.591583801 XXXX 1      oap1    O  -0.800
O610    30.882679647   24.520310932   32.768727219 XXXX 1      oap1    O  -0.800
O611    30.769902097   18.710584463   33.575749364 XXXX 1      oap1    O  -0.800
O612    30.900223532   12.104226331   33.227446239 XXXX 1      oap1    O  -0.800
O625    11.462012211   33.240894636   31.740638877 XXXX 1      oap1    O  -0.800
O626    13.021770424   27.151604543   32.878405209 XXXX 1      oap1    O  -0.800
O627    12.843464875   20.703839425   32.198555599 XXXX 1      oap1    O  -0.800
O628    12.626734526   13.302949554   31.406608193 XXXX 1      oap1    O  -0.800
O641    22.277609090   33.544903301   31.433185639 XXXX 1      oap1    O  -0.800
O642    21.735249380   24.381054058   32.337884557 XXXX 1      oap1    O  -0.800
O643    21.874767332   20.085098191   31.622736709 XXXX 1      oap1    O  -0.800
O644    22.291122704   13.190729614   32.351978673 XXXX 1      oap1    O  -0.800
O657    31.210739917   33.921841259   31.601284429 XXXX 1      oap1    O  -0.800
O658    29.654166088   26.545978667   31.835799312 XXXX 1      oap1    O  -0.800
O659    31.227580131   20.193216106   31.706305091 XXXX 1      oap1    O  -0.800
O660    31.513827394   13.446056379   31.464797262 XXXX 1      oap1    O  -0.800
Ca385   10.715200965   30.271041818   34.041924876 XXXX 1      ca+h    Ca  1.500
Ca386   10.306989002   23.494926467   34.050776405 XXXX 1      ca+h    Ca  1.500
Ca387   10.623746403   16.711924771   33.639052982 XXXX 1      ca+h    Ca  1.500
Ca388   10.187771735   10.753902553   31.548952164 XXXX 1      ca+h    Ca  1.500
Ca401   19.773877150   31.078340250   31.463809648 XXXX 1      ca+h    Ca  1.500
Ca402   19.883410281   23.356719171   33.711965594 XXXX 1      ca+h    Ca  1.500
Ca403   19.847030715   16.994117236   33.430349288 XXXX 1      ca+h    Ca  1.500
Ca404   20.026868345   10.012754654   33.819707799 XXXX 1      ca+h    Ca  1.500
Ca417   28.777281393   31.030455975   31.517629942 XXXX 1      ca+h    Ca  1.500
Ca418   29.028178520   23.455558954   33.812340936 XXXX 1      ca+h    Ca  1.500
Ca419   29.343395846   16.816077014   33.871807608 XXXX 1      ca+h    Ca  1.500
Ca420   28.946751083   10.728758611   31.651416423 XXXX 1      ca+h    Ca  1.500
P193    13.068440415   30.411234656   29.398830278 XXXX 1      pap     P   1.000
P194    13.058174062   23.579707196   29.373067757 XXXX 1      pap     P   1.000
P195    13.113396216   16.794512748   29.662778216 XXXX 1      pap     P   1.000
P196    13.063920234    9.833460800   29.682710292 XXXX 1      pap     P   1.000
P209    22.450759667   30.300006291   29.647682855 XXXX 1      pap     P   1.000
P210    22.460151354   23.563543655   29.266264914 XXXX 1      pap     P   1.000
P211    22.497439066   16.757634666   29.484857459 XXXX 1      pap     P   1.000
P212    22.603660506   10.061457224   29.654417645 XXXX 1      pap     P   1.000
P225    31.679298953   30.393865467   29.840687990 XXXX 1      pap     P   1.000
P226    31.915986626   23.617900387   29.647121885 XXXX 1      pap     P   1.000
P227    31.897675693   16.827441409   29.504828572 XXXX 1      pap     P   1.000
P228    31.896775013    9.712871499   29.765947105 XXXX 1      pap     P   1.000
O961    14.254318864   30.819686137   30.295413213 XXXX 1      oap1    O  -0.800
O962    14.420379912   23.810692166   29.990901770 XXXX 1      oap1    O  -0.800
O963    14.592184550   16.688810760   30.058509004 XXXX 1      oap1    O  -0.800
O964    14.425282523   10.016921336   30.452271563 XXXX 1      oap1    O  -0.800
O977    23.755984881   30.415633184   30.480278971 XXXX 1      oap1    O  -0.800
O978    23.886231381   23.602577953   29.916013180 XXXX 1      oap1    O  -0.800
O979    23.903826538   16.791813677   30.173577130 XXXX 1      oap1    O  -0.800
O980    23.967288547    9.866635783   30.253679699 XXXX 1      oap1    O  -0.800
O993    33.057317800   30.545258336   30.473890946 XXXX 1      oap1    O  -0.800
O994    33.265867311   23.344686325   30.229266433 XXXX 1      oap1    O  -0.800
O995    33.339915732   16.769113642   30.030562007 XXXX 1      oap1    O  -0.800
O996    33.308019591    9.995510343   30.249542871 XXXX 1      oap1    O  -0.800
O1009   13.295398816   30.490601774   27.923431010 XXXX 1      oap1    O  -0.800
O1010   13.078065349   23.667833212   27.837172913 XXXX 1      oap1    O  -0.800
O1011   12.954083006   16.631900399   28.136042349 XXXX 1      oap1    O  -0.800
O1012   13.228679845    9.928024835   28.167624658 XXXX 1      oap1    O  -0.800
O1025   22.677391365   30.234167888   28.091486217 XXXX 1      oap1    O  -0.800
O1026   22.537142475   23.513882286   27.732222197 XXXX 1      oap1    O  -0.800
O1027   22.503524249   16.722757249   27.950112559 XXXX 1      oap1    O  -0.800
O1028   22.610670936   10.044243561   28.134766837 XXXX 1      oap1    O  -0.800
O1041   31.706130242   30.397145044   28.280262463 XXXX 1      oap1    O  -0.800
O1042   31.817770744   23.564687258   28.107199869 XXXX 1      oap1    O  -0.800
O1043   31.819990972   16.909275016   28.040422674 XXXX 1      oap1    O  -0.800
O1044   31.919784347    9.725182580   28.191895048 XXXX 1      oap1    O  -0.800
Ca433   16.490413618   30.354664751   29.113974841 XXXX 1      ca+h    Ca  1.500
Ca434   16.917083587   23.626919402   29.152681327 XXXX 1      ca+h    Ca  1.500
Ca435   16.953276461   16.680870185   29.292334287 XXXX 1      ca+h    Ca  1.500
Ca436   16.971159835   10.089451923   29.596019898 XXXX 1      ca+h    Ca  1.500
Ca449   25.915085558   30.409944332   29.192760114 XXXX 1      ca+h    Ca  1.500
Ca450   26.247587873   23.660519975   29.160291367 XXXX 1      ca+h    Ca  1.500
Ca451   26.182369806   16.868879530   29.411714725 XXXX 1      ca+h    Ca  1.500
Ca452   26.117065747    9.815700228   29.158983934 XXXX 1      ca+h    Ca  1.500
Ca465   35.601900496   30.570990961   29.478510866 XXXX 1      ca+h    Ca  1.500
Ca466   35.539108061   23.740857750   29.207630886 XXXX 1      ca+h    Ca  1.500
Ca467   35.594019513   16.919649737   29.146198956 XXXX 1      ca+h    Ca  1.500
Ca468   35.408651173    9.702829892   29.199572742 XXXX 1      ca+h    Ca  1.500
P241    17.023448779   29.947621243   32.233719063 XXXX 1      pap     P   1.000
P242    16.756335534   23.555644226   32.362136054 XXXX 1      pap     P   1.000
P243    16.498139450   16.815464818   32.578335161 XXXX 1      pap     P   1.000
P244    16.633412495    9.898052332   32.643599951 XXXX 1      pap     P   1.000
P257    26.248090697   29.539475021   32.574002097 XXXX 1      pap     P   1.000
P258    26.242148882   23.691999554   32.684555503 XXXX 1      pap     P   1.000
P259    25.977603270   16.879481484   32.399672757 XXXX 1      pap     P   1.000
P260    26.174788265    9.774423573   32.388414706 XXXX 1      pap     P   1.000
P273    35.390372596   30.549276987   32.515445787 XXXX 1      pap     P   1.000
P274    35.676807857   23.604247735   32.449409639 XXXX 1      pap     P   1.000
P275    35.456784399   16.826280892   32.374991519 XXXX 1      pap     P   1.000
P276    35.653346414    9.562425853   32.297875973 XXXX 1      pap     P   1.000
O1057   15.702233203   30.208640645   33.035180197 XXXX 1      oap1    O  -0.800
O1058   15.244783684   23.652161895   32.760436538 XXXX 1      oap1    O  -0.800
O1059   14.999700542   16.693294665   33.047398611 XXXX 1      oap1    O  -0.800
O1060   15.272202702    9.891077305   33.328090331 XXXX 1      oap1    O  -0.800
O1073   24.986924723   29.904628671   33.383439888 XXXX 1      oap1    O  -0.800
O1074   24.770349535   23.281803234   32.873278668 XXXX 1      oap1    O  -0.800
O1075   24.522235862   16.747040087   33.031232637 XXXX 1      oap1    O  -0.800
O1076   24.838379984    9.721628000   33.152553681 XXXX 1      oap1    O  -0.800
O1089   33.935959979   30.535988089   33.175923026 XXXX 1      oap1    O  -0.800
O1090   34.262917608   23.210920502   32.901031427 XXXX 1      oap1    O  -0.800
O1091   34.062349276   16.791508086   33.086557845 XXXX 1      oap1    O  -0.800
O1092   34.394788762    9.807104946   33.139538795 XXXX 1      oap1    O  -0.800
O1105   18.258065908   29.432323364   32.945232046 XXXX 1      oap1    O  -0.800
O1106   17.698359735   23.508345536   33.575963994 XXXX 1      oap1    O  -0.800
O1107   17.632767341   16.772864184   33.637514413 XXXX 1      oap1    O  -0.800
O1108   17.809990609    9.549796231   33.585583429 XXXX 1      oap1    O  -0.800
O1121   27.560920682   29.327173615   33.286851884 XXXX 1      oap1    O  -0.800
O1122   26.878377084   24.491931756   33.837232805 XXXX 1      oap1    O  -0.800
O1123   27.057536545   17.026564383   33.449166528 XXXX 1      oap1    O  -0.800
O1124   27.456385431    9.719176180   33.235975670 XXXX 1      oap1    O  -0.800
O1137   36.566160128   30.495354344   33.554401489 XXXX 1      oap1    O  -0.800
O1138   36.690965788   23.830749867   33.553205662 XXXX 1      oap1    O  -0.800
O1139   36.735552270   16.583346326   33.173533461 XXXX 1      oap1    O  -0.800
O1140   37.014427297    9.412623741   33.081086662 XXXX 1      oap1    O  -0.800
O1153    9.421849756   33.795451541   29.662550195 XXXX 1      oap2    O  -1.100
O1154    9.358280330   25.340701537   29.242846627 XXXX 1      oap2    O  -1.100
O1155    9.311982510   18.436905292   29.141956935 XXXX 1      oap2    O  -1.100
O1156    9.587559116   12.076418710   29.690943203 XXXX 1      oap2    O  -1.100
O1169   18.956719022   33.558171441   29.693260626 XXXX 1      oap2    O  -1.100
O1170   18.806590173   26.264281831   29.468542849 XXXX 1      oap2    O  -1.100
O1171   18.971693111   18.572326525   29.426011196 XXXX 1      oap2    O  -1.100
O1172   18.758193940   11.884004747   29.416704496 XXXX 1      oap2    O  -1.100
O1185   28.164743652   32.909128398   29.388070990 XXXX 1      oap2    O  -1.100
O1186   28.196310415   25.308478441   29.080373480 XXXX 1      oap2    O  -1.100
O1187   28.154679203   18.544238610   29.407114357 XXXX 1      oap2    O  -1.100
O1188   28.258877734   12.077694929   29.529891686 XXXX 1      oap2    O  -1.100
O1201    9.539657823   28.674605770   29.149200192 XXXX 1      oap2    O  -1.100
O1202    9.291718191   21.593572980   29.337185917 XXXX 1      oap2    O  -1.100
O1203    9.401316095   15.072816975   29.555802693 XXXX 1      oap2    O  -1.100
O1204    9.695563023    9.140754350   29.962342158 XXXX 1      oap2    O  -1.100
O1217   18.794347655   29.900674362   29.450479295 XXXX 1      oap2    O  -1.100
O1218   18.741393253   21.678965713   29.161588853 XXXX 1      oap2    O  -1.100
O1219   19.031538812   15.057863110   29.526767199 XXXX 1      oap2    O  -1.100
O1220   18.968420924    8.403420816   29.473348110 XXXX 1      oap2    O  -1.100
O1233   28.184830054   29.668403673   29.636727554 XXXX 1      oap2    O  -1.100
O1234   27.994614896   21.761905744   29.463107870 XXXX 1      oap2    O  -1.100
O1235   28.105651113   15.186510970   29.198467644 XXXX 1      oap2    O  -1.100
O1236   28.399777379    9.213363134   29.743813837 XXXX 1      oap2    O  -1.100
H1       9.148394513   34.671252611   29.716385773 XXXX 1      hop     H   0.200
H2       9.914293081   24.862701307   29.816174576 XXXX 1      hop     H   0.200
H3       9.747214558   17.915314000   29.809730402 XXXX 1      hop     H   0.200
H4       8.764704241   11.970037809   29.242461508 XXXX 1      hop     H   0.200
H17     18.723507788   32.721383648   30.062049272 XXXX 1      hop     H   0.200
H18     19.079384566   25.401326936   29.809874207 XXXX 1      hop     H   0.200
H19     19.613274127   18.216645152   30.169515868 XXXX 1      hop     H   0.200
H20     18.852950618   11.591535236   30.336725826 XXXX 1      hop     H   0.200
H33     27.594189840   32.236285646   29.033983710 XXXX 1      hop     H   0.200
H34     27.921278476   25.440725942   30.018646409 XXXX 1      hop     H   0.200
H35     28.861270228   18.331784385   30.021222525 XXXX 1      hop     H   0.200
H36     28.046830259   11.325342501   29.027905765 XXXX 1      hop     H   0.200
H49     10.220143276   28.896570635   29.776932877 XXXX 1      hop     H   0.200
H50      9.825323781   21.780296529   30.097451337 XXXX 1      hop     H   0.200
H51      9.694826305   15.522928322   30.310231462 XXXX 1      hop     H   0.200
H52     10.489302271    8.593084149   29.721434303 XXXX 1      hop     H   0.200
H65     18.547229279   29.003132515   29.665559226 XXXX 1      hop     H   0.200
H66     19.191530811   22.116833915   29.845110083 XXXX 1      hop     H   0.200
H67     19.700806816   15.686757966   29.875879991 XXXX 1      hop     H   0.200
H68     19.652656247    8.615571936   30.058117840 XXXX 1      hop     H   0.200
H81     28.665548694   28.850093855   29.555016409 XXXX 1      hop     H   0.200
H82     28.506770883   22.335966155   30.006135894 XXXX 1      hop     H   0.200
H83     28.589873081   15.688601845   29.885373617 XXXX 1      hop     H   0.200
H84     28.924085963    8.488636568   30.044162280 XXXX 1      hop     H   0.200
end
O1      11.669102205    7.853436585   32.737253828 XXXX 1      oap1    O  -0.800
O17     21.308873889    8.062681550   33.138441502 XXXX 1      oap1    O  -0.800
O33     31.853445469    6.318921838   32.756631609 XXXX 1      oap1    O  -0.800
O193    11.702137581    3.833383269   30.318528637 XXXX 1      oap1    O  -0.800
O209    21.544729564    4.220841845   30.425962223 XXXX 1      oap1    O  -0.800
O225    31.306714262    4.036635218   29.725096018 XXXX 1      oap1    O  -0.800
O241    17.007513193    4.267348546   31.686251769 XXXX 1      oap1    O  -0.800
O257    25.982862089    4.482130596   32.130087248 XXXX 1      oap1    O  -0.800
O273    35.641381111    4.081942982   31.318353977 XXXX 1      oap1    O  -0.800
O337    12.530208822    1.378849816   30.084879884 XXXX 1      oap1    O  -0.800
O353    21.581135757    1.716171307   30.407483537 XXXX 1      oap1    O  -0.800
O369    31.254130761    1.593736860   29.883207202 XXXX 1      oap1    O  -0.800
O385    16.517239897    1.867465921   31.372531343 XXXX 1      oap1    O  -0.800
O401    26.094133962    2.040035058   31.658891279 XXXX 1      oap1    O  -0.800
O417    35.503250306    1.652093538   31.439228777 XXXX 1      oap1    O  -0.800
O433    10.591442413    5.549453197   32.775992250 XXXX 1      oap1    O  -0.800
O449    19.852326763    6.233893117   31.952929196 XXXX 1      oap1    O  -0.800
O465    29.784634544    5.455197790   34.107966760 XXXX 1      oap1    O  -0.800
Ca1     14.109549857    8.195195561   31.999653006 XXXX 1      ca+h    Ca  1.500
Ca17    23.656867680    8.109668273   31.896780073 XXXX 1      ca+h    Ca  1.500
Ca33    33.244908944    8.029665902   31.975014675 XXXX 1      ca+h    Ca  1.500
Ca145   14.452768575    4.747732616   32.617459543 XXXX 1      ca+h    Ca  1.500
Ca161   23.567541904    4.742328846   32.263049630 XXXX 1      ca+h    Ca  1.500
Ca177   32.914911848    4.574501068   31.596397224 XXXX 1      ca+h    Ca  1.500
Ca193    9.368916835    7.492329443   31.928408047 XXXX 1      ca+h    Ca  1.500
Ca209   17.760493373    6.980366350   30.985647716 XXXX 1      ca+h    Ca  1.500
Ca225   27.241457756    6.415867658   31.408597361 XXXX 1      ca+h    Ca  1.500
P1      11.962034909    6.415824244   32.875219435 XXXX 1      pap     P   1.000
P17     21.191635879    6.628519914   32.632421928 XXXX 1      pap     P   1.000
P33     30.498802857    5.552362308   32.755636786 XXXX 1      pap     P   1.000
O577    12.984867489    6.062687676   33.977300215 XXXX 1      oap1    O  -0.800
O593    21.723770773    5.542944106   33.567559411 XXXX 1      oap1    O  -0.800
O609    30.723112385    4.014967662   32.548384975 XXXX 1      oap1    O  -0.800
O625    12.737088126    6.103178075   31.654353177 XXXX 1      oap1    O  -0.800
O641    22.102595526    6.570068141   31.469482482 XXXX 1      oap1    O  -0.800
O657    29.650665339    6.179730788   31.630565493 XXXX 1      oap1    O  -0.800
Ca385    9.737259553    3.860380739   31.467604765 XXXX 1      ca+h    Ca  1.500
Ca401   19.511577304    3.970397723   31.489920194 XXXX 1      ca+h    Ca  1.500
Ca417   29.460859834    2.988805652   34.190028705 XXXX 1      ca+h    Ca  1.500
P193    12.899342106    2.893151533   29.894815922 XXXX 1      pap     P   1.000
P209    22.290750975    2.968351125   29.868056613 XXXX 1      pap     P   1.000
P225    31.973495418    2.765135820   29.229211667 XXXX 1      pap     P   1.000
O961    14.162719810    3.147549694   30.691889744 XXXX 1      oap1    O  -0.800
O977    23.717196984    2.951992168   30.432131916 XXXX 1      oap1    O  -0.800
O993    33.416087436    2.724961668   29.713287014 XXXX 1      oap1    O  -0.800
O1009   13.216507938    3.139575771   28.387549419 XXXX 1      oap1    O  -0.800
O1025   22.368074237    2.908690757   28.263159144 XXXX 1      oap1    O  -0.800
O1041   31.919278981    2.569293977   27.668469086 XXXX 1      oap1    O  -0.800
Ca433   16.421051532    2.949749546   29.284939567 XXXX 1      ca+h    Ca  1.500
Ca449   26.004347968    2.873389891   29.443329315 XXXX 1      ca+h    Ca  1.500
Ca465   35.682656166    2.815680279   29.167536663 XXXX 1      ca+h    Ca  1.500
P241    16.888118600    2.920850937   32.457358372 XXXX 1      pap     P   1.000
P257    26.018036190    3.069517902   32.822203650 XXXX 1      pap     P   1.000
P273    35.479169120    2.960306867   32.273034135 XXXX 1      pap     P   1.000
O1057   15.667480182    3.011306312   33.421097121 XXXX 1      oap1    O  -0.800
O1073   24.592516365    2.781427081   33.334462680 XXXX 1      oap1    O  -0.800
O1089   34.032227168    2.974057142   32.797151487 XXXX 1      oap1    O  -0.800
O1105   18.269098114    2.502201216   32.977385661 XXXX 1      oap1    O  -0.800
O1121   27.195480309    2.852123943   33.808175960 XXXX 1      oap1    O  -0.800
O1137   36.525700573    2.888685739   33.352087225 XXXX 1      oap1    O  -0.800
O1153    9.492426290    5.929110056   29.953378166 XXXX 1      oap2    O  -1.100
O1169   18.861415655    5.286638081   29.573816567 XXXX 1      oap2    O  -1.100
O1185   28.173579358    5.505970043   29.225613565 XXXX 1      oap2    O  -1.100
O1201    9.190889099    2.654343080   29.340797340 XXXX 1      oap2    O  -1.100
O1217   18.826541612    2.258994374   29.793648068 XXXX 1      oap2    O  -1.100
O1233   28.266730018    2.217180854   29.555075428 XXXX 1      oap2    O  -1.100
H1       8.547745187    5.610985816   29.741959727 XXXX 1      hop     H   0.200
H17     18.114689912    4.676586764   29.428285061 XXXX 1      hop     H   0.200
H33     27.804091338    4.739452536   28.843510071 XXXX 1      hop     H   0.200
H49      9.104417802    1.806258255   29.794352275 XXXX 1      hop     H   0.200
H65     19.178998626    1.418194108   29.462656836 XXXX 1      hop     H   0.200
H81     28.791672346    2.883902918   30.042510423 XXXX 1      hop     H   0.200
end
O5      24.337761214   35.265306237    7.876057612 XXXX 1      oap1    O  -0.800
O6      24.391645980   28.152089339    7.615461681 XXXX 1      oap1    O  -0.800
O7      24.397527803   21.097815902    7.263211147 XXXX 1      oap1    O  -0.800
O8      24.283960812   14.320931528    7.697929516 XXXX 1      oap1    O  -0.800
O9      19.660642883   35.021822541   15.882869795 XXXX 1      oap1    O  -0.800
O10     19.747925898   28.088455923   15.635015706 XXXX 1      oap1    O  -0.800
O11     19.575782587   21.320499597   15.976132333 XXXX 1      oap1    O  -0.800
O12     19.697110169   14.425409408   15.996892214 XXXX 1      oap1    O  -0.800
O13     14.898902774   35.207112389   24.332190031 XXXX 1      oap1    O  -0.800
O14     14.908174783   28.296204358   23.979746583 XXXX 1      oap1    O  -0.800
O15     14.898808258   21.295051862   23.955411433 XXXX 1      oap1    O  -0.800
O16     15.049894380   14.445873481   23.833597460 XXXX 1      oap1    O  -0.800
O21     33.815151351   35.085514223    7.621862949 XXXX 1      oap1    O  -0.800
O22     33.726167466   28.173737656    7.683300994 XXXX 1      oap1    O  -0.800
O23     33.668673773   21.091593460    7.512663581 XXXX 1      oap1    O  -0.800
O24     33.748726362   14.405588231    7.716860871 XXXX 1      oap1    O  -0.800
O25     28.998802158   34.978789178   15.805353488 XXXX 1      oap1    O  -0.800
O26     29.057200384   28.126484065   15.762477393 XXXX 1      oap1    O  -0.800
O27     29.031487026   21.280433080   15.925466846 XXXX 1      oap1    O  -0.800
O28     29.068972864   14.320085066   15.745258168 XXXX 1      oap1    O  -0.800
O29     24.281263185   34.987908697   24.005640947 XXXX 1      oap1    O  -0.800
O30     24.254733165   28.130620726   24.026308359 XXXX 1      oap1    O  -0.800
O31     24.215772816   21.233337618   23.977486980 XXXX 1      oap1    O  -0.800
O32     24.278176573   14.598489981   23.972246331 XXXX 1      oap1    O  -0.800
O45     33.741086043   35.088039003   24.132643236 XXXX 1      oap1    O  -0.800
O46     33.855327232   28.201396141   24.068922121 XXXX 1      oap1    O  -0.800
O47     33.720852217   21.451908255   23.959836799 XXXX 1      oap1    O  -0.800
O48     33.694137874   14.390540547   24.137923660 XXXX 1      oap1    O  -0.800
O49     30.229256432   35.031839186    4.195307285 XXXX 1      oap1    O  -0.800
O50     30.539842088   27.865358681    4.625688840 XXXX 1      oap1    O  -0.800
O51     29.812569154   21.353403546    4.708871598 XXXX 1      oap1    O  -0.800
O52     30.010912932   14.349996426    4.408008056 XXXX 1      oap1    O  -0.800
O53     25.414325388   35.098417219   12.421923499 XXXX 1      oap1    O  -0.800
O54     25.309765443   28.240623459   12.233031469 XXXX 1      oap1    O  -0.800
O55     25.631883747   21.104102006   12.508076647 XXXX 1      oap1    O  -0.800
O56     25.244623406   14.437498421   12.368417652 XXXX 1      oap1    O  -0.800
O57     20.669076213   35.062512780   20.452817024 XXXX 1      oap1    O  -0.800
O58     20.743814056   28.074037273   20.557119475 XXXX 1      oap1    O  -0.800
O59     20.638385850   21.365625760   20.399158930 XXXX 1      oap1    O  -0.800
O60     20.812799803   14.425031647   20.721466174 XXXX 1      oap1    O  -0.800
O61     16.058665788   35.204306584   28.613543493 XXXX 1      oap1    O  -0.800
O62     15.801800863   28.297340293   28.577633800 XXXX 1      oap1    O  -0.800
O63     16.037442579   21.382914818   28.670999406 XXXX 1      oap1    O  -0.800
O64     16.147163579   14.377998677   28.846783651 XXXX 1      oap1    O  -0.800
O69     34.894412903   34.935301121   12.313374853 XXXX 1      oap1    O  -0.800
O70     34.739299830   28.207201338   12.299033050 XXXX 1      oap1    O  -0.800
O71     34.832880423   21.242155872   12.532840168 XXXX 1      oap1    O  -0.800
O72     34.732575759   14.463398811   12.564328162 XXXX 1      oap1    O  -0.800
O73     30.177850996   35.146678076   20.745086899 XXXX 1      oap1    O  -0.800
O74     30.076344457   28.147460517   20.563191454 XXXX 1      oap1    O  -0.800
O75     30.181117569   21.292420277   20.632821348 XXXX 1      oap1    O  -0.800
O76     30.199969813   14.406237555   20.696201374 XXXX 1      oap1    O  -0.800
O77     25.996973014   34.931911425   28.897368300 XXXX 1      oap1    O  -0.800
O78     25.325882360   28.217030594   28.645668056 XXXX 1      oap1    O  -0.800
O79     25.302712145   21.560956193   28.662486179 XXXX 1      oap1    O  -0.800
O80     25.539957213   14.397222399   28.713822547 XXXX 1      oap1    O  -0.800
O93     34.896103289   34.912591484   28.584002769 XXXX 1      oap1    O  -0.800
O94     34.768104089   28.233749838   28.620920384 XXXX 1      oap1    O  -0.800
O95     34.664266788   21.482292820   28.781312004 XXXX 1      oap1    O  -0.800
O96     35.165594364   14.427508125   28.910294750 XXXX 1      oap1    O  -0.800
O97     25.488664291   35.196614284    2.664374309 XXXX 1      oap1    O  -0.800
O98     25.514257187   27.822556682    2.795900441 XXXX 1      oap1    O  -0.800
O99     25.454925618   21.458593745    2.311852462 XXXX 1      oap1    O  -0.800
O100    25.756207345   14.602192565    2.940999269 XXXX 1      oap1    O  -0.800
O101    20.812318847   34.966060289   10.953457971 XXXX 1      oap1    O  -0.800
O102    20.724090051   28.011647772   10.970363266 XXXX 1      oap1    O  -0.800
O103    21.021943230   21.239355781   11.025955220 XXXX 1      oap1    O  -0.800
O104    20.828165072   14.487912950   11.071620076 XXXX 1      oap1    O  -0.800
O105    16.241372301   35.099841580   19.153928787 XXXX 1      oap1    O  -0.800
O106    16.120454795   28.278305595   19.199065886 XXXX 1      oap1    O  -0.800
O107    15.816180204   21.097778105   19.364250029 XXXX 1      oap1    O  -0.800
O108    15.745776193   14.339398884   19.306439818 XXXX 1      oap1    O  -0.800
O109    11.812243422   35.107128137   27.155426673 XXXX 1      oap1    O  -0.800
O110    11.658487197   28.217937823   27.226478945 XXXX 1      oap1    O  -0.800
O111    11.496980995   21.365504236   27.267531643 XXXX 1      oap1    O  -0.800
O112    11.378162059   14.551608389   27.315234261 XXXX 1      oap1    O  -0.800
O113    34.663972249   35.135280288    2.945828699 XXXX 1      oap1    O  -0.800
O114    34.825902637   27.767183673    2.498829910 XXXX 1      oap1    O  -0.800
O115    34.814881446   21.398550151    2.130714834 XXXX 1      oap1    O  -0.800
O116    34.935112340   14.497393865    2.620305290 XXXX 1      oap1    O  -0.800
O117    30.313938747   34.990438142   11.075050276 XXXX 1      oap1    O  -0.800
O118    30.448464073   28.316241807   10.868770924 XXXX 1      oap1    O  -0.800
O119    30.023516499   21.257999319   11.101444030 XXXX 1      oap1    O  -0.800
O120    30.425017680   14.453298719   11.013550973 XXXX 1      oap1    O  -0.800
O121    25.678659430   35.054503958   19.111347503 XXXX 1      oap1    O  -0.800
O122    25.481099233   28.300988007   19.170985254 XXXX 1      oap1    O  -0.800
O123    25.543758062   21.292381173   19.187031559 XXXX 1      oap1    O  -0.800
O124    25.676591568   14.474928536   19.108011178 XXXX 1      oap1    O  -0.800
O125    20.797420071   35.034624684   27.283435993 XXXX 1      oap1    O  -0.800
O126    20.748071291   28.209361843   27.199528262 XXXX 1      oap1    O  -0.800
O127    20.869810964   21.367971635   27.127027667 XXXX 1      oap1    O  -0.800
O128    20.828667081   14.544779440   27.374255256 XXXX 1      oap1    O  -0.800
O137    34.983650720   35.140152697   19.167956512 XXXX 1      oap1    O  -0.800
O138    34.796450784   28.138098390   19.238211684 XXXX 1      oap1    O  -0.800
O139    34.899544279   21.304758165   19.298126040 XXXX 1      oap1    O  -0.800
O140    34.796156784   14.361584823   19.397400462 XXXX 1      oap1    O  -0.800
O141    29.940304186   34.922052658   27.247341129 XXXX 1      oap1    O  -0.800
O142    29.914760531   27.998873859   27.449026480 XXXX 1      oap1    O  -0.800
O143    30.027638067   21.387607776   27.237914447 XXXX 1      oap1    O  -0.800
O144    30.346239330   14.465663318   27.339607084 XXXX 1      oap1    O  -0.800
O145    29.575886568   30.182319734    2.887285805 XXXX 1      oap1    O  -0.800
O146    29.348296088   23.177699915    1.229116606 XXXX 1      oap1    O  -0.800
O147    30.727289705   17.691797966    0.824390548 XXXX 1      oap1    O  -0.800
O148    31.322286993   10.712600002    0.276668968 XXXX 1      oap1    O  -0.800
O149    27.424857195   31.613240034   10.367262835 XXXX 1      oap1    O  -0.800
O150    27.354197538   24.771120744   10.344147073 XXXX 1      oap1    O  -0.800
O151    27.305841943   17.801539552   10.125672423 XXXX 1      oap1    O  -0.800
O152    27.415617045   10.918573598   10.512201642 XXXX 1      oap1    O  -0.800
O153    22.794682608   31.547886943   18.629054883 XXXX 1      oap1    O  -0.800
O154    22.860933000   24.766213470   18.378404421 XXXX 1      oap1    O  -0.800
O155    22.778326836   17.847167211   18.445126839 XXXX 1      oap1    O  -0.800
O156    22.740041283   11.050245705   18.332176128 XXXX 1      oap1    O  -0.800
O157    17.919868224   31.838175105   26.343303069 XXXX 1      oap1    O  -0.800
O158    17.875922192   24.809540822   26.691922054 XXXX 1      oap1    O  -0.800
O159    17.976275791   18.041669865   26.443628754 XXXX 1      oap1    O  -0.800
O160    17.994386658   11.059311943   26.961930798 XXXX 1      oap1    O  -0.800
O165    36.873441296   31.619944681   10.389278915 XXXX 1      oap1    O  -0.800
O166    36.978677965   24.764028642   10.303988876 XXXX 1      oap1    O  -0.800
O167    36.926934295   17.787319279   10.444402301 XXXX 1      oap1    O  -0.800
O168    36.832612512   10.916378873   10.351838438 XXXX 1      oap1    O  -0.800
O169    32.260218163   31.544821519   18.366744777 XXXX 1      oap1    O  -0.800
O170    32.085547497   24.724045539   18.471163000 XXXX 1      oap1    O  -0.800
O171    32.166386258   17.878311088   18.546591450 XXXX 1      oap1    O  -0.800
O172    32.059259129   11.001970075   18.632270899 XXXX 1      oap1    O  -0.800
O173    27.318798837   31.491920437   26.771763188 XXXX 1      oap1    O  -0.800
O174    27.346213044   24.902869950   26.230830890 XXXX 1      oap1    O  -0.800
O175    27.442278446   17.939429589   26.716199006 XXXX 1      oap1    O  -0.800
O176    27.421765615   11.077596980   26.562870037 XXXX 1      oap1    O  -0.800
O189    36.895848079   31.582901856   26.443101463 XXXX 1      oap1    O  -0.800
O190    36.724383945   24.767464504   26.777687000 XXXX 1      oap1    O  -0.800
O191    36.642526457   18.066304397   26.344112953 XXXX 1      oap1    O  -0.800
O192    36.786278108   11.075975059   26.419607575 XXXX 1      oap1    O  -0.800
O197    26.120958617   31.721080678    5.555322005 XXXX 1      oap1    O  -0.800
O198    26.444634759   24.756978385    5.611366673 XXXX 1      oap1    O  -0.800
O199    26.438947938   17.860681402    6.020459748 XXXX 1      oap1    O  -0.800
O200    26.231721266   11.056256567    5.662440792 XXXX 1      oap1    O  -0.800
O201    21.606295544   31.610402860   13.785429236 XXXX 1      oap1    O  -0.800
O202    21.492735760   24.667526155   13.720612255 XXXX 1      oap1    O  -0.800
O203    21.638148137   17.661111876   13.971384539 XXXX 1      oap1    O  -0.800
O204    21.589482060   11.097204481   13.805241920 XXXX 1      oap1    O  -0.800
O205    16.770311265   31.592438026   21.799303063 XXXX 1      oap1    O  -0.800
O206    16.846989973   24.598434401   21.845504824 XXXX 1      oap1    O  -0.800
O207    16.748335561   17.680617617   21.713185535 XXXX 1      oap1    O  -0.800
O208    16.746643333   11.014805522   21.875901015 XXXX 1      oap1    O  -0.800
O213    35.846679897   31.630766085    5.410756182 XXXX 1      oap1    O  -0.800
O214    35.835998188   24.623999617    5.825630291 XXXX 1      oap1    O  -0.800
O215    35.773287224   17.895317205    5.827062100 XXXX 1      oap1    O  -0.800
O216    35.712312965   10.966771015    6.016580630 XXXX 1      oap1    O  -0.800
O217    30.934980781   31.538009221   13.675602920 XXXX 1      oap1    O  -0.800
O218    30.944286423   24.618288784   13.688092933 XXXX 1      oap1    O  -0.800
O219    30.855891226   17.806055134   13.781333556 XXXX 1      oap1    O  -0.800
O220    30.793619227   10.873828810   13.681328844 XXXX 1      oap1    O  -0.800
O221    26.467648658   31.595722350   21.937283254 XXXX 1      oap1    O  -0.800
O222    26.245889205   24.682365289   21.726624680 XXXX 1      oap1    O  -0.800
O223    26.263493656   17.870560730   21.885628274 XXXX 1      oap1    O  -0.800
O224    26.302470046   10.952040615   21.985846790 XXXX 1      oap1    O  -0.800
O237    35.737503480   31.566649983   21.975448350 XXXX 1      oap1    O  -0.800
O238    35.515918000   24.795702050   21.804826341 XXXX 1      oap1    O  -0.800
O239    35.814195165   17.965933531   21.783409202 XXXX 1      oap1    O  -0.800
O240    35.811977409   10.987657489   21.992530343 XXXX 1      oap1    O  -0.800
O245    31.116139480   31.673293843    6.849917600 XXXX 1      oap1    O  -0.800
O246    31.120895120   24.673387935    7.045501412 XXXX 1      oap1    O  -0.800
O247    30.806101501   17.783119018    7.196936274 XXXX 1      oap1    O  -0.800
O248    30.791618975   10.988114847    7.316855722 XXXX 1      oap1    O  -0.800
O249    26.271048755   31.579146483   15.085124423 XXXX 1      oap1    O  -0.800
O250    26.223486014   24.718764124   15.127881970 XXXX 1      oap1    O  -0.800
O251    26.205011083   17.737693807   15.085111655 XXXX 1      oap1    O  -0.800
O252    26.171005444   10.975863671   15.195901325 XXXX 1      oap1    O  -0.800
O253    21.501938649   31.639744212   23.260899523 XXXX 1      oap1    O  -0.800
O254    21.688681192   24.750242118   23.167311771 XXXX 1      oap1    O  -0.800
O255    21.371860662   17.999089185   23.510325185 XXXX 1      oap1    O  -0.800
O256    21.590545554   10.996495337   23.163595989 XXXX 1      oap1    O  -0.800
O265    35.662746722   31.575004891   15.144723748 XXXX 1      oap1    O  -0.800
O266    36.066745207   24.602738253   15.204021565 XXXX 1      oap1    O  -0.800
O267    35.633389967   17.845223903   15.193943120 XXXX 1      oap1    O  -0.800
O268    35.823489547   10.967942423   15.162363922 XXXX 1      oap1    O  -0.800
O269    31.004322170   31.679113459   23.422479128 XXXX 1      oap1    O  -0.800
O270    30.684767925   24.812120924   23.469083680 XXXX 1      oap1    O  -0.800
O271    30.902176133   17.881175363   23.412464929 XXXX 1      oap1    O  -0.800
O272    30.929193145   11.043119280   23.423629350 XXXX 1      oap1    O  -0.800
O289    30.606933059   31.944721653    1.564351770 XXXX 1      oap1    O  -0.800
O290    31.543507505   22.218423398    0.240865447 XXXX 1      oap1    O  -0.800
O291    32.211449412   16.287081972    2.410019000 XXXX 1      oap1    O  -0.800
O292    31.728891507    9.960954910    2.597523216 XXXX 1      oap1    O  -0.800
O293    27.232335448   29.198147636   10.052960354 XXXX 1      oap1    O  -0.800
O294    27.455501421   22.292896150   10.267049803 XXXX 1      oap1    O  -0.800
O295    27.443103348   15.429508664   10.513678640 XXXX 1      oap1    O  -0.800
O296    27.445828551    8.514036977   10.221906141 XXXX 1      oap1    O  -0.800
O297    22.628138079   29.056279918   18.388987390 XXXX 1      oap1    O  -0.800
O298    22.677792144   22.241815551   18.222520650 XXXX 1      oap1    O  -0.800
O299    22.776982029   15.410023527   18.484316482 XXXX 1      oap1    O  -0.800
O300    22.828622047    8.612026144   18.453662007 XXXX 1      oap1    O  -0.800
O301    18.057549221   29.347533285   26.677772773 XXXX 1      oap1    O  -0.800
O302    18.134243415   22.387543317   26.526806282 XXXX 1      oap1    O  -0.800
O303    17.941369292   15.627991835   26.968919691 XXXX 1      oap1    O  -0.800
O304    18.120037021    8.513534884   26.570134265 XXXX 1      oap1    O  -0.800
O309    36.892241760   29.175530866   10.017770577 XXXX 1      oap1    O  -0.800
O310    36.906018345   22.343348869   10.522852015 XXXX 1      oap1    O  -0.800
O311    36.784692034   15.259848546   10.172124641 XXXX 1      oap1    O  -0.800
O312    36.697376448    8.468736925   10.282477170 XXXX 1      oap1    O  -0.800
O313    32.241111785   29.048884721   18.155326411 XXXX 1      oap1    O  -0.800
O314    32.078393727   22.246539667   18.248902717 XXXX 1      oap1    O  -0.800
O315    32.124792571   15.414654085   18.543899925 XXXX 1      oap1    O  -0.800
O316    32.167497555    8.541456051   18.318136888 XXXX 1      oap1    O  -0.800
O317    27.372251898   29.024178392   26.697433033 XXXX 1      oap1    O  -0.800
O318    27.146784787   22.462766280   26.644382952 XXXX 1      oap1    O  -0.800
O319    27.268048707   15.462907068   26.478435340 XXXX 1      oap1    O  -0.800
O320    27.438022700    8.714284565   26.854499196 XXXX 1      oap1    O  -0.800
O333    36.878951948   29.123915658   26.477691650 XXXX 1      oap1    O  -0.800
O334    36.873788771   22.343228901   26.455491980 XXXX 1      oap1    O  -0.800
O335    36.889933538   15.612751147   26.889497873 XXXX 1      oap1    O  -0.800
O336    36.926210962    8.638109539   26.822548492 XXXX 1      oap1    O  -0.800
O341    26.219574807   29.245260246    5.579787203 XXXX 1      oap1    O  -0.800
O342    26.469335843   22.212946680    5.507007772 XXXX 1      oap1    O  -0.800
O343    26.302082896   15.515882107    5.425646320 XXXX 1      oap1    O  -0.800
O344    26.262179607    8.641917394    6.016684833 XXXX 1      oap1    O  -0.800
O345    21.742651357   29.059171507   13.835967995 XXXX 1      oap1    O  -0.800
O346    21.727980601   22.251419147   13.929623866 XXXX 1      oap1    O  -0.800
O347    21.969590333   15.280554273   13.916413560 XXXX 1      oap1    O  -0.800
O348    21.741122004    8.632594238   13.813017818 XXXX 1      oap1    O  -0.800
O349    17.128580065   29.190501345   21.932833373 XXXX 1      oap1    O  -0.800
O350    17.076394459   22.119482999   22.081442727 XXXX 1      oap1    O  -0.800
O351    17.300725138   15.249217810   22.151169518 XXXX 1      oap1    O  -0.800
O352    17.088303921    8.548760518   22.110600581 XXXX 1      oap1    O  -0.800
O357    35.733984761   29.091184847    5.541810926 XXXX 1      oap1    O  -0.800
O358    35.835053729   22.232193458    5.810352075 XXXX 1      oap1    O  -0.800
O359    35.710017796   15.463019418    5.643395600 XXXX 1      oap1    O  -0.800
O360    35.897560606    8.576388941    5.645551008 XXXX 1      oap1    O  -0.800
O361    31.111755763   29.079842916   13.768091980 XXXX 1      oap1    O  -0.800
O362    31.331382823   22.115780140   13.891140991 XXXX 1      oap1    O  -0.800
O363    31.346061146   15.350455789   13.828712846 XXXX 1      oap1    O  -0.800
O364    31.347503998    8.459060834   13.935992524 XXXX 1      oap1    O  -0.800
O365    26.442809571   29.172655129   21.991825948 XXXX 1      oap1    O  -0.800
O366    26.475550009   22.289510082   21.881827060 XXXX 1      oap1    O  -0.800
O367    26.593080222   15.339710532   22.091564897 XXXX 1      oap1    O  -0.800
O368    26.627016828    8.537093865   21.989379232 XXXX 1      oap1    O  -0.800
O381    35.753674953   29.140274866   21.851018321 XXXX 1      oap1    O  -0.800
O382    35.719825638   22.334906615   22.048714977 XXXX 1      oap1    O  -0.800
O383    35.784866047   15.485224473   21.981443766 XXXX 1      oap1    O  -0.800
O384    35.861872565    8.582020264   22.171172018 XXXX 1      oap1    O  -0.800
O389    30.983144795   29.275939773    7.002911947 XXXX 1      oap1    O  -0.800
O390    30.836919923   22.165831053    7.271809431 XXXX 1      oap1    O  -0.800
O391    30.819857729   15.317182987    7.252059944 XXXX 1      oap1    O  -0.800
O392    31.081903118    8.594744260    7.187614050 XXXX 1      oap1    O  -0.800
O393    26.184442281   29.169209593   15.043682317 XXXX 1      oap1    O  -0.800
O394    25.942248887   22.251596419   15.331617012 XXXX 1      oap1    O  -0.800
O395    26.214785113   15.249889974   15.387266565 XXXX 1      oap1    O  -0.800
O396    26.254921461    8.611831106   15.264068663 XXXX 1      oap1    O  -0.800
O397    21.397836720   29.216359944   23.313459477 XXXX 1      oap1    O  -0.800
O398    21.275402951   22.363058160   23.303364970 XXXX 1      oap1    O  -0.800
O399    21.462701173   15.512158059   23.305195985 XXXX 1      oap1    O  -0.800
O400    21.410767784    8.582742803   23.630399721 XXXX 1      oap1    O  -0.800
O409    35.418664260   29.046471243   15.262129761 XXXX 1      oap1    O  -0.800
O410    35.352930588   22.228872758   15.304612239 XXXX 1      oap1    O  -0.800
O411    35.440070638   15.355048195   15.467270497 XXXX 1      oap1    O  -0.800
O412    35.422491958    8.582755759   15.387227239 XXXX 1      oap1    O  -0.800
O413    30.889561646   29.139407745   23.401119526 XXXX 1      oap1    O  -0.800
O414    30.771282257   22.284195557   23.383247837 XXXX 1      oap1    O  -0.800
O415    30.915978125   15.469194245   23.439904870 XXXX 1      oap1    O  -0.800
O416    30.934810169    8.482220729   23.354654480 XXXX 1      oap1    O  -0.800
O437    24.308060624   32.899738729    7.396237122 XXXX 1      oap1    O  -0.800
O438    24.417463102   25.619694512    7.873587766 XXXX 1      oap1    O  -0.800
O439    24.423002319   18.733029890    8.002935651 XXXX 1      oap1    O  -0.800
O440    24.160337611   11.921358055    7.993820538 XXXX 1      oap1    O  -0.800
O441    19.620837708   32.544409268   15.911752743 XXXX 1      oap1    O  -0.800
O442    19.485122635   25.732242185   15.849440617 XXXX 1      oap1    O  -0.800
O443    19.476941630   18.953875573   15.930254520 XXXX 1      oap1    O  -0.800
O444    19.474566147   11.970099047   16.180637513 XXXX 1      oap1    O  -0.800
O445    15.030673674   32.769578014   24.175047144 XXXX 1      oap1    O  -0.800
O446    14.998148223   25.828491531   24.004454977 XXXX 1      oap1    O  -0.800
O447    14.912903786   18.852444160   24.332339349 XXXX 1      oap1    O  -0.800
O448    14.976283330   12.020800896   24.174987130 XXXX 1      oap1    O  -0.800
O453    33.857456400   32.679765686    7.450936004 XXXX 1      oap1    O  -0.800
O454    33.812971407   25.668470311    8.101922046 XXXX 1      oap1    O  -0.800
O455    33.770330120   18.696611677    8.105206563 XXXX 1      oap1    O  -0.800
O456    33.778987300   11.915501988    8.093701837 XXXX 1      oap1    O  -0.800
O457    29.065865576   32.594020989   16.094408845 XXXX 1      oap1    O  -0.800
O458    28.853983766   25.740891553   16.043961698 XXXX 1      oap1    O  -0.800
O459    29.001521056   18.845022219   15.822447566 XXXX 1      oap1    O  -0.800
O460    29.109864059   11.864385321   15.996302318 XXXX 1      oap1    O  -0.800
O461    24.309445629   32.541710176   24.302193717 XXXX 1      oap1    O  -0.800
O462    24.245501049   25.680595844   24.063221243 XXXX 1      oap1    O  -0.800
O463    24.401930003   18.864238433   24.247474002 XXXX 1      oap1    O  -0.800
O464    24.286604636   12.103698968   24.157868469 XXXX 1      oap1    O  -0.800
O477    33.650006460   32.595970530   24.129597309 XXXX 1      oap1    O  -0.800
O478    33.772121948   25.745184914   24.185484930 XXXX 1      oap1    O  -0.800
O479    33.655515132   19.039028471   24.055968549 XXXX 1      oap1    O  -0.800
O480    33.769335451   11.963023762   24.237551010 XXXX 1      oap1    O  -0.800
O481    29.797273248   32.554415660    4.392860341 XXXX 1      oap1    O  -0.800
O482    29.971686818   25.482134661    4.221774341 XXXX 1      oap1    O  -0.800
O483    30.317122683   18.945028356    4.226968393 XXXX 1      oap1    O  -0.800
O484    29.869645850   11.875009807    4.201265909 XXXX 1      oap1    O  -0.800
O485    25.197894433   32.668271044   12.253979641 XXXX 1      oap1    O  -0.800
O486    25.477281959   25.790000011   12.470193899 XXXX 1      oap1    O  -0.800
O487    25.380710988   18.671910152   12.203435796 XXXX 1      oap1    O  -0.800
O488    25.374799182   11.925508287   12.434264678 XXXX 1      oap1    O  -0.800
O489    20.594827039   32.574103176   20.359727492 XXXX 1      oap1    O  -0.800
O490    20.442551749   25.592608020   20.406361956 XXXX 1      oap1    O  -0.800
O491    20.693404430   18.945356749   20.513173257 XXXX 1      oap1    O  -0.800
O492    20.678703911   11.938988609   20.591545273 XXXX 1      oap1    O  -0.800
O493    16.232267891   32.723575774   28.856930815 XXXX 1      oap1    O  -0.800
O494    16.078281230   25.831132148   28.543982999 XXXX 1      oap1    O  -0.800
O495    16.181864460   18.905729474   28.634063035 XXXX 1      oap1    O  -0.800
O496    15.857110132   11.943942267   28.588134335 XXXX 1      oap1    O  -0.800
O501    34.790660398   32.563839970   12.400685291 XXXX 1      oap1    O  -0.800
O502    34.618116537   25.696447539   12.427854460 XXXX 1      oap1    O  -0.800
O503    34.811617957   18.776633362   12.405357917 XXXX 1      oap1    O  -0.800
O504    34.723682126   11.998076469   12.243710260 XXXX 1      oap1    O  -0.800
O505    30.243324314   32.658710041   20.618811425 XXXX 1      oap1    O  -0.800
O506    30.090501613   25.702891606   20.610134045 XXXX 1      oap1    O  -0.800
O507    30.104842277   18.801149032   20.655708470 XXXX 1      oap1    O  -0.800
O508    30.076795889   12.012902222   20.550312639 XXXX 1      oap1    O  -0.800
O509    25.113825804   32.571893171   28.634131608 XXXX 1      oap1    O  -0.800
O510    25.174483266   25.784498508   29.155419252 XXXX 1      oap1    O  -0.800
O511    25.343331271   19.097829913   28.743713293 XXXX 1      oap1    O  -0.800
O512    25.484047422   11.991291027   28.651355813 XXXX 1      oap1    O  -0.800
O525    34.676874108   32.464485660   28.591084930 XXXX 1      oap1    O  -0.800
O526    34.592507753   25.789377241   28.786351100 XXXX 1      oap1    O  -0.800
O527    34.762556709   19.093805647   28.736152711 XXXX 1      oap1    O  -0.800
O528    34.758993675   11.944937818   28.545760346 XXXX 1      oap1    O  -0.800
O529    25.911109681   32.815972377    3.048302555 XXXX 1      oap1    O  -0.800
O530    25.701999240   25.294204039    2.757170324 XXXX 1      oap1    O  -0.800
O531    25.193335108   19.149141576    2.913794768 XXXX 1      oap1    O  -0.800
O532    25.580248072   12.088476772    2.699638632 XXXX 1      oap1    O  -0.800
O533    20.940932630   32.444788323   10.787745824 XXXX 1      oap1    O  -0.800
O534    21.151661536   25.554465756   10.651490422 XXXX 1      oap1    O  -0.800
O535    21.179311479   18.784979869   10.990871832 XXXX 1      oap1    O  -0.800
O536    20.785090419   11.968097203   11.082000278 XXXX 1      oap1    O  -0.800
O537    16.338255946   32.612300649   18.971466283 XXXX 1      oap1    O  -0.800
O538    16.115942029   25.820129658   19.159116912 XXXX 1      oap1    O  -0.800
O539    16.308658839   18.717276706   18.993993620 XXXX 1      oap1    O  -0.800
O540    16.213189759   11.936391395   19.130859747 XXXX 1      oap1    O  -0.800
O541    11.472832496   32.703546069   27.320668593 XXXX 1      oap1    O  -0.800
O542    11.399725082   25.750149599   27.333209951 XXXX 1      oap1    O  -0.800
O543    11.490751706   18.897134385   27.345150427 XXXX 1      oap1    O  -0.800
O544    11.395757061   12.103056431   27.368758093 XXXX 1      oap1    O  -0.800
O545    35.137725068   32.743830024    2.909061433 XXXX 1      oap1    O  -0.800
O546    35.505120984   25.563322529    3.261153008 XXXX 1      oap1    O  -0.800
O547    34.994975902   18.984488594    2.983182741 XXXX 1      oap1    O  -0.800
O548    34.926639596   12.008793833    2.881258085 XXXX 1      oap1    O  -0.800
O549    30.539642440   32.573344441   10.915084262 XXXX 1      oap1    O  -0.800
O550    30.197163727   25.897159034   11.060737874 XXXX 1      oap1    O  -0.800
O551    30.237506472   18.811021917   11.027121265 XXXX 1      oap1    O  -0.800
O552    30.106080009   11.996670109   11.091574117 XXXX 1      oap1    O  -0.800
O553    25.619151026   32.565178679   19.210185838 XXXX 1      oap1    O  -0.800
O554    25.731380732   25.829696231   19.102778618 XXXX 1      oap1    O  -0.800
O555    25.628384291   18.816333199   18.997912328 XXXX 1      oap1    O  -0.800
O556    25.665031157   12.045780548   19.266871404 XXXX 1      oap1    O  -0.800
O557    21.077199814   32.567194944   27.303545818 XXXX 1      oap1    O  -0.800
O558    20.801061064   25.791918073   27.061932876 XXXX 1      oap1    O  -0.800
O559    20.660614052   18.875648997   27.059257442 XXXX 1      oap1    O  -0.800
O560    20.896455328   12.110327577   27.296976117 XXXX 1      oap1    O  -0.800
O569    35.009965103   32.626490883   19.231214926 XXXX 1      oap1    O  -0.800
O570    35.135522273   25.696392053   18.902505354 XXXX 1      oap1    O  -0.800
O571    35.228112915   18.847152459   19.203064799 XXXX 1      oap1    O  -0.800
O572    34.861709182   12.047752729   19.144829076 XXXX 1      oap1    O  -0.800
O573    30.124983737   32.522693063   27.029848919 XXXX 1      oap1    O  -0.800
O574    30.192862504   25.681496018   27.152363170 XXXX 1      oap1    O  -0.800
O575    30.149739340   18.946170039   27.289282243 XXXX 1      oap1    O  -0.800
O576    30.377832717   12.016860253   27.371323457 XXXX 1      oap1    O  -0.800
Ca5     28.112256475   35.662066035    7.658404845 XXXX 1      ca+h    Ca  1.500
Ca6     28.121045637   28.679295055    7.584179241 XXXX 1      ca+h    Ca  1.500
Ca7     28.270292576   21.756648713    7.653117333 XXXX 1      ca+h    Ca  1.500
Ca8     28.369485118   14.824024947    7.513033654 XXXX 1      ca+h    Ca  1.500
Ca9     23.524658630   35.424627562   15.820667684 XXXX 1      ca+h    Ca  1.500
Ca10    23.639499180   28.714719416   15.651742170 XXXX 1      ca+h    Ca  1.500
Ca11    23.571447399   21.895827665   15.750555793 XXXX 1      ca+h    Ca  1.500
Ca12    23.389640263   14.907286641   15.943587519 XXXX 1      ca+h    Ca  1.500
Ca13    18.856265419   35.671448121   23.997336956 XXXX 1      ca+h    Ca  1.500
Ca14    18.917331816   28.785602742   23.721013126 XXXX 1      ca+h    Ca  1.500
Ca15    18.738418005   21.940218319   23.885132209 XXXX 1      ca+h    Ca  1.500
Ca16    18.897438092   14.933417624   23.899345185 XXXX 1      ca+h    Ca  1.500
Ca25    32.935322088   35.442767226   15.802932597 XXXX 1      ca+h    Ca  1.500
Ca26    32.963049971   28.724745244   15.819042275 XXXX 1      ca+h    Ca  1.500
Ca27    32.877768080   21.744404141   15.780683285 XXXX 1      ca+h    Ca  1.500
Ca28    32.834163268   14.893305550   15.705718302 XXXX 1      ca+h    Ca  1.500
Ca29    28.352914995   35.546032516   23.961344580 XXXX 1      ca+h    Ca  1.500
Ca30    28.238492504   28.648556001   23.966889877 XXXX 1      ca+h    Ca  1.500
Ca31    28.103176022   21.818519196   23.861993246 XXXX 1      ca+h    Ca  1.500
Ca32    28.232670808   15.061358112   24.071509248 XXXX 1      ca+h    Ca  1.500
Ca49    28.269927387   32.245087881    2.537859075 XXXX 1      ca+h    Ca  1.500
Ca50    28.527920446   25.292091971    2.191574191 XXXX 1      ca+h    Ca  1.500
Ca51    28.718269035   18.586086050    2.288218656 XXXX 1      ca+h    Ca  1.500
Ca52    27.846925594   11.577289920    2.800685452 XXXX 1      ca+h    Ca  1.500
Ca53    23.422320253   32.182564426   10.489195453 XXXX 1      ca+h    Ca  1.500
Ca54    23.562504406   25.223690782   10.349566778 XXXX 1      ca+h    Ca  1.500
Ca55    23.670632902   18.482503645   10.246806486 XXXX 1      ca+h    Ca  1.500
Ca56    23.638851660   11.401154916   10.409603201 XXXX 1      ca+h    Ca  1.500
Ca57    18.775722000   32.179940177   18.365419698 XXXX 1      ca+h    Ca  1.500
Ca58    18.832909150   25.347090431   18.421374636 XXXX 1      ca+h    Ca  1.500
Ca59    18.791624759   18.323222987   18.657037977 XXXX 1      ca+h    Ca  1.500
Ca60    18.686643572   11.466671917   18.621219703 XXXX 1      ca+h    Ca  1.500
Ca61    14.240850109   32.080244180   26.569918885 XXXX 1      ca+h    Ca  1.500
Ca62    14.234334513   25.242357466   26.542680376 XXXX 1      ca+h    Ca  1.500
Ca63    14.054047168   18.469368238   26.587514637 XXXX 1      ca+h    Ca  1.500
Ca64    14.347051635   11.577420724   26.706748075 XXXX 1      ca+h    Ca  1.500
Ca69    32.871757855   32.169333962   10.485416434 XXXX 1      ca+h    Ca  1.500
Ca70    32.963786064   25.285113624   10.340599309 XXXX 1      ca+h    Ca  1.500
Ca71    32.822256944   18.334146136   10.462987875 XXXX 1      ca+h    Ca  1.500
Ca72    32.993407638   11.573539530   10.489074572 XXXX 1      ca+h    Ca  1.500
Ca73    28.171502049   32.110483348   18.489346192 XXXX 1      ca+h    Ca  1.500
Ca74    28.169993287   25.211952689   18.535562107 XXXX 1      ca+h    Ca  1.500
Ca75    28.173299369   18.393228675   18.587931878 XXXX 1      ca+h    Ca  1.500
Ca76    28.352736316   11.495815068   18.531361019 XXXX 1      ca+h    Ca  1.500
Ca77    23.573197484   32.097744282   26.726144836 XXXX 1      ca+h    Ca  1.500
Ca78    23.252821655   25.260769972   26.433214134 XXXX 1      ca+h    Ca  1.500
Ca79    23.521941469   18.406785833   26.640061689 XXXX 1      ca+h    Ca  1.500
Ca80    23.707043904   11.635997660   26.700685750 XXXX 1      ca+h    Ca  1.500
Ca93    33.024304046   32.102729842   26.529068632 XXXX 1      ca+h    Ca  1.500
Ca94    32.824071952   25.328604918   26.765002790 XXXX 1      ca+h    Ca  1.500
Ca95    32.852307224   18.521233592   26.648318941 XXXX 1      ca+h    Ca  1.500
Ca96    33.051246815   11.473125742   26.580186399 XXXX 1      ca+h    Ca  1.500
Ca97    27.695733681   28.772723100    2.124303890 XXXX 1      ca+h    Ca  1.500
Ca98    27.867655071   21.648531565    2.565300632 XXXX 1      ca+h    Ca  1.500
Ca99    28.198702688   15.022284798    2.617343345 XXXX 1      ca+h    Ca  1.500
Ca100   28.304786480    8.168075600    2.551512374 XXXX 1      ca+h    Ca  1.500
Ca101   23.493346775   28.744928631   10.462863903 XXXX 1      ca+h    Ca  1.500
Ca102   23.450464515   21.811923876   10.357291698 XXXX 1      ca+h    Ca  1.500
Ca103   23.515717092   14.858279843   10.538181454 XXXX 1      ca+h    Ca  1.500
Ca104   23.595784175    7.978691379   10.411255862 XXXX 1      ca+h    Ca  1.500
Ca105   18.823304014   28.693556163   18.604616221 XXXX 1      ca+h    Ca  1.500
Ca106   18.915553012   21.893783754   18.511142225 XXXX 1      ca+h    Ca  1.500
Ca107   18.992440056   14.921966938   18.339710337 XXXX 1      ca+h    Ca  1.500
Ca108   18.839603098    8.103977209   18.640387179 XXXX 1      ca+h    Ca  1.500
Ca109   14.142302305   28.668087532   26.744128359 XXXX 1      ca+h    Ca  1.500
Ca110   13.995551945   21.802682947   26.717029264 XXXX 1      ca+h    Ca  1.500
Ca111   14.060347327   15.006730089   26.847223202 XXXX 1      ca+h    Ca  1.500
Ca112   14.116969825    8.122121431   26.964845490 XXXX 1      ca+h    Ca  1.500
Ca117   32.885335064   28.731289991   10.319943777 XXXX 1      ca+h    Ca  1.500
Ca118   33.102050630   21.852100879   10.671565114 XXXX 1      ca+h    Ca  1.500
Ca119   32.779656229   14.931265883   10.576865986 XXXX 1      ca+h    Ca  1.500
Ca120   33.126989168    7.995989132   10.385055744 XXXX 1      ca+h    Ca  1.500
Ca121   28.322237718   28.707164498   18.600326680 XXXX 1      ca+h    Ca  1.500
Ca122   28.183012602   21.727947155   18.354082543 XXXX 1      ca+h    Ca  1.500
Ca123   28.150147055   14.955976912   18.520233670 XXXX 1      ca+h    Ca  1.500
Ca124   28.197415261    8.056104391   18.641123420 XXXX 1      ca+h    Ca  1.500
Ca125   23.547653009   28.700397394   26.568252096 XXXX 1      ca+h    Ca  1.500
Ca126   23.700895151   21.873919762   26.713285126 XXXX 1      ca+h    Ca  1.500
Ca127   23.523659280   15.013263100   26.658407207 XXXX 1      ca+h    Ca  1.500
Ca128   23.523757978    8.243688128   26.796964906 XXXX 1      ca+h    Ca  1.500
Ca141   33.033791597   28.812121579   26.869595004 XXXX 1      ca+h    Ca  1.500
Ca142   32.762813384   21.890786294   26.723781562 XXXX 1      ca+h    Ca  1.500
Ca143   32.864663039   15.059555936   26.751788386 XXXX 1      ca+h    Ca  1.500
Ca144   32.874579387    8.023537659   26.766878816 XXXX 1      ca+h    Ca  1.500
Ca149   28.135758346   32.249358308    7.466236371 XXXX 1      ca+h    Ca  1.500
Ca150   28.229165934   25.266903275    7.840590067 XXXX 1      ca+h    Ca  1.500
Ca151   28.130239577   18.255669746    7.724273967 XXXX 1      ca+h    Ca  1.500
Ca152   28.152957261   11.535795232    7.806351167 XXXX 1      ca+h    Ca  1.500
Ca153   23.656633970   32.046953722   15.766272878 XXXX 1      ca+h    Ca  1.500
Ca154   23.567010706   25.323149173   15.792276577 XXXX 1      ca+h    Ca  1.500
Ca155   23.544088191   18.365025325   15.920977818 XXXX 1      ca+h    Ca  1.500
Ca156   23.519838417   11.475307018   15.837694910 XXXX 1      ca+h    Ca  1.500
Ca157   18.904905969   32.167166292   23.989105262 XXXX 1      ca+h    Ca  1.500
Ca158   18.770641723   25.367105013   23.952326999 XXXX 1      ca+h    Ca  1.500
Ca159   18.975917727   18.416830252   23.994321278 XXXX 1      ca+h    Ca  1.500
Ca160   18.843058713   11.641138106   24.010295443 XXXX 1      ca+h    Ca  1.500
Ca169   32.855202267   32.036819522   15.880389170 XXXX 1      ca+h    Ca  1.500
Ca170   32.849031081   25.223866027   15.650384546 XXXX 1      ca+h    Ca  1.500
Ca171   33.050758447   18.440462103   15.894560873 XXXX 1      ca+h    Ca  1.500
Ca172   32.964518061   11.543662457   15.948265591 XXXX 1      ca+h    Ca  1.500
Ca173   28.128010944   32.154583739   23.952204604 XXXX 1      ca+h    Ca  1.500
Ca174   28.291244866   25.312782338   23.982743983 XXXX 1      ca+h    Ca  1.500
Ca175   28.173412279   18.387360434   24.053693082 XXXX 1      ca+h    Ca  1.500
Ca176   28.186959694   11.545864481   24.153968237 XXXX 1      ca+h    Ca  1.500
Ca197   22.220749640   33.946465256    6.772270464 XXXX 1      ca+h    Ca  1.500
Ca198   22.233907972   26.936398707    6.733448453 XXXX 1      ca+h    Ca  1.500
Ca199   22.375779752   19.887171986    6.868421212 XXXX 1      ca+h    Ca  1.500
Ca200   22.267656413   13.268178443    6.860153112 XXXX 1      ca+h    Ca  1.500
Ca201   17.668500918   33.867668619   15.003943011 XXXX 1      ca+h    Ca  1.500
Ca202   17.708071289   26.910969040   14.940114896 XXXX 1      ca+h    Ca  1.500
Ca203   17.550308461   20.155438631   15.061122807 XXXX 1      ca+h    Ca  1.500
Ca204   17.570534034   13.193534839   15.149062719 XXXX 1      ca+h    Ca  1.500
Ca205   12.984663277   33.898708370   23.181983893 XXXX 1      ca+h    Ca  1.500
Ca206   12.829122088   26.967890233   23.311224788 XXXX 1      ca+h    Ca  1.500
Ca207   12.697827243   20.163969706   23.126964514 XXXX 1      ca+h    Ca  1.500
Ca208   12.893555854   13.250387234   23.399855521 XXXX 1      ca+h    Ca  1.500
Ca213   31.633735056   33.942618498    6.774324602 XXXX 1      ca+h    Ca  1.500
Ca214   31.682271744   26.943870035    6.980561823 XXXX 1      ca+h    Ca  1.500
Ca215   31.640692188   19.965732320    7.019585306 XXXX 1      ca+h    Ca  1.500
Ca216   31.678404316   13.077211922    6.967146999 XXXX 1      ca+h    Ca  1.500
Ca217   26.900920621   33.888640903   14.952238567 XXXX 1      ca+h    Ca  1.500
Ca218   26.997518884   27.019314657   15.021418905 XXXX 1      ca+h    Ca  1.500
Ca219   27.042738962   20.001085690   14.955223979 XXXX 1      ca+h    Ca  1.500
Ca220   26.852490235   13.123873109   15.098861039 XXXX 1      ca+h    Ca  1.500
Ca221   22.261096066   33.870781358   23.240233871 XXXX 1      ca+h    Ca  1.500
Ca222   22.311293519   26.998921371   23.039432089 XXXX 1      ca+h    Ca  1.500
Ca223   22.222694902   20.157764749   23.177409858 XXXX 1      ca+h    Ca  1.500
Ca224   22.243897758   13.224671367   23.300082038 XXXX 1      ca+h    Ca  1.500
Ca233   36.357170030   33.845295542   15.039937587 XXXX 1      ca+h    Ca  1.500
Ca234   36.412750592   26.916373870   15.105893897 XXXX 1      ca+h    Ca  1.500
Ca235   36.374255832   20.038086601   15.112986551 XXXX 1      ca+h    Ca  1.500
Ca236   36.451107302   13.294379297   15.099242941 XXXX 1      ca+h    Ca  1.500
Ca237   31.770310626   33.895775440   23.156540072 XXXX 1      ca+h    Ca  1.500
Ca238   31.749874393   27.061563669   23.434705515 XXXX 1      ca+h    Ca  1.500
Ca239   31.587692652   20.097348923   23.167264581 XXXX 1      ca+h    Ca  1.500
Ca240   31.723200601   13.286809869   23.214947483 XXXX 1      ca+h    Ca  1.500
P5      25.111982069   34.004398541    8.095569193 XXXX 1      pap     P   1.000
P6      25.148738162   26.915247367    8.178264684 XXXX 1      pap     P   1.000
P7      25.163025850   20.061690055    8.073092532 XXXX 1      pap     P   1.000
P8      25.060904786   13.145840332    8.314273784 XXXX 1      pap     P   1.000
P9      20.446667908   33.764415770   16.381522454 XXXX 1      pap     P   1.000
P10     20.423268774   26.899403683   16.282390236 XXXX 1      pap     P   1.000
P11     20.380402833   20.082170662   16.380521015 XXXX 1      pap     P   1.000
P12     20.432875297   13.164020683   16.400301686 XXXX 1      pap     P   1.000
P13     15.808437475   33.979213541   24.535722694 XXXX 1      pap     P   1.000
P14     15.759478615   27.073573107   24.350764946 XXXX 1      pap     P   1.000
P15     15.732335325   20.119143615   24.551261972 XXXX 1      pap     P   1.000
P16     15.821628299   13.262936018   24.531720723 XXXX 1      pap     P   1.000
P21     34.569282564   33.843822679    8.134039940 XXXX 1      pap     P   1.000
P22     34.487030766   27.009091094    8.325581869 XXXX 1      pap     P   1.000
P23     34.484850321   19.998401689    8.259500711 XXXX 1      pap     P   1.000
P24     34.494534007   13.271012726    8.474043832 XXXX 1      pap     P   1.000
P25     29.823766726   33.828909189   16.433325372 XXXX 1      pap     P   1.000
P26     29.780774848   26.905938740   16.309313142 XXXX 1      pap     P   1.000
P27     29.831909510   20.039513887   16.363121887 XXXX 1      pap     P   1.000
P28     29.815817548   13.174855823   16.341993420 XXXX 1      pap     P   1.000
P29     25.080689645   33.849532861   24.554791171 XXXX 1      pap     P   1.000
P30     25.069519028   26.891044010   24.438603534 XXXX 1      pap     P   1.000
P31     25.126115801   20.142094225   24.467599612 XXXX 1      pap     P   1.000
P32     25.090781584   13.387266106   24.458796800 XXXX 1      pap     P   1.000
P45     34.594187805   33.827474417   24.443157848 XXXX 1      pap     P   1.000
P46     34.624497615   26.974912920   24.553784581 XXXX 1      pap     P   1.000
P47     34.451010378   20.259639485   24.494144202 XXXX 1      pap     P   1.000
P48     34.608826741   13.198747990   24.571502116 XXXX 1      pap     P   1.000
O581    25.113208213   33.730314455    9.590673459 XXXX 1      oap1    O  -0.800
O582    25.195574842   26.941245797    9.721794368 XXXX 1      oap1    O  -0.800
O583    25.230448491   20.401363611    9.521307766 XXXX 1      oap1    O  -0.800
O584    25.169623113   13.284787147    9.851087737 XXXX 1      oap1    O  -0.800
O585    20.466137875   33.716066694   17.890084513 XXXX 1      oap1    O  -0.800
O586    20.298581585   27.046479076   17.827275038 XXXX 1      oap1    O  -0.800
O587    20.430575860   20.116757695   17.908815769 XXXX 1      oap1    O  -0.800
O588    20.696538407   13.284651706   17.925313765 XXXX 1      oap1    O  -0.800
O589    16.059206028   33.810685011   26.081545001 XXXX 1      oap1    O  -0.800
O590    15.876052397   27.032605946   25.876670411 XXXX 1      oap1    O  -0.800
O591    15.804231870   20.402691392   26.032804533 XXXX 1      oap1    O  -0.800
O592    15.753625131   13.447524860   26.059056966 XXXX 1      oap1    O  -0.800
O597    34.489516963   33.782697349    9.683777329 XXXX 1      oap1    O  -0.800
O598    34.550462526   27.207309528    9.803765424 XXXX 1      oap1    O  -0.800
O599    34.517186459   20.223367771    9.809789054 XXXX 1      oap1    O  -0.800
O600    34.480567294   13.433343713   10.027120375 XXXX 1      oap1    O  -0.800
O601    29.823512485   33.907663376   17.915947346 XXXX 1      oap1    O  -0.800
O602    29.970894232   26.964045339   17.823597059 XXXX 1      oap1    O  -0.800
O603    29.808735580   20.061392696   17.919622052 XXXX 1      oap1    O  -0.800
O604    29.841434129   13.251424195   17.863813524 XXXX 1      oap1    O  -0.800
O605    25.294239335   33.959580132   26.019720775 XXXX 1      oap1    O  -0.800
O606    25.186333134   26.888203020   26.004016031 XXXX 1      oap1    O  -0.800
O607    25.267878179   20.153039889   26.015575286 XXXX 1      oap1    O  -0.800
O608    25.157683164   13.506574718   25.992160869 XXXX 1      oap1    O  -0.800
O621    34.849024172   33.778164010   26.004203073 XXXX 1      oap1    O  -0.800
O622    34.652905826   27.073114539   26.093336964 XXXX 1      oap1    O  -0.800
O623    34.471509994   20.355068903   25.994650614 XXXX 1      oap1    O  -0.800
O624    34.640083351   13.313930200   26.111533475 XXXX 1      oap1    O  -0.800
O629    26.495448527   34.055144462    7.508362495 XXXX 1      oap1    O  -0.800
O630    26.517741240   26.853463456    7.494732531 XXXX 1      oap1    O  -0.800
O631    26.573899030   20.030122606    7.451769655 XXXX 1      oap1    O  -0.800
O632    26.480007434   13.139817793    7.681390506 XXXX 1      oap1    O  -0.800
O633    21.907664184   33.705297041   15.749824113 XXXX 1      oap1    O  -0.800
O634    21.833216873   26.798337022   15.646649661 XXXX 1      oap1    O  -0.800
O635    21.725311846   20.099684288   15.746682869 XXXX 1      oap1    O  -0.800
O636    21.801385273   12.971828490   15.682431617 XXXX 1      oap1    O  -0.800
O637    17.195331285   34.015996366   23.843155899 XXXX 1      oap1    O  -0.800
O638    17.125799761   27.071940979   23.614327719 XXXX 1      oap1    O  -0.800
O639    17.146710685   20.110590521   23.963358930 XXXX 1      oap1    O  -0.800
O640    17.203017126   13.206381161   23.949527208 XXXX 1      oap1    O  -0.800
O645    35.996622519   33.890555259    7.551480182 XXXX 1      oap1    O  -0.800
O646    35.851834201   26.919447448    7.687694629 XXXX 1      oap1    O  -0.800
O647    35.974170035   19.917403006    7.728583263 XXXX 1      oap1    O  -0.800
O648    35.888061421   13.135087236    7.928785850 XXXX 1      oap1    O  -0.800
O649    31.229053484   33.760949649   15.762125357 XXXX 1      oap1    O  -0.800
O650    31.181135700   26.822491940   15.607056754 XXXX 1      oap1    O  -0.800
O651    31.243291864   19.993118874   15.770505644 XXXX 1      oap1    O  -0.800
O652    31.294573979   13.123757959   15.812524767 XXXX 1      oap1    O  -0.800
O653    26.439457526   33.865123146   23.822025599 XXXX 1      oap1    O  -0.800
O654    26.446041732   26.877062828   23.693176543 XXXX 1      oap1    O  -0.800
O655    26.496505686   20.146251444   23.746130620 XXXX 1      oap1    O  -0.800
O656    26.446164578   13.268840130   23.757371059 XXXX 1      oap1    O  -0.800
O669    35.904711974   33.892781299   23.645017404 XXXX 1      oap1    O  -0.800
O670    36.026821373   27.016706824   23.981030742 XXXX 1      oap1    O  -0.800
O671    35.877009648   20.208024229   23.913679795 XXXX 1      oap1    O  -0.800
O672    35.977735226   13.251913261   23.902361319 XXXX 1      oap1    O  -0.800
Ca241   32.097091119   34.828388954    2.730288884 XXXX 1      ca+h    Ca  1.500
Ca242   32.463454577   27.827092186    3.201916953 XXXX 1      ca+h    Ca  1.500
Ca243   31.785344404   19.793547958    0.321676833 XXXX 1      ca+h    Ca  1.500
Ca244   31.687974910   13.027547006    0.484132081 XXXX 1      ca+h    Ca  1.500
Ca245   27.046856828   33.799323123   10.950332503 XXXX 1      ca+h    Ca  1.500
Ca246   27.122275797   26.981889131   11.095929526 XXXX 1      ca+h    Ca  1.500
Ca247   27.272409997   19.955884229   10.892490300 XXXX 1      ca+h    Ca  1.500
Ca248   27.137458056   13.253422706   11.331942312 XXXX 1      ca+h    Ca  1.500
Ca249   22.426005085   33.900664912   19.198299738 XXXX 1      ca+h    Ca  1.500
Ca250   22.465178217   26.919966542   19.116107862 XXXX 1      ca+h    Ca  1.500
Ca251   22.410052875   20.114140750   19.173809466 XXXX 1      ca+h    Ca  1.500
Ca252   22.531845425   13.146172511   19.341240351 XXXX 1      ca+h    Ca  1.500
Ca253   17.768851444   33.891316411   27.499586223 XXXX 1      ca+h    Ca  1.500
Ca254   17.779886045   27.116742735   27.319851547 XXXX 1      ca+h    Ca  1.500
Ca255   17.876234760   20.212865038   27.296309696 XXXX 1      ca+h    Ca  1.500
Ca256   17.930511076   13.286209025   27.593048556 XXXX 1      ca+h    Ca  1.500
Ca261   36.636207883   33.914062430   10.947724937 XXXX 1      ca+h    Ca  1.500
Ca262   36.520590032   27.084357971   11.069249161 XXXX 1      ca+h    Ca  1.500
Ca263   36.624944678   20.084115623   11.098042554 XXXX 1      ca+h    Ca  1.500
Ca264   36.565015434   13.226420435   11.076675941 XXXX 1      ca+h    Ca  1.500
Ca265   31.897103251   33.817593616   19.115908630 XXXX 1      ca+h    Ca  1.500
Ca266   31.873325250   26.909691234   19.364926309 XXXX 1      ca+h    Ca  1.500
Ca267   31.777903905   20.072481612   19.235551784 XXXX 1      ca+h    Ca  1.500
Ca268   31.896677107   13.247723100   19.197195894 XXXX 1      ca+h    Ca  1.500
Ca269   27.353309578   33.785821290   27.205142817 XXXX 1      ca+h    Ca  1.500
Ca270   27.009880608   26.815065158   27.522677460 XXXX 1      ca+h    Ca  1.500
Ca271   27.183466266   20.172145385   27.619763249 XXXX 1      ca+h    Ca  1.500
Ca272   27.201256221   13.367719121   27.443245717 XXXX 1      ca+h    Ca  1.500
Ca285   36.779153455   33.603822548   27.386113492 XXXX 1      ca+h    Ca  1.500
Ca286   36.662011508   27.068731439   27.313148076 XXXX 1      ca+h    Ca  1.500
Ca287   36.516542867   20.288164845   27.334418658 XXXX 1      ca+h    Ca  1.500
Ca288   36.669387428   13.215818047   27.288308462 XXXX 1      ca+h    Ca  1.500
P49     29.337520960   33.923757118    4.773632413 XXXX 1      pap     P   1.000
P50     29.440515066   26.818890209    4.839466276 XXXX 1      pap     P   1.000
P51     29.340885333   19.953389670    4.886628715 XXXX 1      pap     P   1.000
P52     29.350375813   13.151291984    4.893295083 XXXX 1      pap     P   1.000
P53     24.498305321   33.920719301   12.781983254 XXXX 1      pap     P   1.000
P54     24.637366168   27.004839997   12.811851129 XXXX 1      pap     P   1.000
P55     24.689042092   19.925814230   12.799945803 XXXX 1      pap     P   1.000
P56     24.569435145   13.130846870   12.905931566 XXXX 1      pap     P   1.000
P57     19.916059479   33.838990383   20.947561186 XXXX 1      pap     P   1.000
P58     19.910447904   26.875706516   20.947712807 XXXX 1      pap     P   1.000
P59     19.895749068   20.148341698   20.980742411 XXXX 1      pap     P   1.000
P60     19.922500031   13.229606343   20.980624821 XXXX 1      pap     P   1.000
P61     15.378158944   33.949498852   29.233155640 XXXX 1      pap     P   1.000
P62     15.135422613   26.993408130   29.077398697 XXXX 1      pap     P   1.000
P63     15.333100233   20.091820949   29.106517031 XXXX 1      pap     P   1.000
P64     15.296963376   13.178330409   29.241524499 XXXX 1      pap     P   1.000
P69     34.058310083   33.787736576   12.872860198 XXXX 1      pap     P   1.000
P70     33.931413064   26.994603443   12.841346663 XXXX 1      pap     P   1.000
P71     34.067998709   20.024473997   12.929747483 XXXX 1      pap     P   1.000
P72     34.021754722   13.174718152   12.927410983 XXXX 1      pap     P   1.000
P73     29.374752514   33.819201605   20.983968641 XXXX 1      pap     P   1.000
P74     29.279450364   26.932993839   20.990781347 XXXX 1      pap     P   1.000
P75     29.339929159   20.048947577   21.026609487 XXXX 1      pap     P   1.000
P76     29.336307216   13.207777142   21.079236247 XXXX 1      pap     P   1.000
P77     24.867901408   33.950712195   29.254269399 XXXX 1      pap     P   1.000
P78     24.339530868   27.072527436   29.050695360 XXXX 1      pap     P   1.000
P79     24.536315514   20.355472158   29.193167883 XXXX 1      pap     P   1.000
P80     24.698711776   13.196137162   29.113249041 XXXX 1      pap     P   1.000
P93     34.023292964   33.795017019   29.049027201 XXXX 1      pap     P   1.000
P94     33.864534642   27.080603729   29.221261129 XXXX 1      pap     P   1.000
P95     33.863392078   20.262297922   29.199291578 XXXX 1      pap     P   1.000
P96     34.248737952   13.253424225   29.267026081 XXXX 1      pap     P   1.000
O673    27.920411393   34.158885853    4.234144086 XXXX 1      oap1    O  -0.800
O674    28.228293758   27.190512930    3.880220221 XXXX 1      oap1    O  -0.800
O675    27.963178313   19.831507277    4.142131073 XXXX 1      oap1    O  -0.800
O676    27.903640008   13.353415268    4.389999925 XXXX 1      oap1    O  -0.800
O677    23.192253998   33.997677786   11.947131925 XXXX 1      oap1    O  -0.800
O678    23.285863281   26.881152170   12.063617812 XXXX 1      oap1    O  -0.800
O679    23.385087330   20.181272096   12.045937362 XXXX 1      oap1    O  -0.800
O680    23.241290161   13.043461063   12.093535994 XXXX 1      oap1    O  -0.800
O681    18.503178807   33.925877417   20.292495756 XXXX 1      oap1    O  -0.800
O682    18.538807563   27.134813018   20.346244975 XXXX 1      oap1    O  -0.800
O683    18.544296391   20.101311205   20.313877260 XXXX 1      oap1    O  -0.800
O684    18.547335355   13.223922670   20.307136250 XXXX 1      oap1    O  -0.800
O685    14.030381564   33.788529232   28.459233298 XXXX 1      oap1    O  -0.800
O686    13.825953894   26.753729677   28.305909457 XXXX 1      oap1    O  -0.800
O687    13.935216473   20.108751386   28.443646279 XXXX 1      oap1    O  -0.800
O688    13.856534187   13.477174298   28.664226661 XXXX 1      oap1    O  -0.800
O693    32.701779079   33.870125819   12.197761326 XXXX 1      oap1    O  -0.800
O694    32.559780542   26.941243918   12.128239731 XXXX 1      oap1    O  -0.800
O695    32.670596442   20.115423290   12.281842789 XXXX 1      oap1    O  -0.800
O696    32.616941319   13.229425816   12.284594751 XXXX 1      oap1    O  -0.800
O697    28.113911598   33.788315845   20.077059761 XXXX 1      oap1    O  -0.800
O698    28.031832858   26.971414555   20.167638004 XXXX 1      oap1    O  -0.800
O699    28.044541426   20.048501565   20.210835983 XXXX 1      oap1    O  -0.800
O700    27.990344038   13.230426368   20.286162957 XXXX 1      oap1    O  -0.800
O701    23.500907615   34.435504351   28.744000016 XXXX 1      oap1    O  -0.800
O702    23.252219235   26.892941226   28.025332894 XXXX 1      oap1    O  -0.800
O703    23.168863866   20.337595592   28.476976348 XXXX 1      oap1    O  -0.800
O704    23.319082111   13.341402004   28.449731141 XXXX 1      oap1    O  -0.800
O717    32.711643166   33.830874328   28.295788477 XXXX 1      oap1    O  -0.800
O718    32.466174408   27.045401685   28.616174099 XXXX 1      oap1    O  -0.800
O719    32.547751333   20.299448909   28.438095092 XXXX 1      oap1    O  -0.800
O720    32.837462302   13.531056302   28.809113259 XXXX 1      oap1    O  -0.800
O721    29.269881100   33.982166331    6.323834387 XXXX 1      oap1    O  -0.800
O722    29.142757320   26.804639336    6.334039122 XXXX 1      oap1    O  -0.800
O723    29.247218206   19.877637422    6.396666389 XXXX 1      oap1    O  -0.800
O724    29.331453942   13.008617271    6.405814565 XXXX 1      oap1    O  -0.800
O725    24.352646269   33.787657496   14.331848400 XXXX 1      oap1    O  -0.800
O726    24.472366429   27.066382878   14.376145598 XXXX 1      oap1    O  -0.800
O727    24.447471488   19.860757066   14.369978645 XXXX 1      oap1    O  -0.800
O728    24.380458899   13.237580209   14.441824486 XXXX 1      oap1    O  -0.800
O729    19.904853177   33.845093428   22.547977452 XXXX 1      oap1    O  -0.800
O730    19.848171712   26.820918400   22.511017154 XXXX 1      oap1    O  -0.800
O731    19.714624935   20.220025175   22.474473803 XXXX 1      oap1    O  -0.800
O732    19.719223468   13.227180473   22.554397502 XXXX 1      oap1    O  -0.800
O733    15.130519509   33.976355241   30.707701009 XXXX 1      oap1    O  -0.800
O734    14.928481057   27.021001129   30.630389754 XXXX 1      oap1    O  -0.800
O735    15.330558309   20.066814230   30.624164225 XXXX 1      oap1    O  -0.800
O736    15.366100555   13.135656093   30.767644773 XXXX 1      oap1    O  -0.800
O741    33.949263540   33.762667202   14.377927075 XXXX 1      oap1    O  -0.800
O742    33.788153963   26.997844793   14.384020830 XXXX 1      oap1    O  -0.800
O743    33.935449889   19.996643069   14.453367123 XXXX 1      oap1    O  -0.800
O744    33.937644587   13.076260613   14.420825259 XXXX 1      oap1    O  -0.800
O745    29.036682210   33.767755232   22.495925383 XXXX 1      oap1    O  -0.800
O746    28.904672392   26.951619872   22.481564916 XXXX 1      oap1    O  -0.800
O747    29.061053500   20.038210481   22.552045583 XXXX 1      oap1    O  -0.800
O748    29.112525744   13.136126043   22.600593484 XXXX 1      oap1    O  -0.800
O749    24.969997012   33.804345144   30.812706041 XXXX 1      oap1    O  -0.800
O750    23.600884730   27.355312542   30.365034831 XXXX 1      oap1    O  -0.800
O751    24.444171500   20.427887171   30.749129896 XXXX 1      oap1    O  -0.800
O752    24.660520236   13.380737514   30.644736554 XXXX 1      oap1    O  -0.800
O765    33.870058983   33.825683506   30.627854989 XXXX 1      oap1    O  -0.800
O766    33.903875687   27.109497324   30.766197937 XXXX 1      oap1    O  -0.800
O767    33.732914349   20.301478278   30.743281409 XXXX 1      oap1    O  -0.800
O768    34.245229557   13.250094816   30.804504485 XXXX 1      oap1    O  -0.800
Ca289   25.698828178   34.136356164    5.063297604 XXXX 1      ca+h    Ca  1.500
Ca290   25.859005713   26.955840022    5.021302470 XXXX 1      ca+h    Ca  1.500
Ca291   25.782248861   19.850268192    5.073412101 XXXX 1      ca+h    Ca  1.500
Ca292   25.370721349   13.366523423    5.054519356 XXXX 1      ca+h    Ca  1.500
Ca293   21.149211372   33.851912656   13.134220005 XXXX 1      ca+h    Ca  1.500
Ca294   21.091916263   26.914783564   13.210700328 XXXX 1      ca+h    Ca  1.500
Ca295   21.275075283   19.992543293   13.175140041 XXXX 1      ca+h    Ca  1.500
Ca296   21.146273270   13.259340844   13.184632437 XXXX 1      ca+h    Ca  1.500
Ca297   16.508839231   33.939276467   21.415005972 XXXX 1      ca+h    Ca  1.500
Ca298   16.393713466   26.950133317   21.344415375 XXXX 1      ca+h    Ca  1.500
Ca299   16.435567867   19.959015565   21.292245941 XXXX 1      ca+h    Ca  1.500
Ca300   16.338221823   13.181389795   21.340319967 XXXX 1      ca+h    Ca  1.500
Ca301   11.877849031   33.506334363   29.448546575 XXXX 1      ca+h    Ca  1.500
Ca302   11.631747554   26.887638393   29.290358863 XXXX 1      ca+h    Ca  1.500
Ca303   11.529438212   20.059541212   29.426104350 XXXX 1      ca+h    Ca  1.500
Ca304   11.593677311   13.544267628   29.452200357 XXXX 1      ca+h    Ca  1.500
Ca305   34.955225128   33.827918656    5.085850652 XXXX 1      ca+h    Ca  1.500
Ca306   35.483039204   26.786192011    5.285630512 XXXX 1      ca+h    Ca  1.500
Ca307   35.001535079   20.103825704    5.137768690 XXXX 1      ca+h    Ca  1.500
Ca308   34.821463356   13.203651242    5.225928142 XXXX 1      ca+h    Ca  1.500
Ca309   30.487485046   33.727447865   13.195644048 XXXX 1      ca+h    Ca  1.500
Ca310   30.470607025   26.918944273   13.135927303 XXXX 1      ca+h    Ca  1.500
Ca311   30.520495537   20.032582282   13.223406562 XXXX 1      ca+h    Ca  1.500
Ca312   30.474710101   13.173591123   13.261406697 XXXX 1      ca+h    Ca  1.500
Ca313   25.849788700   33.909104247   21.365306568 XXXX 1      ca+h    Ca  1.500
Ca314   25.883998334   26.979494919   21.280130358 XXXX 1      ca+h    Ca  1.500
Ca315   25.823058194   20.138782213   21.303664877 XXXX 1      ca+h    Ca  1.500
Ca316   25.989565534   13.206059846   21.358555624 XXXX 1      ca+h    Ca  1.500
Ca317   21.348418675   33.873183796   29.378092065 XXXX 1      ca+h    Ca  1.500
Ca318   21.189106488   26.970872455   29.366686183 XXXX 1      ca+h    Ca  1.500
Ca319   20.907229544   20.142115474   29.269525357 XXXX 1      ca+h    Ca  1.500
Ca320   20.987325881   13.343903974   29.530683092 XXXX 1      ca+h    Ca  1.500
Ca329   35.368300715   33.933799271   21.387410215 XXXX 1      ca+h    Ca  1.500
Ca330   35.299807646   27.004199555   21.281188224 XXXX 1      ca+h    Ca  1.500
Ca331   35.057541742   20.139234304   21.458205762 XXXX 1      ca+h    Ca  1.500
Ca332   35.354326407   13.317084402   21.541016320 XXXX 1      ca+h    Ca  1.500
Ca333   30.476635721   33.697225171   29.454060489 XXXX 1      ca+h    Ca  1.500
Ca334   30.211477895   26.774424266   29.537481042 XXXX 1      ca+h    Ca  1.500
Ca335   30.286109515   20.267701774   29.437207929 XXXX 1      ca+h    Ca  1.500
Ca336   30.412603989   13.331301246   29.388605627 XXXX 1      ca+h    Ca  1.500
P97     25.643166044   33.860524802    1.992001295 XXXX 1      pap     P   1.000
P98     25.520242647   26.571502539    1.897177863 XXXX 1      pap     P   1.000
P99     25.488166519   20.021646972    1.680262190 XXXX 1      pap     P   1.000
P100    25.744269737   13.452354573    1.874540376 XXXX 1      pap     P   1.000
P101    20.869617203   33.779488088    9.990170727 XXXX 1      pap     P   1.000
P102    20.876265808   26.904327169    9.909740820 XXXX 1      pap     P   1.000
P103    20.909343764   20.010303191   10.130624884 XXXX 1      pap     P   1.000
P104    20.872006317   13.206518718   10.161365447 XXXX 1      pap     P   1.000
P105    16.193231286   33.920446698   18.187774643 XXXX 1      pap     P   1.000
P106    16.077266356   27.059785931   18.214324523 XXXX 1      pap     P   1.000
P107    16.131641069   20.041597245   18.223994975 XXXX 1      pap     P   1.000
P108    16.099286428   13.222529978   18.279050348 XXXX 1      pap     P   1.000
P109    11.573424444   33.846634148   26.339502999 XXXX 1      pap     P   1.000
P110    11.502103481   26.954177563   26.353641507 XXXX 1      pap     P   1.000
P111    11.358975633   20.112108919   26.382756196 XXXX 1      pap     P   1.000
P112    11.392999661   13.314596519   26.435937871 XXXX 1      pap     P   1.000
P113    34.976217952   33.930348315    1.996309824 XXXX 1      pap     P   1.000
P114    35.062681751   26.284384254    2.063053798 XXXX 1      pap     P   1.000
P115    35.058914408   19.928562028    1.722280307 XXXX 1      pap     P   1.000
P116    35.097755149   13.172844236    1.844944153 XXXX 1      pap     P   1.000
P117    30.250418641   33.840459446   10.017371136 XXXX 1      pap     P   1.000
P118    30.311765567   27.025690374   10.097104652 XXXX 1      pap     P   1.000
P119    30.183303527   20.072296177   10.154285293 XXXX 1      pap     P   1.000
P120    30.178570554   13.210479823   10.119706891 XXXX 1      pap     P   1.000
P121    25.585972134   33.793183622   18.225706068 XXXX 1      pap     P   1.000
P122    25.610475088   27.089666071   18.235648476 XXXX 1      pap     P   1.000
P123    25.498463836   20.117941190   18.234209601 XXXX 1      pap     P   1.000
P124    25.604295788   13.156632748   18.274442393 XXXX 1      pap     P   1.000
P125    20.947472737   33.838470001   26.397814727 XXXX 1      pap     P   1.000
P126    20.803481788   27.072038262   26.178308052 XXXX 1      pap     P   1.000
P127    20.857316127   20.136388815   26.220135104 XXXX 1      pap     P   1.000
P128    20.809342741   13.337999215   26.449577596 XXXX 1      pap     P   1.000
P137    34.979134573   33.840237339   18.274901740 XXXX 1      pap     P   1.000
P138    34.954170040   27.064409135   18.187958205 XXXX 1      pap     P   1.000
P139    34.985871363   20.092850045   18.328280741 XXXX 1      pap     P   1.000
P140    34.884216855   13.305034656   18.288717777 XXXX 1      pap     P   1.000
P141    30.187304279   33.759092800   26.271246353 XXXX 1      pap     P   1.000
P142    30.206931371   26.958617164   26.355882621 XXXX 1      pap     P   1.000
P143    30.161191824   20.142922635   26.334299795 XXXX 1      pap     P   1.000
P144    30.309959330   13.243895303   26.436064961 XXXX 1      pap     P   1.000
O769    26.952813334   33.875082324    1.130050473 XXXX 1      oap1    O  -0.800
O770    26.797183140   26.646972692    1.022789265 XXXX 1      oap1    O  -0.800
O771    26.933902799   19.732222274    1.330674482 XXXX 1      oap1    O  -0.800
O772    27.238873871   13.403141839    1.382693108 XXXX 1      oap1    O  -0.800
O773    22.092188421   33.954145979    9.045001054 XXXX 1      oap1    O  -0.800
O774    22.169779986   27.255103151    9.146469463 XXXX 1      oap1    O  -0.800
O775    22.075290603   20.066764591    9.196866630 XXXX 1      oap1    O  -0.800
O776    22.212513383   13.160781291    9.320980023 XXXX 1      oap1    O  -0.800
O777    17.462163224   34.088242751   17.311460407 XXXX 1      oap1    O  -0.800
O778    17.418666128   27.045293650   17.475976534 XXXX 1      oap1    O  -0.800
O779    17.440913665   20.333634737   17.473054008 XXXX 1      oap1    O  -0.800
O780    17.460783756   13.491851073   17.548432787 XXXX 1      oap1    O  -0.800
O781    12.782692511   33.672638656   25.501013599 XXXX 1      oap1    O  -0.800
O782    12.791027091   26.828274657   25.565875900 XXXX 1      oap1    O  -0.800
O783    12.638833211   20.090830628   25.501962594 XXXX 1      oap1    O  -0.800
O784    12.774306382   13.179069271   25.716253035 XXXX 1      oap1    O  -0.800
O785    36.343862236   34.050481066    1.210720897 XXXX 1      oap1    O  -0.800
O786    36.259010639   26.286565340    1.090433104 XXXX 1      oap1    O  -0.800
O787    36.515397854   19.904968272    1.195141963 XXXX 1      oap1    O  -0.800
O788    36.489194383   13.204388619    1.212644451 XXXX 1      oap1    O  -0.800
O789    31.459757571   34.055621260    9.058798144 XXXX 1      oap1    O  -0.800
O790    31.554724247   26.900572464    9.211465904 XXXX 1      oap1    O  -0.800
O791    31.569011763   20.214821125    9.508862294 XXXX 1      oap1    O  -0.800
O792    31.475004493   13.012947286    9.343938939 XXXX 1      oap1    O  -0.800
O793    26.851027030   33.849382245   17.352609920 XXXX 1      oap1    O  -0.800
O794    26.903436341   27.266561415   17.441021093 XXXX 1      oap1    O  -0.800
O795    26.663788365   20.288910984   17.252069714 XXXX 1      oap1    O  -0.800
O796    26.900473994   13.108798692   17.481029453 XXXX 1      oap1    O  -0.800
O797    22.259240250   33.936630585   25.611196945 XXXX 1      oap1    O  -0.800
O798    22.060203791   27.073118501   25.364633363 XXXX 1      oap1    O  -0.800
O799    22.222284122   20.057503401   25.507418206 XXXX 1      oap1    O  -0.800
O800    22.102760221   13.352740377   25.564459213 XXXX 1      oap1    O  -0.800
O809    36.297211951   33.911291939   17.446592226 XXXX 1      oap1    O  -0.800
O810    36.258505544   27.333855251   17.427495811 XXXX 1      oap1    O  -0.800
O811    36.227890091   20.256676411   17.509845022 XXXX 1      oap1    O  -0.800
O812    36.272024661   13.294753790   17.661346881 XXXX 1      oap1    O  -0.800
O813    31.580461430   33.851028156   25.480456275 XXXX 1      oap1    O  -0.800
O814    31.614021366   27.159638745   25.808563207 XXXX 1      oap1    O  -0.800
O815    31.481312125   20.213109913   25.548316214 XXXX 1      oap1    O  -0.800
O816    31.528635855   13.308180623   25.529761553 XXXX 1      oap1    O  -0.800
O817    24.366099580   33.430552176    1.282219038 XXXX 1      oap1    O  -0.800
O818    24.118118992   26.518786090    1.274508824 XXXX 1      oap1    O  -0.800
O819    24.488864003   19.980971794    0.519312707 XXXX 1      oap1    O  -0.800
O820    24.603934495   13.601447448    0.815406832 XXXX 1      oap1    O  -0.800
O821    19.571469165   33.826948829    9.139517996 XXXX 1      oap1    O  -0.800
O822    19.675958015   26.875415909    8.916778659 XXXX 1      oap1    O  -0.800
O823    19.517901214   19.899897461    9.449371565 XXXX 1      oap1    O  -0.800
O824    19.588618566   13.204127546    9.345208924 XXXX 1      oap1    O  -0.800
O825    14.924249182   33.960263791   17.343294069 XXXX 1      oap1    O  -0.800
O826    14.819558188   26.931050792   17.289377180 XXXX 1      oap1    O  -0.800
O827    14.881637743   19.847926542   17.339200298 XXXX 1      oap1    O  -0.800
O828    14.883431934   13.115513223   17.336021907 XXXX 1      oap1    O  -0.800
O829    10.312918700   33.865637420   25.387037459 XXXX 1      oap1    O  -0.800
O830    10.247619454   27.074863299   25.475846942 XXXX 1      oap1    O  -0.800
O831    10.075843538   20.092973791   25.510814269 XXXX 1      oap1    O  -0.800
O832    10.248617185   13.235462381   25.366440526 XXXX 1      oap1    O  -0.800
O833    33.710201542   33.565057977    1.195123939 XXXX 1      oap1    O  -0.800
O834    33.695046090   25.632167354    1.691252625 XXXX 1      oap1    O  -0.800
O835    34.009467983   19.521272550    0.685922393 XXXX 1      oap1    O  -0.800
O836    33.928207535   13.048063705    0.793478082 XXXX 1      oap1    O  -0.800
O837    28.871420142   33.810420116    9.283395306 XXXX 1      oap1    O  -0.800
O838    29.008475017   27.049899222    9.211617062 XXXX 1      oap1    O  -0.800
O839    29.076496100   19.985398669    9.222579050 XXXX 1      oap1    O  -0.800
O840    28.926543318   13.231748228    9.119798346 XXXX 1      oap1    O  -0.800
O841    24.317717209   33.776274591   17.310807047 XXXX 1      oap1    O  -0.800
O842    24.467458529   27.135135458   17.240080277 XXXX 1      oap1    O  -0.800
O843    24.157989423   20.227585830   17.436087353 XXXX 1      oap1    O  -0.800
O844    24.329776590   12.959343797   17.402768008 XXXX 1      oap1    O  -0.800
O845    19.776801583   33.726370347   25.403438555 XXXX 1      oap1    O  -0.800
O846    19.521782630   27.101204249   25.393265663 XXXX 1      oap1    O  -0.800
O847    19.640438684   20.275681851   25.223302285 XXXX 1      oap1    O  -0.800
O848    19.576860956   13.352292964   25.523525576 XXXX 1      oap1    O  -0.800
O857    33.683609783   33.873297244   17.450048738 XXXX 1      oap1    O  -0.800
O858    33.765754859   27.031843542   17.242354077 XXXX 1      oap1    O  -0.800
O859    33.663752500   20.017065983   17.514495173 XXXX 1      oap1    O  -0.800
O860    33.663681557   13.324945269   17.343454271 XXXX 1      oap1    O  -0.800
O861    29.000623683   33.784662632   25.280595130 XXXX 1      oap1    O  -0.800
O862    29.180758776   26.982966882   25.285695665 XXXX 1      oap1    O  -0.800
O863    28.904009332   20.128816840   25.389415272 XXXX 1      oap1    O  -0.800
O864    28.969475434   13.302522730   25.634611139 XXXX 1      oap1    O  -0.800
Ca337   33.096780466   31.562849163    2.591324234 XXXX 1      ca+h    Ca  1.500
Ca338   33.534015295   23.304142748    2.416681989 XXXX 1      ca+h    Ca  1.500
Ca339   34.139345362   16.833379129    3.490116214 XXXX 1      ca+h    Ca  1.500
Ca340   33.897615474    9.879146876    3.432875913 XXXX 1      ca+h    Ca  1.500
Ca341   29.445311900   30.408739038   10.951248912 XXXX 1      ca+h    Ca  1.500
Ca342   29.423785107   23.666801818   11.120786108 XXXX 1      ca+h    Ca  1.500
Ca343   29.411030563   16.588946647   11.294495872 XXXX 1      ca+h    Ca  1.500
Ca344   29.511132064    9.700478561   11.271873045 XXXX 1      ca+h    Ca  1.500
Ca345   24.778407457   30.427540083   19.179749406 XXXX 1      ca+h    Ca  1.500
Ca346   24.955827586   23.527929164   19.325318505 XXXX 1      ca+h    Ca  1.500
Ca347   24.779578244   16.681195093   19.346842664 XXXX 1      ca+h    Ca  1.500
Ca348   24.737442419    9.900017505   19.384582568 XXXX 1      ca+h    Ca  1.500
Ca349   19.996068067   30.473747732   27.375045283 XXXX 1      ca+h    Ca  1.500
Ca350   20.137244586   23.540258836   27.365407499 XXXX 1      ca+h    Ca  1.500
Ca351   20.019437322   16.629032910   27.594655887 XXXX 1      ca+h    Ca  1.500
Ca352   20.087265640   10.001140915   27.704273830 XXXX 1      ca+h    Ca  1.500
Ca361   34.096665937   30.375070606   19.414696458 XXXX 1      ca+h    Ca  1.500
Ca362   34.133404038   23.502881960   19.239510711 XXXX 1      ca+h    Ca  1.500
Ca363   34.199329222   16.661243688   19.374572687 XXXX 1      ca+h    Ca  1.500
Ca364   34.069327498    9.864217960   19.408880289 XXXX 1      ca+h    Ca  1.500
Ca365   29.430962497   30.285140834   27.467559070 XXXX 1      ca+h    Ca  1.500
Ca366   29.286166103   23.565520416   27.507256846 XXXX 1      ca+h    Ca  1.500
Ca367   29.301204972   16.765448076   27.688986662 XXXX 1      ca+h    Ca  1.500
Ca368   29.523200729    9.787540104   27.520495038 XXXX 1      ca+h    Ca  1.500
P145    30.399663020   30.352904361    1.618583841 XXXX 1      pap     P   1.000
P146    30.548744173   22.244151049    1.417301657 XXXX 1      pap     P   1.000
P147    30.865591616   16.370259876    1.696132521 XXXX 1      pap     P   1.000
P148    30.854760678    9.720637481    1.369137713 XXXX 1      pap     P   1.000
P149    26.555775943   30.496109180    9.736778425 XXXX 1      pap     P   1.000
P150    26.629823456   23.522615567    9.903958296 XXXX 1      pap     P   1.000
P151    26.594996256   16.455280698    9.819023326 XXXX 1      pap     P   1.000
P152    26.599064809    9.801391553    9.945351186 XXXX 1      pap     P   1.000
P153    21.954964459   30.393541793   18.015241929 XXXX 1      pap     P   1.000
P154    21.976474069   23.562854895   17.927157492 XXXX 1      pap     P   1.000
P155    21.951194692   16.630427495   18.049027290 XXXX 1      pap     P   1.000
P156    21.932071227    9.831249730   18.020577184 XXXX 1      pap     P   1.000
P157    17.218983587   30.466139139   26.062695205 XXXX 1      pap     P   1.000
P158    17.214395025   23.563146417   26.112436473 XXXX 1      pap     P   1.000
P159    17.202173324   16.758867127   26.222422861 XXXX 1      pap     P   1.000
P160    17.347865186    9.804065453   26.260582399 XXXX 1      pap     P   1.000
P165    36.059237901   30.444531287    9.743936566 XXXX 1      pap     P   1.000
P166    36.105333078   23.551925382    9.934758954 XXXX 1      pap     P   1.000
P167    36.028822465   16.588615149    9.940050930 XXXX 1      pap     P   1.000
P168    36.020951331    9.714865117    9.874079578 XXXX 1      pap     P   1.000
P169    31.425907015   30.311298245   17.934273749 XXXX 1      pap     P   1.000
P170    31.262213404   23.509057669   17.933876769 XXXX 1      pap     P   1.000
P171    31.395069681   16.665457143   17.984025392 XXXX 1      pap     P   1.000
P172    31.337071930    9.777111178   18.049615549 XXXX 1      pap     P   1.000
P173    26.641735460   30.303897856   26.188037527 XXXX 1      pap     P   1.000
P174    26.501367816   23.686101656   26.019129376 XXXX 1      pap     P   1.000
P175    26.544686567   16.826860463   26.209374511 XXXX 1      pap     P   1.000
P176    26.688378435    9.838190643   26.195213007 XXXX 1      pap     P   1.000
P189    36.036002828   30.316188838   26.090856200 XXXX 1      pap     P   1.000
P190    35.990339920   23.571967356   26.140510076 XXXX 1      pap     P   1.000
P191    35.988064184   16.654091284   26.242210159 XXXX 1      pap     P   1.000
P192    36.033113798    9.728601267   26.231206214 XXXX 1      pap     P   1.000
O865    29.557499972   29.688394723    0.575326976 XXXX 1      oap1    O  -0.800
O866    29.943978780   20.791813762    1.616275286 XXXX 1      oap1    O  -0.800
O867    30.535968877   14.967016680    1.025227432 XXXX 1      oap1    O  -0.800
O868    30.811068806    8.212363068    1.030714043 XXXX 1      oap1    O  -0.800
O869    26.545631734   30.698607410    8.207500288 XXXX 1      oap1    O  -0.800
O870    26.490623866   23.529881404    8.317445662 XXXX 1      oap1    O  -0.800
O871    26.646300748   16.272972881    8.302829252 XXXX 1      oap1    O  -0.800
O872    26.518237422    9.961311709    8.414773145 XXXX 1      oap1    O  -0.800
O873    22.024011028   30.511087237   16.508811336 XXXX 1      oap1    O  -0.800
O874    21.930537510   23.702854130   16.391044273 XXXX 1      oap1    O  -0.800
O875    21.938534110   16.676894118   16.577863804 XXXX 1      oap1    O  -0.800
O876    21.818847885    9.654827690   16.506298644 XXXX 1      oap1    O  -0.800
O877    17.207076186   30.287998277   24.505807131 XXXX 1      oap1    O  -0.800
O878    17.180224109   23.641707680   24.582694543 XXXX 1      oap1    O  -0.800
O879    17.142182043   16.441727194   24.758432926 XXXX 1      oap1    O  -0.800
O880    17.452780172   10.027859505   24.726326840 XXXX 1      oap1    O  -0.800
O885    35.956118451   30.609906304    8.241336270 XXXX 1      oap1    O  -0.800
O886    36.076601914   23.384787649    8.402786914 XXXX 1      oap1    O  -0.800
O887    36.003426896   16.648476897    8.343078209 XXXX 1      oap1    O  -0.800
O888    35.978993548    9.755727030    8.327842387 XXXX 1      oap1    O  -0.800
O889    31.127644906   30.466799785   16.436362534 XXXX 1      oap1    O  -0.800
O890    31.269924525   23.587020795   16.391247682 XXXX 1      oap1    O  -0.800
O891    31.454636180   16.643239469   16.438771933 XXXX 1      oap1    O  -0.800
O892    31.267270340    9.823891988   16.520810216 XXXX 1      oap1    O  -0.800
O893    26.613442233   30.377451367   24.625816764 XXXX 1      oap1    O  -0.800
O894    26.433785027   23.482227969   24.501601467 XXXX 1      oap1    O  -0.800
O895    26.501410121   16.929602731   24.668972258 XXXX 1      oap1    O  -0.800
O896    26.757588119    9.745734848   24.615485156 XXXX 1      oap1    O  -0.800
O909    35.988319578   30.373657633   24.596403400 XXXX 1      oap1    O  -0.800
O910    35.877237941   23.787042777   24.630896800 XXXX 1      oap1    O  -0.800
O911    35.789950100   16.367497008   24.761497312 XXXX 1      oap1    O  -0.800
O912    36.032043424    9.579498707   24.698081135 XXXX 1      oap1    O  -0.800
O913    31.773755289   29.720456194    1.871179492 XXXX 1      oap1    O  -0.800
O914    31.281193861   22.792160565    2.695831653 XXXX 1      oap1    O  -0.800
O915    29.823873207   16.591768967    2.802888100 XXXX 1      oap1    O  -0.800
O916    29.374342291   10.178355837    1.766431885 XXXX 1      oap1    O  -0.800
O917    25.131618603   30.483135591   10.376445743 XXXX 1      oap1    O  -0.800
O918    25.207797810   23.511050874   10.632315075 XXXX 1      oap1    O  -0.800
O919    25.133621297   16.509693354   10.329964456 XXXX 1      oap1    O  -0.800
O920    25.205002553    9.709801245   10.616622508 XXXX 1      oap1    O  -0.800
O921    20.496448803   30.414593619   18.532587132 XXXX 1      oap1    O  -0.800
O922    20.530764999   23.559888864   18.562963583 XXXX 1      oap1    O  -0.800
O923    20.515577977   16.732731531   18.656186582 XXXX 1      oap1    O  -0.800
O924    20.568413469    9.872441954   18.715504086 XXXX 1      oap1    O  -0.800
O925    15.819685856   30.440937526   26.710456873 XXXX 1      oap1    O  -0.800
O926    15.813171144   23.452335279   26.707709467 XXXX 1      oap1    O  -0.800
O927    15.732675878   16.846483832   26.773999076 XXXX 1      oap1    O  -0.800
O928    15.932425685    9.630555838   26.771301976 XXXX 1      oap1    O  -0.800
O933    34.612702169   30.440623875   10.433442452 XXXX 1      oap1    O  -0.800
O934    34.662332896   23.676471493   10.554137762 XXXX 1      oap1    O  -0.800
O935    34.636853316   16.536274490   10.537200706 XXXX 1      oap1    O  -0.800
O936    34.635772574    9.731752327   10.519102006 XXXX 1      oap1    O  -0.800
O937    30.094161017   30.234469900   18.734630936 XXXX 1      oap1    O  -0.800
O938    29.802703582   23.420668917   18.530000582 XXXX 1      oap1    O  -0.800
O939    29.881000843   16.569206711   18.328058585 XXXX 1      oap1    O  -0.800
O940    29.905866434    9.674799378   18.594402294 XXXX 1      oap1    O  -0.800
O941    25.177457487   30.380537544   26.785761457 XXXX 1      oap1    O  -0.800
O942    25.135721646   23.944281797   26.668254266 XXXX 1      oap1    O  -0.800
O943    25.194630094   16.896255132   27.020204857 XXXX 1      oap1    O  -0.800
O944    25.268522373    9.807618275   26.841933219 XXXX 1      oap1    O  -0.800
O957    34.631445470   30.383165789   26.751056243 XXXX 1      oap1    O  -0.800
O958    34.591308333   23.527073498   26.811858554 XXXX 1      oap1    O  -0.800
O959    34.613335715   16.804862700   26.928466183 XXXX 1      oap1    O  -0.800
O960    34.581531511    9.735838775   26.799885525 XXXX 1      oap1    O  -0.800
Ca389   24.525353683   30.435151151    6.939206682 XXXX 1      ca+h    Ca  1.500
Ca390   24.643000814   23.517658442    6.861325250 XXXX 1      ca+h    Ca  1.500
Ca391   24.593481381   16.510672907    7.035092209 XXXX 1      ca+h    Ca  1.500
Ca392   24.477167869    9.752830886    7.075617283 XXXX 1      ca+h    Ca  1.500
Ca393   19.905429502   30.381830690   15.204839936 XXXX 1      ca+h    Ca  1.500
Ca394   19.850084127   23.477827457   15.152227647 XXXX 1      ca+h    Ca  1.500
Ca395   19.847730799   16.767405965   15.297783016 XXXX 1      ca+h    Ca  1.500
Ca396   19.898262917    9.937671062   15.145171377 XXXX 1      ca+h    Ca  1.500
Ca397   15.150445107   30.543567789   23.327818590 XXXX 1      ca+h    Ca  1.500
Ca398   15.176125703   23.602074496   23.246478030 XXXX 1      ca+h    Ca  1.500
Ca399   15.310075301   16.708255786   23.405749863 XXXX 1      ca+h    Ca  1.500
Ca400   15.292057480    9.914812191   23.431974721 XXXX 1      ca+h    Ca  1.500
Ca405   33.923985276   30.350160422    6.685971534 XXXX 1      ca+h    Ca  1.500
Ca406   34.082730414   23.474972482    7.161826211 XXXX 1      ca+h    Ca  1.500
Ca407   33.909964863   16.706767606    7.054460816 XXXX 1      ca+h    Ca  1.500
Ca408   33.967803614    9.713273870    7.033016783 XXXX 1      ca+h    Ca  1.500
Ca409   29.243127358   30.390959948   15.105309415 XXXX 1      ca+h    Ca  1.500
Ca410   29.223805965   23.620444954   15.058639388 XXXX 1      ca+h    Ca  1.500
Ca411   29.420765898   16.519537913   15.339920059 XXXX 1      ca+h    Ca  1.500
Ca412   29.266815307    9.593957764   15.070423017 XXXX 1      ca+h    Ca  1.500
Ca413   24.721281494   30.355573565   23.232056740 XXXX 1      ca+h    Ca  1.500
Ca414   24.589510136   23.463586323   23.266026182 XXXX 1      ca+h    Ca  1.500
Ca415   24.567133127   16.796750673   23.356477171 XXXX 1      ca+h    Ca  1.500
Ca416   24.698075288    9.810843162   23.333054032 XXXX 1      ca+h    Ca  1.500
Ca429   34.071875771   30.441932987   23.282653752 XXXX 1      ca+h    Ca  1.500
Ca430   33.931950564   23.605850397   23.224703945 XXXX 1      ca+h    Ca  1.500
Ca431   33.795067666   16.739438333   23.307225854 XXXX 1      ca+h    Ca  1.500
Ca432   34.107217986    9.779452938   23.371190271 XXXX 1      ca+h    Ca  1.500
P197    26.928253726   30.519473064    5.070496210 XXXX 1      pap     P   1.000
P198    27.295738233   23.534362670    5.238265543 XXXX 1      pap     P   1.000
P199    27.172013535   16.782291397    5.233187159 XXXX 1      pap     P   1.000
P200    26.978914961    9.773300781    5.366487181 XXXX 1      pap     P   1.000
P201    22.376956388   30.356704906   13.341074764 XXXX 1      pap     P   1.000
P202    22.407347092   23.475483390   13.342327117 XXXX 1      pap     P   1.000
P203    22.581497758   16.579493971   13.427882055 XXXX 1      pap     P   1.000
P204    22.454284812    9.866471519   13.352577098 XXXX 1      pap     P   1.000
P205    17.735902604   30.469378778   21.403738973 XXXX 1      pap     P   1.000
P206    17.691625127   23.434144211   21.525333885 XXXX 1      pap     P   1.000
P207    17.780577905   16.520807328   21.437123496 XXXX 1      pap     P   1.000
P208    17.768085621    9.845698259   21.566643643 XXXX 1      pap     P   1.000
P213    36.510921560   30.279448781    5.037333027 XXXX 1      pap     P   1.000
P214    36.588745247   23.428432882    5.267996776 XXXX 1      pap     P   1.000
P215    36.557928137   16.649684111    5.288503218 XXXX 1      pap     P   1.000
P216    36.545218418    9.871974534    5.328633770 XXXX 1      pap     P   1.000
P217    31.843681641   30.344383502   13.295936801 XXXX 1      pap     P   1.000
P218    31.858997288   23.429419897   13.269523998 XXXX 1      pap     P   1.000
P219    31.879284493   16.753612747   13.343107187 XXXX 1      pap     P   1.000
P220    31.849692855    9.781370246   13.397602491 XXXX 1      pap     P   1.000
P221    27.252702255   30.368120122   21.484390354 XXXX 1      pap     P   1.000
P222    27.192442462   23.534761634   21.382525019 XXXX 1      pap     P   1.000
P223    27.182192792   16.674683991   21.581716274 XXXX 1      pap     P   1.000
P224    27.236348244    9.835834421   21.457687548 XXXX 1      pap     P   1.000
P237    36.536187735   30.378000855   21.491050012 XXXX 1      pap     P   1.000
P238    36.421082718   23.573569151   21.423983276 XXXX 1      pap     P   1.000
P239    36.630384233   16.653766640   21.518126962 XXXX 1      pap     P   1.000
P240    36.630516759    9.803072511   21.564109613 XXXX 1      pap     P   1.000
O965    28.276164491   30.528138807    5.770011753 XXXX 1      oap1    O  -0.800
O966    28.552243446   23.557858574    6.138732427 XXXX 1      oap1    O  -0.800
O967    28.625224906   16.637892251    5.862178439 XXXX 1      oap1    O  -0.800
O968    28.388377922    9.878754733    6.009869753 XXXX 1      oap1    O  -0.800
O969    23.766934150   30.468340962   13.958461699 XXXX 1      oap1    O  -0.800
O970    23.771745243   23.639415140   14.091056057 XXXX 1      oap1    O  -0.800
O971    23.934757202   16.735934361   14.124878792 XXXX 1      oap1    O  -0.800
O972    23.874624651    9.951970112   14.039010229 XXXX 1      oap1    O  -0.800
O973    19.073175019   30.580842468   22.140314198 XXXX 1      oap1    O  -0.800
O974    19.035396653   23.641282546   22.264409096 XXXX 1      oap1    O  -0.800
O975    19.076754181   16.904894526   22.185893212 XXXX 1      oap1    O  -0.800
O976    19.100198788    9.975360653   22.304342273 XXXX 1      oap1    O  -0.800
O981    37.833514551   30.375447051    5.810981668 XXXX 1      oap1    O  -0.800
O982    37.951555197   23.416555071    5.912143131 XXXX 1      oap1    O  -0.800
O983    37.970082100   16.607016281    5.946550483 XXXX 1      oap1    O  -0.800
O984    38.002745744    9.917752726    5.845816768 XXXX 1      oap1    O  -0.800
O985    33.145390580   30.461133406   14.136458036 XXXX 1      oap1    O  -0.800
O986    33.252403801   23.607526020   13.839694092 XXXX 1      oap1    O  -0.800
O987    33.257043006   16.986916288   14.026216779 XXXX 1      oap1    O  -0.800
O988    33.165920122   10.044350620   14.244033072 XXXX 1      oap1    O  -0.800
O989    28.506307055   30.349022464   22.314404226 XXXX 1      oap1    O  -0.800
O990    28.420496036   23.649681700   22.183829967 XXXX 1      oap1    O  -0.800
O991    28.495119168   16.826644582   22.386206798 XXXX 1      oap1    O  -0.800
O992    28.577022058   10.054754975   22.168790052 XXXX 1      oap1    O  -0.800
O1005   37.898325289   30.384325934   22.228160457 XXXX 1      oap1    O  -0.800
O1006   37.733577132   23.777607165   22.254590887 XXXX 1      oap1    O  -0.800
O1007   37.928548733   16.734364220   22.339574570 XXXX 1      oap1    O  -0.800
O1008   38.002134237    9.942448795   22.242541552 XXXX 1      oap1    O  -0.800
O1013   27.129952679   30.483259562    3.530998663 XXXX 1      oap1    O  -0.800
O1014   27.804952455   23.591173113    3.756825590 XXXX 1      oap1    O  -0.800
O1015   27.211460900   17.020410976    3.755285801 XXXX 1      oap1    O  -0.800
O1016   27.074079105    9.647539812    3.853198692 XXXX 1      oap1    O  -0.800
O1017   22.558673131   30.315548269   11.791260895 XXXX 1      oap1    O  -0.800
O1018   22.644227601   23.455107435   11.769211031 XXXX 1      oap1    O  -0.800
O1019   22.651807016   16.619364342   11.869808523 XXXX 1      oap1    O  -0.800
O1020   22.567286882    9.793496676   11.820038354 XXXX 1      oap1    O  -0.800
O1021   17.940878651   30.442695479   19.860576067 XXXX 1      oap1    O  -0.800
O1022   17.891465267   23.390611952   20.029753929 XXXX 1      oap1    O  -0.800
O1023   18.102891689   16.367601663   19.959509061 XXXX 1      oap1    O  -0.800
O1024   17.936226352    9.719456796   20.038309052 XXXX 1      oap1    O  -0.800
O1029   36.747943808   30.218177191    3.492527368 XXXX 1      oap1    O  -0.800
O1030   36.579758379   23.273457101    3.705534399 XXXX 1      oap1    O  -0.800
O1031   36.425705402   16.804095298    3.755917356 XXXX 1      oap1    O  -0.800
O1032   36.517290323   10.081499392    3.809625641 XXXX 1      oap1    O  -0.800
O1033   31.995239434   30.364751897   11.766966715 XXXX 1      oap1    O  -0.800
O1034   31.918186339   23.446524635   11.734631769 XXXX 1      oap1    O  -0.800
O1035   31.941289404   16.700175547   11.849374344 XXXX 1      oap1    O  -0.800
O1036   32.115702421    9.663515030   11.879191452 XXXX 1      oap1    O  -0.800
O1037   27.538546261   30.409662854   19.985286123 XXXX 1      oap1    O  -0.800
O1038   27.421393106   23.455406470   19.814004681 XXXX 1      oap1    O  -0.800
O1039   27.521392894   16.583025011   20.083696154 XXXX 1      oap1    O  -0.800
O1040   27.361046567    9.780040186   19.942670027 XXXX 1      oap1    O  -0.800
O1053   36.791849860   30.472695617   19.999903682 XXXX 1      oap1    O  -0.800
O1054   36.753040516   23.540934003   19.932301891 XXXX 1      oap1    O  -0.800
O1055   36.915963071   16.561122312   19.995400419 XXXX 1      oap1    O  -0.800
O1056   36.661842121    9.731831283   19.999143190 XXXX 1      oap1    O  -0.800
Ca437   30.591539765   30.305979094    4.956094097 XXXX 1      ca+h    Ca  1.500
Ca438   30.717589194   23.467739513    5.050993426 XXXX 1      ca+h    Ca  1.500
Ca439   30.821871934   16.492233836    5.023904708 XXXX 1      ca+h    Ca  1.500
Ca440   30.669689431    9.903932502    5.077501172 XXXX 1      ca+h    Ca  1.500
Ca441   25.875426693   30.461096313   12.847789073 XXXX 1      ca+h    Ca  1.500
Ca442   25.841608869   23.401695501   13.027833650 XXXX 1      ca+h    Ca  1.500
Ca443   26.000333981   16.657613426   13.008037157 XXXX 1      ca+h    Ca  1.500
Ca444   25.898709910    9.662756066   13.031898969 XXXX 1      ca+h    Ca  1.500
Ca445   21.226169753   30.384047594   21.066770323 XXXX 1      ca+h    Ca  1.500
Ca446   21.208541623   23.474299086   21.173519489 XXXX 1      ca+h    Ca  1.500
Ca447   21.256070147   16.698270071   21.213923695 XXXX 1      ca+h    Ca  1.500
Ca448   21.211659369    9.647816992   21.180465238 XXXX 1      ca+h    Ca  1.500
Ca457   35.314418207   30.390132077   13.041789469 XXXX 1      ca+h    Ca  1.500
Ca458   35.441684668   23.468080339   13.052226842 XXXX 1      ca+h    Ca  1.500
Ca459   35.376063127   16.566044728   12.983918557 XXXX 1      ca+h    Ca  1.500
Ca460   35.276263081    9.908634343   13.082919556 XXXX 1      ca+h    Ca  1.500
Ca461   30.587892336   30.367946797   21.171165403 XXXX 1      ca+h    Ca  1.500
Ca462   30.617806466   23.530526570   21.166562896 XXXX 1      ca+h    Ca  1.500
Ca463   30.559220890   16.672739207   21.259887739 XXXX 1      ca+h    Ca  1.500
Ca464   30.679165894    9.726862882   21.182035988 XXXX 1      ca+h    Ca  1.500
P245    30.966189936   30.487093008    7.875029456 XXXX 1      pap     P   1.000
P246    31.056695841   23.483746463    8.025051400 XXXX 1      pap     P   1.000
P247    30.891108848   16.584036673    8.126579920 XXXX 1      pap     P   1.000
P248    30.920734038    9.759015588    8.164912431 XXXX 1      pap     P   1.000
P249    26.244730592   30.381231468   15.972734994 XXXX 1      pap     P   1.000
P250    26.158788695   23.575948146   16.105030019 XXXX 1      pap     P   1.000
P251    26.199774328   16.613969804   16.115889982 XXXX 1      pap     P   1.000
P252    26.240848686    9.827496027   16.153556496 XXXX 1      pap     P   1.000
P253    21.537897175   30.412518528   24.190485325 XXXX 1      pap     P   1.000
P254    21.559572185   23.621757411   24.187969962 XXXX 1      pap     P   1.000
P255    21.520786837   16.705174676   24.303285946 XXXX 1      pap     P   1.000
P256    21.608365480    9.958885826   24.333167343 XXXX 1      pap     P   1.000
P265    35.641975306   30.348716426   16.096730469 XXXX 1      pap     P   1.000
P266    35.571330037   23.501413630   16.158589829 XXXX 1      pap     P   1.000
P267    35.635468090   16.692586690   16.222968325 XXXX 1      pap     P   1.000
P268    35.669989283    9.862763673   16.249993416 XXXX 1      pap     P   1.000
P269    30.906814652   30.355132226   24.296414106 XXXX 1      pap     P   1.000
P270    30.802152023   23.535046983   24.296322172 XXXX 1      pap     P   1.000
P271    30.968354541   16.689316014   24.345129281 XXXX 1      pap     P   1.000
P272    31.001072422    9.737277434   24.256082605 XXXX 1      pap     P   1.000
O1061   29.502742738   30.439957122    8.434087171 XXXX 1      oap1    O  -0.800
O1062   29.807208671   23.691813378    8.783187423 XXXX 1      oap1    O  -0.800
O1063   29.627128460   16.581442177    8.997838959 XXXX 1      oap1    O  -0.800
O1064   29.539187066    9.721764094    8.899723677 XXXX 1      oap1    O  -0.800
O1065   25.004450529   30.485341130   16.836819542 XXXX 1      oap1    O  -0.800
O1066   24.965901683   23.800058125   17.013887403 XXXX 1      oap1    O  -0.800
O1067   24.890694931   16.619125154   16.871756959 XXXX 1      oap1    O  -0.800
O1068   24.958811256    9.799974775   16.986801459 XXXX 1      oap1    O  -0.800
O1069   20.246743665   30.477217461   24.942458024 XXXX 1      oap1    O  -0.800
O1070   20.301142615   23.932320856   25.014700103 XXXX 1      oap1    O  -0.800
O1071   20.233564782   16.576816555   25.126924134 XXXX 1      oap1    O  -0.800
O1072   20.433159154   10.196121833   25.267327784 XXXX 1      oap1    O  -0.800
O1081   34.379538658   30.525624624   16.962681922 XXXX 1      oap1    O  -0.800
O1082   34.206756322   23.757363944   16.739327910 XXXX 1      oap1    O  -0.800
O1083   34.388559183   16.975652937   17.025782069 XXXX 1      oap1    O  -0.800
O1084   34.395047923   10.066475170   17.047386958 XXXX 1      oap1    O  -0.800
O1085   29.627008831   30.384208876   25.120719795 XXXX 1      oap1    O  -0.800
O1086   29.455570659   23.490209140   25.128248520 XXXX 1      oap1    O  -0.800
O1087   29.684050271   16.680679985   25.219107111 XXXX 1      oap1    O  -0.800
O1088   29.637647806    9.771770967   25.070668798 XXXX 1      oap1    O  -0.800
O1109   32.071927442   30.413327422    8.935436061 XXXX 1      oap1    O  -0.800
O1110   32.265001427   23.460391621    8.954841192 XXXX 1      oap1    O  -0.800
O1111   32.243027061   16.649914161    8.948165179 XXXX 1      oap1    O  -0.800
O1112   32.083745299    9.837108132    9.095947188 XXXX 1      oap1    O  -0.800
O1113   27.503692999   30.302123009   16.867196904 XXXX 1      oap1    O  -0.800
O1114   27.453781679   23.517975227   16.960850930 XXXX 1      oap1    O  -0.800
O1115   27.387098550   16.793645245   17.113676944 XXXX 1      oap1    O  -0.800
O1116   27.515408851    9.838601614   17.022294515 XXXX 1      oap1    O  -0.800
O1117   22.805163338   30.449002546   25.130325514 XXXX 1      oap1    O  -0.800
O1118   22.761106454   23.425201857   25.036102728 XXXX 1      oap1    O  -0.800
O1119   22.790474280   16.629146392   25.161207632 XXXX 1      oap1    O  -0.800
O1120   22.910227815    9.806232268   25.153913723 XXXX 1      oap1    O  -0.800
O1129   36.891779616   30.398615427   17.020970480 XXXX 1      oap1    O  -0.800
O1130   36.645490210   23.376673633   17.252763809 XXXX 1      oap1    O  -0.800
O1131   36.924878957   16.764715622   17.038727631 XXXX 1      oap1    O  -0.800
O1132   36.962744330    9.782965801   17.099094730 XXXX 1      oap1    O  -0.800
O1133   32.137294419   30.335376791   25.308877854 XXXX 1      oap1    O  -0.800
O1134   32.051080943   23.558549747   25.230579235 XXXX 1      oap1    O  -0.800
O1135   32.309818874   16.757356684   25.159486953 XXXX 1      oap1    O  -0.800
O1136   32.177557612    9.707156053   25.208569363 XXXX 1      oap1    O  -0.800
O1157   23.447361149   33.162672842    4.451934552 XXXX 1      oap2    O  -1.100
O1158   23.467635089   26.517625113    4.807463451 XXXX 1      oap2    O  -1.100
O1159   23.657424978   18.292852033    5.151820864 XXXX 1      oap2    O  -1.100
O1160   23.544353977   11.523086947    5.290877988 XXXX 1      oap2    O  -1.100
O1161   18.751829742   33.252720858   12.988969184 XXXX 1      oap2    O  -1.100
O1162   18.848396141   25.974558637   12.976167211 XXXX 1      oap2    O  -1.100
O1163   18.870107449   19.456800926   13.242389232 XXXX 1      oap2    O  -1.100
O1164   18.820555441   12.751683102   13.184812605 XXXX 1      oap2    O  -1.100
O1165   14.194815819   33.198932397   21.234660761 XXXX 1      oap2    O  -1.100
O1166   14.043166315   26.227728717   21.265115512 XXXX 1      oap2    O  -1.100
O1167   14.029517029   19.266786338   21.350985823 XXXX 1      oap2    O  -1.100
O1168   14.078696738   12.447300166   21.443215519 XXXX 1      oap2    O  -1.100
O1173   32.679994153   33.079947299    4.390893010 XXXX 1      oap2    O  -1.100
O1174   33.071341006   26.499893443    5.111639499 XXXX 1      oap2    O  -1.100
O1175   33.030202463   18.504186911    5.368285566 XXXX 1      oap2    O  -1.100
O1176   32.804634207   11.397978525    5.153405926 XXXX 1      oap2    O  -1.100
O1177   28.110072046   33.264678362   13.004831036 XXXX 1      oap2    O  -1.100
O1178   28.169611088   26.320637240   13.047790075 XXXX 1      oap2    O  -1.100
O1179   28.224633829   19.272255292   13.061626815 XXXX 1      oap2    O  -1.100
O1180   28.217757656   12.531931747   13.265161941 XXXX 1      oap2    O  -1.100
O1181   23.451738663   33.267094544   21.262351038 XXXX 1      oap2    O  -1.100
O1182   23.512661433   26.360412445   21.115901866 XXXX 1      oap2    O  -1.100
O1183   23.487429596   19.512676578   21.239380269 XXXX 1      oap2    O  -1.100
O1184   23.653761024   12.509934002   21.393843439 XXXX 1      oap2    O  -1.100
O1197   33.075201145   33.269288947   21.246635187 XXXX 1      oap2    O  -1.100
O1198   32.974971605   26.248080490   21.434630130 XXXX 1      oap2    O  -1.100
O1199   32.906681080   19.262002900   21.217653024 XXXX 1      oap2    O  -1.100
O1200   32.929348732   12.425527499   21.313238956 XXXX 1      oap2    O  -1.100
O1205   23.480447866   29.950194337    4.765990055 XXXX 1      oap2    O  -1.100
O1206   23.712592404   23.521068505    4.575623993 XXXX 1      oap2    O  -1.100
O1207   23.453739999   15.179020774    5.065258175 XXXX 1      oap2    O  -1.100
O1208   23.585278228    8.238948003    5.346660331 XXXX 1      oap2    O  -1.100
O1209   18.888490654   29.738213109   13.159569116 XXXX 1      oap2    O  -1.100
O1210   18.878443616   22.774255790   12.981807717 XXXX 1      oap2    O  -1.100
O1211   18.890335322   16.103301621   13.133727788 XXXX 1      oap2    O  -1.100
O1212   18.797712919    9.049025475   13.163678100 XXXX 1      oap2    O  -1.100
O1213   14.246197588   29.732072581   21.200500680 XXXX 1      oap2    O  -1.100
O1214   14.025106943   22.827286091   21.262839966 XXXX 1      oap2    O  -1.100
O1215   14.187836873   15.959460580   21.398649386 XXXX 1      oap2    O  -1.100
O1216   14.059818202    9.000132373   21.599342845 XXXX 1      oap2    O  -1.100
O1221   32.969301553   29.946851952    4.455986388 XXXX 1      oap2    O  -1.100
O1222   33.132426143   23.149456737    4.938873625 XXXX 1      oap2    O  -1.100
O1223   32.872077311   15.210325686    5.207602548 XXXX 1      oap2    O  -1.100
O1224   33.096790433    8.238675394    5.190488712 XXXX 1      oap2    O  -1.100
O1225   28.173857815   29.609317738   13.007721378 XXXX 1      oap2    O  -1.100
O1226   28.208340899   22.749693983   13.098235407 XXXX 1      oap2    O  -1.100
O1227   28.423283833   15.810717398   13.231689640 XXXX 1      oap2    O  -1.100
O1228   28.187118784    8.863346741   13.064938058 XXXX 1      oap2    O  -1.100
O1229   23.546906254   29.861268308   21.141359666 XXXX 1      oap2    O  -1.100
O1230   23.502868573   22.706046982   21.218367221 XXXX 1      oap2    O  -1.100
O1231   23.596156239   16.034305232   21.258096467 XXXX 1      oap2    O  -1.100
O1232   23.583595278    9.052528241   21.291547697 XXXX 1      oap2    O  -1.100
O1245   32.875886912   29.685588847   21.237545740 XXXX 1      oap2    O  -1.100
O1246   32.835767598   22.719258185   21.187717205 XXXX 1      oap2    O  -1.100
O1247   32.861578989   15.923213671   21.268536709 XXXX 1      oap2    O  -1.100
O1248   32.959789791    8.839684812   21.330404952 XXXX 1      oap2    O  -1.100
H5      23.772609715   32.319782935    4.842705251 XXXX 1      hop     H   0.200
H6      23.335181986   25.612185573    4.852710127 XXXX 1      hop     H   0.200
H7      23.200055612   18.894250305    4.541835034 XXXX 1      hop     H   0.200
H8      23.887427286   11.830359918    6.149291021 XXXX 1      hop     H   0.200
H9      18.890364989   32.354682665   13.105487727 XXXX 1      hop     H   0.200
H10     19.186681312   25.135023740   13.244085658 XXXX 1      hop     H   0.200
H11     18.831977226   18.560157100   13.619451446 XXXX 1      hop     H   0.200
H12     18.692622960   11.808648835   12.980834704 XXXX 1      hop     H   0.200
H13     14.334806473   32.296604173   21.033978948 XXXX 1      hop     H   0.200
H14     13.801836151   25.394999760   21.577332750 XXXX 1      hop     H   0.200
H15     14.292823306   18.385420890   21.377649833 XXXX 1      hop     H   0.200
H16     14.212768869   11.664601091   20.993800472 XXXX 1      hop     H   0.200
H21     31.810636398   32.828447904    4.676619191 XXXX 1      hop     H   0.200
H22     33.224748871   25.582336695    5.349614054 XXXX 1      hop     H   0.200
H23     32.300210449   18.958637623    4.925507119 XXXX 1      hop     H   0.200
H24     32.519051848   11.851255710    4.363720213 XXXX 1      hop     H   0.200
H25     28.116309731   32.283427563   13.188689274 XXXX 1      hop     H   0.200
H26     27.804530901   25.428044006   13.158818093 XXXX 1      hop     H   0.200
H27     28.746598391   18.510439938   13.299203259 XXXX 1      hop     H   0.200
H28     28.512259719   11.788399745   12.706123895 XXXX 1      hop     H   0.200
H29     23.557674674   32.372964682   20.934860313 XXXX 1      hop     H   0.200
H30     23.718221713   25.472589335   20.912810735 XXXX 1      hop     H   0.200
H31     23.516713801   18.542551351   21.180568823 XXXX 1      hop     H   0.200
H32     23.955518874   11.906998945   22.043165135 XXXX 1      hop     H   0.200
H45     33.113371185   32.360736246   21.332551750 XXXX 1      hop     H   0.200
H46     32.928322307   25.421004659   21.810852186 XXXX 1      hop     H   0.200
H47     32.545532097   18.380645028   21.260800092 XXXX 1      hop     H   0.200
H48     32.919271591   11.499147708   21.536261101 XXXX 1      hop     H   0.200
H53     24.037802645   29.195945930    4.822276911 XXXX 1      hop     H   0.200
H54     24.218956617   24.271081903    4.260789564 XXXX 1      hop     H   0.200
H55     23.108746223   14.916074469    4.139011221 XXXX 1      hop     H   0.200
H56     22.631086120    8.216252566    5.127368856 XXXX 1      hop     H   0.200
H57     18.572337929   28.933035034   13.529185841 XXXX 1      hop     H   0.200
H58     19.247516590   21.891430335   12.995466647 XXXX 1      hop     H   0.200
H59     19.021887094   15.146567190   13.317977743 XXXX 1      hop     H   0.200
H60     18.410164774    8.185429517   13.363096085 XXXX 1      hop     H   0.200
H61     14.451367010   28.814405222   21.347405250 XXXX 1      hop     H   0.200
H62     14.575524466   22.085810170   21.512310460 XXXX 1      hop     H   0.200
H63     13.910682423   15.077816202   21.604449226 XXXX 1      hop     H   0.200
H64     14.121999632    8.104730628   21.255259775 XXXX 1      hop     H   0.200
H69     33.668792355   29.373539005    4.196275943 XXXX 1      hop     H   0.200
H70     33.966462740   23.650808114    4.778713636 XXXX 1      hop     H   0.200
H71     32.510327541   14.753147318    4.413743010 XXXX 1      hop     H   0.200
H72     32.462788210    7.722459244    4.799811306 XXXX 1      hop     H   0.200
H73     27.898772464   28.935709978   13.648769684 XXXX 1      hop     H   0.200
H74     27.896164954   22.124782346   12.459226861 XXXX 1      hop     H   0.200
H75     28.187306426   15.003057218   13.640181093 XXXX 1      hop     H   0.200
H76     28.301675981    7.978992818   12.977281620 XXXX 1      hop     H   0.200
H77     23.634639134   28.990070453   20.978208036 XXXX 1      hop     H   0.200
H78     23.621764163   21.826006558   21.666671457 XXXX 1      hop     H   0.200
H79     23.463520505   15.122789279   21.087450836 XXXX 1      hop     H   0.200
H80     23.542443537    8.126178576   20.960967543 XXXX 1      hop     H   0.200
H93     33.330322169   28.877584657   21.424863346 XXXX 1      hop     H   0.200
H94     32.900310105   21.857564675   21.518658977 XXXX 1      hop     H   0.200
H95     32.425990689   15.166290533   20.805026841 XXXX 1      hop     H   0.200
H96     33.010586043    7.936665069   21.041409775 XXXX 1      hop     H   0.200
end
O5      24.579445546    7.772316836    8.144050473 XXXX 1      oap1    O  -0.800
O9      19.799301232    7.550476973   15.807739819 XXXX 1      oap1    O  -0.800
O13     14.955919409    7.734298658   24.161315883 XXXX 1      oap1    O  -0.800
O21     33.887663973    7.620038304    8.066145473 XXXX 1      oap1    O  -0.800
O25     29.352130890    7.327969008   15.475143395 XXXX 1      oap1    O  -0.800
O29     24.320303061    7.483903380   23.901763502 XXXX 1      oap1    O  -0.800
O45     33.842943106    7.493264550   23.895365145 XXXX 1      oap1    O  -0.800
O49     29.852174801    7.912302563    4.235381070 XXXX 1      oap1    O  -0.800
O53     25.233316120    7.448300531   12.220620434 XXXX 1      oap1    O  -0.800
O57     20.834706381    7.533748772   20.498984646 XXXX 1      oap1    O  -0.800
O61     16.152737877    7.719954020   29.150515807 XXXX 1      oap1    O  -0.800
O69     34.806974501    7.546991185   12.479730736 XXXX 1      oap1    O  -0.800
O73     29.990788789    7.645847722   20.594617029 XXXX 1      oap1    O  -0.800
O77     25.574245631    7.440732823   28.696173762 XXXX 1      oap1    O  -0.800
O93     34.731144879    7.437979783   28.591597460 XXXX 1      oap1    O  -0.800
O97     25.481353294    7.779414770    2.554819300 XXXX 1      oap1    O  -0.800
O101    20.465830357    7.284652808   11.185709729 XXXX 1      oap1    O  -0.800
O105    16.061081984    7.689782467   19.430050700 XXXX 1      oap1    O  -0.800
O109    11.524255225    7.745548222   27.388087192 XXXX 1      oap1    O  -0.800
O113    34.989717287    7.772785219    2.843173117 XXXX 1      oap1    O  -0.800
O117    30.239595441    7.339863770   11.185936723 XXXX 1      oap1    O  -0.800
O121    25.649634904    7.776885503   19.152416971 XXXX 1      oap1    O  -0.800
O125    20.985818801    7.801992252   27.257501236 XXXX 1      oap1    O  -0.800
O137    34.643160942    7.558883597   19.225162678 XXXX 1      oap1    O  -0.800
O141    30.175634840    7.515718420   27.421631170 XXXX 1      oap1    O  -0.800
O145    30.596215224    4.091883855    0.787178930 XXXX 1      oap1    O  -0.800
O149    27.444595849    4.001084149   10.525066824 XXXX 1      oap1    O  -0.800
O153    22.770300921    4.005382348   18.629656844 XXXX 1      oap1    O  -0.800
O157    17.875743213    4.258031602   26.686417038 XXXX 1      oap1    O  -0.800
O165    37.035024592    4.164031142   10.407749298 XXXX 1      oap1    O  -0.800
O169    32.149215912    4.120876948   18.494018274 XXXX 1      oap1    O  -0.800
O173    27.400484456    4.164605899   26.839998833 XXXX 1      oap1    O  -0.800
O189    36.819127627    3.904845989   27.085731952 XXXX 1      oap1    O  -0.800
O197    26.277460512    4.258548701    5.502018863 XXXX 1      oap1    O  -0.800
O201    21.601635548    4.007912770   13.678311261 XXXX 1      oap1    O  -0.800
O205    17.169890862    4.292021615   21.940798882 XXXX 1      oap1    O  -0.800
O213    35.799430039    4.134380981    5.476491450 XXXX 1      oap1    O  -0.800
O217    30.877012558    3.885075652   13.513180874 XXXX 1      oap1    O  -0.800
O221    26.388345778    4.117339849   21.944688155 XXXX 1      oap1    O  -0.800
O237    36.041084637    4.326160542   21.911731264 XXXX 1      oap1    O  -0.800
O245    31.030589077    4.267691119    7.101441527 XXXX 1      oap1    O  -0.800
O249    26.647529696    4.009962859   15.090270296 XXXX 1      oap1    O  -0.800
O253    21.435631796    4.251560495   23.399941351 XXXX 1      oap1    O  -0.800
O265    35.658931255    4.016348855   15.307767761 XXXX 1      oap1    O  -0.800
O269    30.995496157    4.148969873   23.265336717 XXXX 1      oap1    O  -0.800
O289    32.201801185    2.812835581    2.400879678 XXXX 1      oap1    O  -0.800
O293    27.419546021    1.553494956   10.084466842 XXXX 1      oap1    O  -0.800
O297    22.711475045    1.553746184   18.183067793 XXXX 1      oap1    O  -0.800
O301    18.151657089    1.787673125   26.720238208 XXXX 1      oap1    O  -0.800
O309    36.821811074    1.706492911   10.232914184 XXXX 1      oap1    O  -0.800
O313    32.128508140    1.638339206   18.536652333 XXXX 1      oap1    O  -0.800
O317    27.307660415    1.683823699   26.597519097 XXXX 1      oap1    O  -0.800
O333    36.780487969    1.528480827   26.434623278 XXXX 1      oap1    O  -0.800
O341    26.470029783    1.823531419    5.777816550 XXXX 1      oap1    O  -0.800
O345    21.795441396    1.573731091   13.933690255 XXXX 1      oap1    O  -0.800
O349    16.972865874    1.811971382   22.162133919 XXXX 1      oap1    O  -0.800
O357    35.707705359    1.653877930    5.593000609 XXXX 1      oap1    O  -0.800
O361    31.288391791    1.502468376   13.959577254 XXXX 1      oap1    O  -0.800
O365    26.579088423    1.624777731   22.006836854 XXXX 1      oap1    O  -0.800
O381    35.882190282    1.869701221   22.021120848 XXXX 1      oap1    O  -0.800
O389    31.126235085    1.838352776    6.978173421 XXXX 1      oap1    O  -0.800
O393    25.921708993    1.658276146   15.425575925 XXXX 1      oap1    O  -0.800
O397    21.515865732    1.796852458   23.439740333 XXXX 1      oap1    O  -0.800
O409    35.520423019    1.540694638   15.505851763 XXXX 1      oap1    O  -0.800
O413    30.641900733    1.686644078   23.272753441 XXXX 1      oap1    O  -0.800
O437    24.377898094    5.421725557    7.586477643 XXXX 1      oap1    O  -0.800
O441    19.528361296    5.060239158   16.051879222 XXXX 1      oap1    O  -0.800
O445    15.109144220    5.232148391   24.202630654 XXXX 1      oap1    O  -0.800
O453    33.878351915    5.260601955    7.597686008 XXXX 1      oap1    O  -0.800
O457    29.012080363    5.022915285   16.041600356 XXXX 1      oap1    O  -0.800
O461    24.366062891    5.018319467   24.157882174 XXXX 1      oap1    O  -0.800
O477    33.767549203    4.985185603   24.299511847 XXXX 1      oap1    O  -0.800
O481    30.066774853    5.449997898    4.130471230 XXXX 1      oap1    O  -0.800
O485    25.226447238    5.054047802   12.387806862 XXXX 1      oap1    O  -0.800
O489    20.594612789    5.130414534   20.357758428 XXXX 1      oap1    O  -0.800
O493    16.169605679    5.223706550   28.846740227 XXXX 1      oap1    O  -0.800
O501    34.796342468    5.020655164   12.499874258 XXXX 1      oap1    O  -0.800
O505    29.983930240    5.086313847   20.261124933 XXXX 1      oap1    O  -0.800
O509    25.065067283    5.006768480   28.599124668 XXXX 1      oap1    O  -0.800
O525    34.675926713    4.930851927   28.584599437 XXXX 1      oap1    O  -0.800
O529    25.814752655    5.339548943    3.013167553 XXXX 1      oap1    O  -0.800
O533    21.099161886    4.885278458   10.822775940 XXXX 1      oap1    O  -0.800
O537    16.130300690    5.196926086   19.337896323 XXXX 1      oap1    O  -0.800
O541    11.371384476    5.238924874   27.511463324 XXXX 1      oap1    O  -0.800
O545    34.944818117    5.320936917    2.991701712 XXXX 1      oap1    O  -0.800
O549    30.523986048    4.878387333   10.913181052 XXXX 1      oap1    O  -0.800
O553    25.535380018    5.298998597   19.240102065 XXXX 1      oap1    O  -0.800
O557    20.846492075    5.277195512   27.357649586 XXXX 1      oap1    O  -0.800
O569    35.126211333    5.132781465   19.076919714 XXXX 1      oap1    O  -0.800
O573    30.291580496    5.032715262   27.177362684 XXXX 1      oap1    O  -0.800
Ca5     28.285616731    8.102091014    7.813212192 XXXX 1      ca+h    Ca  1.500
Ca9     23.442129470    8.076656220   15.841213177 XXXX 1      ca+h    Ca  1.500
Ca13    19.073402754    8.260436071   24.100440733 XXXX 1      ca+h    Ca  1.500
Ca25    32.927339352    8.097344098   15.795717583 XXXX 1      ca+h    Ca  1.500
Ca29    28.364897254    7.905608419   23.673103073 XXXX 1      ca+h    Ca  1.500
Ca49    28.181822330    4.822444244    2.794467631 XXXX 1      ca+h    Ca  1.500
Ca53    23.490902889    4.570457372   10.616763401 XXXX 1      ca+h    Ca  1.500
Ca57    18.823875426    4.636716164   18.655348009 XXXX 1      ca+h    Ca  1.500
Ca61    14.296569340    4.687830774   26.702018897 XXXX 1      ca+h    Ca  1.500
Ca69    32.942329644    4.631058850   10.503480717 XXXX 1      ca+h    Ca  1.500
Ca73    28.238826005    4.664644690   18.587287755 XXXX 1      ca+h    Ca  1.500
Ca77    23.412166796    4.703312844   26.771464712 XXXX 1      ca+h    Ca  1.500
Ca93    32.823262820    4.591470330   26.747256825 XXXX 1      ca+h    Ca  1.500
Ca97    28.219576164    1.259574810    2.309673508 XXXX 1      ca+h    Ca  1.500
Ca101   23.560786358    1.156877207   10.184475896 XXXX 1      ca+h    Ca  1.500
Ca105   18.862991824    1.197470749   18.513280522 XXXX 1      ca+h    Ca  1.500
Ca109   14.132114143    1.168503953   26.803712915 XXXX 1      ca+h    Ca  1.500
Ca117   33.025103851    1.146952961   10.237560119 XXXX 1      ca+h    Ca  1.500
Ca121   28.263187750    1.118568940   18.549061112 XXXX 1      ca+h    Ca  1.500
Ca125   23.559721658    1.229653959   26.654804423 XXXX 1      ca+h    Ca  1.500
Ca141   33.148835580    1.027722219   26.466747980 XXXX 1      ca+h    Ca  1.500
Ca149   28.423553510    4.722219810    7.661439404 XXXX 1      ca+h    Ca  1.500
Ca153   23.591528058    4.574776665   15.651187087 XXXX 1      ca+h    Ca  1.500
Ca157   18.828205030    4.733035675   24.016971122 XXXX 1      ca+h    Ca  1.500
Ca169   33.157116336    4.533753934   15.904270052 XXXX 1      ca+h    Ca  1.500
Ca173   28.258928395    4.555641492   23.931684139 XXXX 1      ca+h    Ca  1.500
Ca197   22.279392162    6.531378071    6.855686855 XXXX 1      ca+h    Ca  1.500
Ca201   17.537093732    6.295668549   15.265162901 XXXX 1      ca+h    Ca  1.500
Ca205   12.993071085    6.543719447   23.408488831 XXXX 1      ca+h    Ca  1.500
Ca213   31.889469553    6.501922761    6.842941539 XXXX 1      ca+h    Ca  1.500
Ca217   27.076895113    6.326093003   15.022457668 XXXX 1      ca+h    Ca  1.500
Ca221   22.198072565    6.467971527   23.251914435 XXXX 1      ca+h    Ca  1.500
Ca233   36.253339484    6.487710080   15.126937029 XXXX 1      ca+h    Ca  1.500
Ca237   31.834085656    6.262551971   23.195611791 XXXX 1      ca+h    Ca  1.500
P5      25.268244722    6.433208500    8.323064882 XXXX 1      pap     P   1.000
P9      20.457390394    6.250358387   16.363369229 XXXX 1      pap     P   1.000
P13     15.773765478    6.554718939   24.737947939 XXXX 1      pap     P   1.000
P21     34.687011952    6.335740525    8.351438655 XXXX 1      pap     P   1.000
P25     29.938579326    6.153675824   16.268505417 XXXX 1      pap     P   1.000
P29     25.121226721    6.349821003   24.546299607 XXXX 1      pap     P   1.000
P45     34.583364353    6.326797057   24.609404982 XXXX 1      pap     P   1.000
O581    25.156114875    6.056923540    9.815485216 XXXX 1      oap1    O  -0.800
O585    20.597461978    6.481947876   17.863805119 XXXX 1      oap1    O  -0.800
O589    15.720764777    6.483858315   26.253408553 XXXX 1      oap1    O  -0.800
O597    34.632758545    6.104051088    9.859763543 XXXX 1      oap1    O  -0.800
O601    29.969623724    6.550330695   17.766416109 XXXX 1      oap1    O  -0.800
O605    25.121381115    6.496485652   26.043893173 XXXX 1      oap1    O  -0.800
O621    34.531027145    6.537392826   26.145701652 XXXX 1      oap1    O  -0.800
O629    26.714108755    6.361672101    7.810920676 XXXX 1      oap1    O  -0.800
O633    21.825466881    6.111047305   15.700876937 XXXX 1      oap1    O  -0.800
O637    17.302820827    6.553249664   24.235108858 XXXX 1      oap1    O  -0.800
O645    36.083059204    6.462342361    7.753707015 XXXX 1      oap1    O  -0.800
O649    31.337573742    5.972747453   15.602217888 XXXX 1      oap1    O  -0.800
O653    26.564233770    6.418125685   23.930477703 XXXX 1      oap1    O  -0.800
O669    36.127377149    6.292588450   24.107741237 XXXX 1      oap1    O  -0.800
Ca241   31.790047435    6.093571758    0.396212231 XXXX 1      ca+h    Ca  1.500
Ca245   27.164042263    6.352937510   11.029756297 XXXX 1      ca+h    Ca  1.500
Ca249   22.536803127    6.350130262   19.158256191 XXXX 1      ca+h    Ca  1.500
Ca253   17.772369647    6.347934920   27.512056078 XXXX 1      ca+h    Ca  1.500
Ca261   36.654891715    6.288803179   11.096093962 XXXX 1      ca+h    Ca  1.500
Ca265   31.980750868    6.361828369   19.092130860 XXXX 1      ca+h    Ca  1.500
Ca269   27.103559614    6.442141635   27.199313129 XXXX 1      ca+h    Ca  1.500
Ca285   36.661821675    6.251148074   27.432612689 XXXX 1      ca+h    Ca  1.500
P49     29.300666001    6.616061587    4.848732983 XXXX 1      pap     P   1.000
P53     24.486239643    6.303788418   12.883780951 XXXX 1      pap     P   1.000
P57     19.956632659    6.354674399   21.009377415 XXXX 1      pap     P   1.000
P61     15.405148023    6.459561748   29.414631941 XXXX 1      pap     P   1.000
P69     34.025427223    6.299359250   12.921691930 XXXX 1      pap     P   1.000
P73     29.364454646    6.334033840   20.974902180 XXXX 1      pap     P   1.000
P77     24.617837235    6.326870406   29.253650709 XXXX 1      pap     P   1.000
P93     34.036186470    6.230578696   29.124025333 XXXX 1      pap     P   1.000
O673    27.827409798    6.567635511    4.440526211 XXXX 1      oap1    O  -0.800
O677    23.042171925    6.241695372   12.320082517 XXXX 1      oap1    O  -0.800
O681    18.651516684    6.496905689   20.256971668 XXXX 1      oap1    O  -0.800
O685    14.082627887    6.362577012   28.685347277 XXXX 1      oap1    O  -0.800
O693    32.693545635    6.307193089   12.230861093 XXXX 1      oap1    O  -0.800
O697    27.933221864    6.407263542   20.436223023 XXXX 1      oap1    O  -0.800
O701    23.203156376    6.608832041   28.660763253 XXXX 1      oap1    O  -0.800
O717    32.637666104    6.338552279   28.444468808 XXXX 1      oap1    O  -0.800
O721    29.491718810    6.576368342    6.389983004 XXXX 1      oap1    O  -0.800
O725    24.488019081    6.401776899   14.465556097 XXXX 1      oap1    O  -0.800
O729    19.722673939    6.351151087   22.520241462 XXXX 1      oap1    O  -0.800
O733    15.088298423    6.329963233   30.930166344 XXXX 1      oap1    O  -0.800
O741    33.900034378    6.281465268   14.483657961 XXXX 1      oap1    O  -0.800
O745    29.381746257    6.216643205   22.502503830 XXXX 1      oap1    O  -0.800
O749    24.656636543    6.226540878   30.782947439 XXXX 1      oap1    O  -0.800
O765    34.035532731    6.294751153   30.681473434 XXXX 1      oap1    O  -0.800
Ca289   25.493449354    6.556912973    5.137008144 XXXX 1      ca+h    Ca  1.500
Ca293   20.938530805    6.328015278   13.241654254 XXXX 1      ca+h    Ca  1.500
Ca297   16.593869873    6.369359688   21.618397343 XXXX 1      ca+h    Ca  1.500
Ca301   11.954970026    6.181210419   29.516032071 XXXX 1      ca+h    Ca  1.500
Ca305   34.920255199    6.470652173    5.125662494 XXXX 1      ca+h    Ca  1.500
Ca309   30.522896421    6.240060080   13.241825958 XXXX 1      ca+h    Ca  1.500
Ca313   25.788881060    6.338857780   21.355849432 XXXX 1      ca+h    Ca  1.500
Ca317   20.975397731    6.530410732   29.446023544 XXXX 1      ca+h    Ca  1.500
Ca329   35.191007940    6.511472513   21.441888938 XXXX 1      ca+h    Ca  1.500
Ca333   30.406242477    6.292970733   29.448054638 XXXX 1      ca+h    Ca  1.500
P97     25.787982363    6.403535794    1.818623787 XXXX 1      pap     P   1.000
P101    20.758625335    6.236342899   10.119772924 XXXX 1      pap     P   1.000
P105    16.103124986    6.434946665   18.421469808 XXXX 1      pap     P   1.000
P109    11.492507317    6.461191662   26.532740999 XXXX 1      pap     P   1.000
P113    35.061036708    6.520125959    2.007973523 XXXX 1      pap     P   1.000
P117    30.356162022    6.214262128   10.180720961 XXXX 1      pap     P   1.000
P121    25.536701551    6.472534536   18.268523574 XXXX 1      pap     P   1.000
P125    20.894685981    6.512751433   26.412485381 XXXX 1      pap     P   1.000
P137    34.979864428    6.428770778   18.244109759 XXXX 1      pap     P   1.000
P141    30.205369388    6.355702783   26.393447836 XXXX 1      pap     P   1.000
O769    27.263529701    6.432013015    1.305274270 XXXX 1      oap1    O  -0.800
O773    22.010934153    6.621135124    9.287368663 XXXX 1      oap1    O  -0.800
O777    17.432250791    6.403093366   17.652347358 XXXX 1      oap1    O  -0.800
O781    12.832902340    6.408769427   25.743794694 XXXX 1      oap1    O  -0.800
O785    36.525547783    6.508470825    1.322040237 XXXX 1      oap1    O  -0.800
O789    31.599699858    6.392818047    9.284412977 XXXX 1      oap1    O  -0.800
O793    26.827775296    6.323178006   17.504051939 XXXX 1      oap1    O  -0.800
O797    22.201733151    6.351562497   25.621348297 XXXX 1      oap1    O  -0.800
O809    36.280797251    6.652106039   17.449609304 XXXX 1      oap1    O  -0.800
O813    31.483339882    6.449339693   25.593874946 XXXX 1      oap1    O  -0.800
O817    24.685417126    5.927459195    0.839021658 XXXX 1      oap1    O  -0.800
O821    19.460328514    6.306616193    9.278607685 XXXX 1      oap1    O  -0.800
O825    14.855684020    6.374562166   17.516252539 XXXX 1      oap1    O  -0.800
O829    10.310675206    6.468235881   25.632483691 XXXX 1      oap1    O  -0.800
O833    33.952440592    6.530784815    1.015963388 XXXX 1      oap1    O  -0.800
O837    29.056722666    6.239762977    9.298370649 XXXX 1      oap1    O  -0.800
O841    24.285719801    6.426350153   17.296186093 XXXX 1      oap1    O  -0.800
O845    19.632991732    6.461311621   25.559473858 XXXX 1      oap1    O  -0.800
O857    33.692557547    6.408260548   17.312330162 XXXX 1      oap1    O  -0.800
O861    28.968331764    6.388068041   25.455156424 XXXX 1      oap1    O  -0.800
Ca337   34.070125391    3.255245031    3.518485936 XXXX 1      ca+h    Ca  1.500
Ca341   29.506641708    2.826821843   11.179504785 XXXX 1      ca+h    Ca  1.500
Ca345   24.843564629    2.878261314   19.293647002 XXXX 1      ca+h    Ca  1.500
Ca349   19.977387776    3.007366008   27.520463730 XXXX 1      ca+h    Ca  1.500
Ca361   34.270184399    2.902285527   19.397084227 XXXX 1      ca+h    Ca  1.500
Ca365   29.472265647    2.868046183   27.553052599 XXXX 1      ca+h    Ca  1.500
P145    30.796055539    2.832474496    1.705858411 XXXX 1      pap     P   1.000
P149    26.650931580    2.867234166    9.789419800 XXXX 1      pap     P   1.000
P153    21.938007255    2.858707708   18.031176685 XXXX 1      pap     P   1.000
P157    17.290209135    2.942275191   26.221431083 XXXX 1      pap     P   1.000
P165    36.125076588    2.982875720    9.873536895 XXXX 1      pap     P   1.000
P169    31.383150008    2.858973088   18.025285587 XXXX 1      pap     P   1.000
P173    26.627514645    2.985478549   26.199566050 XXXX 1      pap     P   1.000
P189    36.055797164    2.888486835   26.188814880 XXXX 1      pap     P   1.000
O865    30.317304195    1.455840318    1.237759751 XXXX 1      oap1    O  -0.800
O869    26.656942768    3.101309622    8.278232505 XXXX 1      oap1    O  -0.800
O873    21.879981058    3.050894252   16.526112724 XXXX 1      oap1    O  -0.800
O877    17.238951489    3.008105694   24.727818947 XXXX 1      oap1    O  -0.800
O885    35.974747710    2.954756577    8.352598247 XXXX 1      oap1    O  -0.800
O889    31.421100568    2.858185889   16.504486772 XXXX 1      oap1    O  -0.800
O893    26.712784380    3.052556991   24.660424849 XXXX 1      oap1    O  -0.800
O909    36.177569891    3.200872552   24.697812717 XXXX 1      oap1    O  -0.800
O913    29.776932822    3.153462530    2.838250658 XXXX 1      oap1    O  -0.800
O917    25.215842694    2.804906822   10.323400176 XXXX 1      oap1    O  -0.800
O921    20.501280379    2.877187830   18.654271507 XXXX 1      oap1    O  -0.800
O925    15.876134653    2.852862504   26.816622779 XXXX 1      oap1    O  -0.800
O933    34.681529288    2.934488067   10.453386923 XXXX 1      oap1    O  -0.800
O937    29.989105789    2.849211870   18.597364263 XXXX 1      oap1    O  -0.800
O941    25.231055207    3.009647277   26.765850610 XXXX 1      oap1    O  -0.800
O957    34.648071795    2.757439137   26.635663954 XXXX 1      oap1    O  -0.800
Ca389   24.566922849    3.155094375    6.965708213 XXXX 1      ca+h    Ca  1.500
Ca393   19.858625065    2.980215560   15.051828638 XXXX 1      ca+h    Ca  1.500
Ca397   15.252276445    3.071052602   23.392248800 XXXX 1      ca+h    Ca  1.500
Ca405   34.066468377    3.014867769    7.004804175 XXXX 1      ca+h    Ca  1.500
Ca409   29.287110622    2.889393101   15.237386534 XXXX 1      ca+h    Ca  1.500
Ca413   24.756655651    2.902598376   23.316092880 XXXX 1      ca+h    Ca  1.500
Ca429   34.129001144    2.883845203   23.404726391 XXXX 1      ca+h    Ca  1.500
P197    27.161168936    3.064374047    5.234639514 XXXX 1      pap     P   1.000
P201    22.473183816    2.801398892   13.308902095 XXXX 1      pap     P   1.000
P205    17.761653943    2.968199618   21.507856950 XXXX 1      pap     P   1.000
P213    36.509280961    2.856285240    5.051224404 XXXX 1      pap     P   1.000
P217    31.909105826    2.715775835   13.323365264 XXXX 1      pap     P   1.000
P221    27.197380297    2.922096749   21.448371299 XXXX 1      pap     P   1.000
P237    36.728312544    3.013086214   21.429219388 XXXX 1      pap     P   1.000
O965    28.554644174    3.262887932    5.705434507 XXXX 1      oap1    O  -0.800
O969    23.888955477    2.900695691   13.852640570 XXXX 1      oap1    O  -0.800
O973    19.169085299    2.979112799   22.035911689 XXXX 1      oap1    O  -0.800
O981    37.884073186    2.822855340    5.748880056 XXXX 1      oap1    O  -0.800
O985    33.128535197    3.032454446   14.095652532 XXXX 1      oap1    O  -0.800
O989    28.574089110    3.027777884   22.105089285 XXXX 1      oap1    O  -0.800
O1005   38.088610900    2.992743338   22.041926796 XXXX 1      oap1    O  -0.800
O1013   27.107680998    2.923369972    3.704036629 XXXX 1      oap1    O  -0.800
O1017   22.596372292    2.666556007   11.793288049 XXXX 1      oap1    O  -0.800
O1021   17.782939415    2.837209415   19.962023536 XXXX 1      oap1    O  -0.800
O1029   36.594263603    2.859833818    3.464849575 XXXX 1      oap1    O  -0.800
O1033   32.215883466    2.680223044   11.834090245 XXXX 1      oap1    O  -0.800
O1037   27.239830927    2.949153244   19.867221226 XXXX 1      oap1    O  -0.800
O1053   36.700155431    2.898923736   19.852202611 XXXX 1      oap1    O  -0.800
Ca437   30.932134162    3.316361756    4.914378885 XXXX 1      ca+h    Ca  1.500
Ca441   26.101022044    2.979870630   12.863260280 XXXX 1      ca+h    Ca  1.500
Ca445   21.315418079    2.986731940   21.164090677 XXXX 1      ca+h    Ca  1.500
Ca457   35.295602543    2.895573122   13.028978742 XXXX 1      ca+h    Ca  1.500
Ca461   30.597578597    3.025621483   21.120104558 XXXX 1      ca+h    Ca  1.500
P245    30.979696687    3.013985386    7.970479902 XXXX 1      pap     P   1.000
P249    26.282274109    2.978927880   16.130923000 XXXX 1      pap     P   1.000
P253    21.533426882    3.021696764   24.301890916 XXXX 1      pap     P   1.000
P265    35.686030708    2.845135232   16.289364691 XXXX 1      pap     P   1.000
P269    30.910068328    2.946122281   24.195155233 XXXX 1      pap     P   1.000
O1061   29.608275627    2.814907211    8.630053472 XXXX 1      oap1    O  -0.800
O1065   25.051805114    3.348323706   16.960459361 XXXX 1      oap1    O  -0.800
O1069   20.242016093    2.959962687   25.117251353 XXXX 1      oap1    O  -0.800
O1081   34.498160834    3.022859851   17.194261161 XXXX 1      oap1    O  -0.800
O1085   29.614153439    3.071608016   25.105182760 XXXX 1      oap1    O  -0.800
O1109   32.171046622    3.042620849    8.957374506 XXXX 1      oap1    O  -0.800
O1113   27.455487604    2.757905588   17.104000846 XXXX 1      oap1    O  -0.800
O1117   22.779695491    3.005260068   25.244118833 XXXX 1      oap1    O  -0.800
O1129   37.059263482    2.908777518   17.005514593 XXXX 1      oap1    O  -0.800
O1133   32.187482865    2.799438309   25.035322873 XXXX 1      oap1    O  -0.800
O1157   23.521990873    4.718744539    4.794511048 XXXX 1      oap2    O  -1.100
O1161   18.713780959    5.312256396   13.173509152 XXXX 1      oap2    O  -1.100
O1165   14.225277418    5.599455680   21.428195237 XXXX 1      oap2    O  -1.100
O1173   32.881981315    5.056732999    5.039355238 XXXX 1      oap2    O  -1.100
O1177   28.162250624    5.525342802   13.005942495 XXXX 1      oap2    O  -1.100
O1181   23.489129667    5.487521555   21.415178662 XXXX 1      oap2    O  -1.100
O1197   32.851545552    5.549370273   21.209124925 XXXX 1      oap2    O  -1.100
O1205   23.680330446    1.682921710    4.798970272 XXXX 1      oap2    O  -1.100
O1209   18.842341841    1.923021877   13.147340834 XXXX 1      oap2    O  -1.100
O1213   14.222015907    2.300213948   21.221420683 XXXX 1      oap2    O  -1.100
O1221   32.952162906    1.818231281    4.974402870 XXXX 1      oap2    O  -1.100
O1225   28.298520325    2.062372954   13.135346408 XXXX 1      oap2    O  -1.100
O1229   23.635527356    2.020209210   21.265918742 XXXX 1      oap2    O  -1.100
O1245   33.045829529    2.243255021   21.347000065 XXXX 1      oap2    O  -1.100
H5      23.504306782    5.517406465    4.291438945 XXXX 1      hop     H   0.200
H9      18.209895348    4.539104682   13.461940772 XXXX 1      hop     H   0.200
H13     14.133272046    4.682484348   21.170022902 XXXX 1      hop     H   0.200
H21     32.761038821    5.447974555    4.165691167 XXXX 1      hop     H   0.200
H25     28.293138153    4.603101042   13.150479531 XXXX 1      hop     H   0.200
H29     23.442910694    4.581866094   21.205621431 XXXX 1      hop     H   0.200
H45     32.770268128    4.625463929   20.837511058 XXXX 1      hop     H   0.200
H53     23.141219706    1.283614079    5.471244634 XXXX 1      hop     H   0.200
H57     18.584096967    1.040048957   12.932190906 XXXX 1      hop     H   0.200
H61     14.476196110    1.384894338   21.154599133 XXXX 1      hop     H   0.200
H69     32.566524991    1.509064873    5.793755690 XXXX 1      hop     H   0.200
H73     28.316501988    1.182412927   12.831838006 XXXX 1      hop     H   0.200
H77     23.791260659    1.094066803   21.431631456 XXXX 1      hop     H   0.200
H93     32.804162843    1.395096017   21.054966232 XXXX 1      hop     H   0.200
end
O21      5.549979493   35.076583596    7.521586726 XXXX 1      oap1    O  -0.800
O22      5.508918828   27.967526876    7.403433686 XXXX 1      oap1    O  -0.800
O23      5.434227344   21.271879079    7.587936002 XXXX 1      oap1    O  -0.800
O24      5.508226477   14.469834718    7.701412368 XXXX 1      oap1    O  -0.800
O25      0.803391979   35.035436419   15.784617674 XXXX 1      oap1    O  -0.800
O26      0.961330928   28.093921495   15.695784802 XXXX 1      oap1    O  -0.800
O27      0.887353433   21.400488886   15.863497657 XXXX 1      oap1    O  -0.800
O28      0.792293996   14.612727138   16.026302207 XXXX 1      oap1    O  -0.800
O37     15.031177579   35.071342673    7.588196301 XXXX 1      oap1    O  -0.800
O38     14.928837123   28.090165217    7.698088395 XXXX 1      oap1    O  -0.800
O39     15.078836919   21.278942609    7.729639076 XXXX 1      oap1    O  -0.800
O40     14.911163294   14.413641699    7.914357605 XXXX 1      oap1    O  -0.800
O41     10.129708081   35.165774324   15.978894522 XXXX 1      oap1    O  -0.800
O42     10.299975526   28.268326981   15.926976413 XXXX 1      oap1    O  -0.800
O43     10.093993132   21.421287645   16.062233465 XXXX 1      oap1    O  -0.800
O44     10.257947701   14.431241736   15.697170809 XXXX 1      oap1    O  -0.800
O45      5.492684480   35.024088457   24.151832697 XXXX 1      oap1    O  -0.800
O46      5.564159631   28.180863328   24.065487963 XXXX 1      oap1    O  -0.800
O47      5.413073732   21.264838601   23.867476790 XXXX 1      oap1    O  -0.800
O48      5.597611014   14.310419137   24.123868570 XXXX 1      oap1    O  -0.800
O49      2.067567899   34.882966885    3.938215478 XXXX 1      oap1    O  -0.800
O50      2.217219005   27.867204175    4.911190746 XXXX 1      oap1    O  -0.800
O51      2.195619371   20.994445322    4.338124569 XXXX 1      oap1    O  -0.800
O52      1.607131773   14.441975842    4.109964591 XXXX 1      oap1    O  -0.800
O65     11.530078988   34.911288301    4.182307965 XXXX 1      oap1    O  -0.800
O66     11.545682022   28.037709131    4.087976173 XXXX 1      oap1    O  -0.800
O67     10.949789495   21.508004608    4.462349359 XXXX 1      oap1    O  -0.800
O68     11.141786593   14.665583615    4.337700692 XXXX 1      oap1    O  -0.800
O69      6.562190733   35.107120048   12.334120298 XXXX 1      oap1    O  -0.800
O70      6.460140084   28.381826680   12.473114383 XXXX 1      oap1    O  -0.800
O71      6.519577473   21.381331549   12.475809981 XXXX 1      oap1    O  -0.800
O72      6.742875349   14.253745487   12.622707571 XXXX 1      oap1    O  -0.800
O73      1.993202733   34.894292827   20.602533438 XXXX 1      oap1    O  -0.800
O74      2.039043592   28.212806283   20.720390584 XXXX 1      oap1    O  -0.800
O75      1.809871282   21.280543039   20.797542188 XXXX 1      oap1    O  -0.800
O76      1.788375655   14.394770361   20.682498118 XXXX 1      oap1    O  -0.800
O81     21.129653393   35.194694178    4.480757375 XXXX 1      oap1    O  -0.800
O82     20.972171940   28.160331910    4.333558508 XXXX 1      oap1    O  -0.800
O83     20.345771251   21.252777322    4.410451887 XXXX 1      oap1    O  -0.800
O84     20.653724532   14.454011544    4.318568716 XXXX 1      oap1    O  -0.800
O85     15.979273543   34.976925144   12.245729409 XXXX 1      oap1    O  -0.800
O86     16.129401737   28.134502964   12.215429712 XXXX 1      oap1    O  -0.800
O87     16.083374466   21.322419983   12.367414597 XXXX 1      oap1    O  -0.800
O88     16.119990441   14.344299442   12.577865185 XXXX 1      oap1    O  -0.800
O89     11.340649100   35.049027036   20.556192344 XXXX 1      oap1    O  -0.800
O90     11.342421669   28.202797723   20.518183145 XXXX 1      oap1    O  -0.800
O91     11.202671100   21.290703404   20.415925514 XXXX 1      oap1    O  -0.800
O92     11.243600884   14.490377544   20.586165294 XXXX 1      oap1    O  -0.800
O93      6.507182638   34.999323812   28.405819502 XXXX 1      oap1    O  -0.800
O94      6.617521342   28.219605520   28.526713094 XXXX 1      oap1    O  -0.800
O95      6.539009535   21.296755473   28.651700740 XXXX 1      oap1    O  -0.800
O96      6.479344885   14.335932485   28.841149694 XXXX 1      oap1    O  -0.800
O113     6.525094476   35.076330635    2.932042325 XXXX 1      oap1    O  -0.800
O114     6.589471281   28.227183050    2.577829315 XXXX 1      oap1    O  -0.800
O115     6.908683580   21.480281997    2.742150326 XXXX 1      oap1    O  -0.800
O116     6.842304045   14.714916990    2.718932545 XXXX 1      oap1    O  -0.800
O117     2.074249835   35.081021211   10.886052780 XXXX 1      oap1    O  -0.800
O118     1.965884674   28.114961578   11.105315542 XXXX 1      oap1    O  -0.800
O119     2.019178435   21.302884894   11.102138070 XXXX 1      oap1    O  -0.800
O120     1.883579188   14.431605211   11.160747909 XXXX 1      oap1    O  -0.800
O129    16.185183245   35.572617897    2.453255073 XXXX 1      oap1    O  -0.800
O130    16.118244841   27.807859287    2.718461455 XXXX 1      oap1    O  -0.800
O131    15.930005963   21.398407038    2.338209226 XXXX 1      oap1    O  -0.800
O132    16.135968414   14.325442106    2.830147662 XXXX 1      oap1    O  -0.800
O133    11.458518735   35.061359797   10.858601953 XXXX 1      oap1    O  -0.800
O134    11.500778677   28.235189044   10.973536542 XXXX 1      oap1    O  -0.800
O135    11.258393366   21.311816845   10.977954817 XXXX 1      oap1    O  -0.800
O136    11.620238705   14.505489941   11.029018844 XXXX 1      oap1    O  -0.800
O137     6.945557388   35.178410358   19.141604892 XXXX 1      oap1    O  -0.800
O138     6.688063556   28.158081350   19.321512827 XXXX 1      oap1    O  -0.800
O139     6.516401850   21.274857634   19.254545888 XXXX 1      oap1    O  -0.800
O140     6.667880217   14.322864944   19.368909908 XXXX 1      oap1    O  -0.800
O141     2.105309236   34.986970998   27.203216837 XXXX 1      oap1    O  -0.800
O142     2.164984480   28.255825303   27.371409236 XXXX 1      oap1    O  -0.800
O143     1.935296005   21.421909248   27.197880517 XXXX 1      oap1    O  -0.800
O144     1.990006073   14.378609306   27.362276966 XXXX 1      oap1    O  -0.800
O145     0.982941148   30.292311509    1.462108468 XXXX 1      oap1    O  -0.800
O146     2.266143980   24.617693960    0.882319232 XXXX 1      oap1    O  -0.800
O147     2.408337290   18.405195082    1.176538115 XXXX 1      oap1    O  -0.800
O148     2.701753393   11.445142936    0.697874774 XXXX 1      oap1    O  -0.800
O161    11.771101645   32.434926247    1.700731040 XXXX 1      oap1    O  -0.800
O162    12.438723785   22.908602700    2.703943882 XXXX 1      oap1    O  -0.800
O163    11.977891361   17.687180326    0.667050194 XXXX 1      oap1    O  -0.800
O164    12.297315511   11.260691734    0.885429153 XXXX 1      oap1    O  -0.800
O165     8.637896455   31.641962554   10.224979262 XXXX 1      oap1    O  -0.800
O166     8.725046356   24.863870975   10.218270914 XXXX 1      oap1    O  -0.800
O167     8.592953778   17.913306994   10.359251057 XXXX 1      oap1    O  -0.800
O168     8.609636297   10.995174608   10.476554833 XXXX 1      oap1    O  -0.800
O169     3.919264765   31.787897268   18.395106792 XXXX 1      oap1    O  -0.800
O170     3.953252212   24.810577511   18.371928077 XXXX 1      oap1    O  -0.800
O171     3.736935274   17.909679754   18.675491963 XXXX 1      oap1    O  -0.800
O172     4.065876133   11.007158734   18.662273103 XXXX 1      oap1    O  -0.800
O177    20.853326066   31.909832728    1.347548129 XXXX 1      oap1    O  -0.800
O178    21.697101245   22.264849374   -0.047453908 XXXX 1      oap1    O  -0.800
O179    21.217510820   17.778247440    0.722353579 XXXX 1      oap1    O  -0.800
O180    22.222292032   11.072181136    0.725826779 XXXX 1      oap1    O  -0.800
O181    17.983032338   31.647027114   10.062243239 XXXX 1      oap1    O  -0.800
O182    18.186249119   24.727349688    9.993006473 XXXX 1      oap1    O  -0.800
O183    17.952313359   17.803045365   10.388816307 XXXX 1      oap1    O  -0.800
O184    17.876702418   11.020411291   10.246142232 XXXX 1      oap1    O  -0.800
O185    13.386108977   31.606798076   18.476856568 XXXX 1      oap1    O  -0.800
O186    13.281879430   24.789005481   18.507265245 XXXX 1      oap1    O  -0.800
O187    13.317887115   17.868409549   18.413915324 XXXX 1      oap1    O  -0.800
O188    13.190730127   11.046244398   18.526378883 XXXX 1      oap1    O  -0.800
O189     8.642110842   31.383735385   27.243388712 XXXX 1      oap1    O  -0.800
O190     8.703045745   24.781187196   26.439043158 XXXX 1      oap1    O  -0.800
O191     8.465852460   17.938851653   26.556629901 XXXX 1      oap1    O  -0.800
O192     8.583023547   10.895844247   26.955099266 XXXX 1      oap1    O  -0.800
O213     7.542750297   31.639351091    5.766404494 XXXX 1      oap1    O  -0.800
O214     7.609942333   24.805178646    5.439633180 XXXX 1      oap1    O  -0.800
O215     7.521092089   18.114579188    5.871780345 XXXX 1      oap1    O  -0.800
O216     7.393801312   11.272979883    5.667841863 XXXX 1      oap1    O  -0.800
O217     2.635001279   31.541518941   13.709335259 XXXX 1      oap1    O  -0.800
O218     2.977183372   24.748973296   13.817279236 XXXX 1      oap1    O  -0.800
O219     2.648130373   17.675709902   13.647780115 XXXX 1      oap1    O  -0.800
O220     2.886439443   11.041371131   13.980308253 XXXX 1      oap1    O  -0.800
O229    16.421377755   31.570478040    5.347237446 XXXX 1      oap1    O  -0.800
O230    17.064853655   24.657020583    5.865403892 XXXX 1      oap1    O  -0.800
O231    16.968078527   17.838468933    5.656797768 XXXX 1      oap1    O  -0.800
O232    16.857438696   11.009325018    5.771576109 XXXX 1      oap1    O  -0.800
O233    12.182950392   31.637306834   13.751885530 XXXX 1      oap1    O  -0.800
O234    12.207972839   24.741134787   13.632236997 XXXX 1      oap1    O  -0.800
O235    12.179987327   17.932414689   13.823576152 XXXX 1      oap1    O  -0.800
O236    12.245757345   10.989112535   13.932481047 XXXX 1      oap1    O  -0.800
O237     7.350333944   31.588480992   21.840048544 XXXX 1      oap1    O  -0.800
O238     7.284313084   24.655212644   21.834916346 XXXX 1      oap1    O  -0.800
O239     7.525172390   17.952776643   22.192368894 XXXX 1      oap1    O  -0.800
O240     7.348634750   11.007329097   22.101552808 XXXX 1      oap1    O  -0.800
O245     2.825315281   31.510742905    6.900144782 XXXX 1      oap1    O  -0.800
O246     2.734123098   24.697149226    7.034708080 XXXX 1      oap1    O  -0.800
O247     2.762081948   17.953709073    7.084253210 XXXX 1      oap1    O  -0.800
O248     2.766044208   11.028673856    7.190614806 XXXX 1      oap1    O  -0.800
O261    12.069786122   31.638029779    6.887100012 XXXX 1      oap1    O  -0.800
O262    12.294375219   24.724531271    6.988662026 XXXX 1      oap1    O  -0.800
O263    12.039116309   17.914876840    7.200740758 XXXX 1      oap1    O  -0.800
O264    12.312302070   11.140337563    7.091382800 XXXX 1      oap1    O  -0.800
O265     7.455271060   31.683207493   15.235968106 XXXX 1      oap1    O  -0.800
O266     7.398178668   24.911180100   15.389231842 XXXX 1      oap1    O  -0.800
O267     7.357517999   17.915437007   15.314241629 XXXX 1      oap1    O  -0.800
O268     7.610627396   10.839366078   15.103933610 XXXX 1      oap1    O  -0.800
O269     2.811145107   31.374818086   23.327400695 XXXX 1      oap1    O  -0.800
O270     2.646701022   24.622977844   23.410001995 XXXX 1      oap1    O  -0.800
O271     2.703946603   17.881808846   23.388012932 XXXX 1      oap1    O  -0.800
O272     2.725514673   10.917327491   23.492084557 XXXX 1      oap1    O  -0.800
O277    21.535200497   31.642512750    6.927162653 XXXX 1      oap1    O  -0.800
O278    21.456482030   24.740659952    7.061534754 XXXX 1      oap1    O  -0.800
O279    21.387550546   17.717715014    7.105262053 XXXX 1      oap1    O  -0.800
O280    21.538174609   11.153394357    7.229255651 XXXX 1      oap1    O  -0.800
O281    17.067636344   31.541501574   15.067498913 XXXX 1      oap1    O  -0.800
O282    16.699409602   24.872361380   15.283951644 XXXX 1      oap1    O  -0.800
O283    16.639773865   17.928358571   15.385626478 XXXX 1      oap1    O  -0.800
O284    16.811583584   10.905823379   15.193941524 XXXX 1      oap1    O  -0.800
O285    12.378331819   31.601930047   23.276957959 XXXX 1      oap1    O  -0.800
O286    12.292461017   24.705749259   23.288197577 XXXX 1      oap1    O  -0.800
O287    11.937125489   17.869446483   23.433965628 XXXX 1      oap1    O  -0.800
O288    12.025262534   11.061474733   23.526315436 XXXX 1      oap1    O  -0.800
O289     3.015708348   29.101716068    0.050559687 XXXX 1      oap1    O  -0.800
O290     3.853687593   22.850974206    2.069945362 XXXX 1      oap1    O  -0.800
O291     3.636645112   16.758867954    2.726563841 XXXX 1      oap1    O  -0.800
O292     3.644077607   10.197708861    2.673538841 XXXX 1      oap1    O  -0.800
O305    13.194532786   30.197576317    1.889233339 XXXX 1      oap1    O  -0.800
O306    12.966925978   22.310451685    0.299110204 XXXX 1      oap1    O  -0.800
O307    13.492268946   16.061975510    1.917565132 XXXX 1      oap1    O  -0.800
O308    12.914705332    9.574807347    2.713579882 XXXX 1      oap1    O  -0.800
O309     8.686167785   29.173364991   10.157437360 XXXX 1      oap1    O  -0.800
O310     8.646963488   22.316607264   10.200272589 XXXX 1      oap1    O  -0.800
O311     8.742745273   15.470198421   10.221456365 XXXX 1      oap1    O  -0.800
O312     8.792038211    8.634007419    9.975757702 XXXX 1      oap1    O  -0.800
O313     3.924333284   29.297496089   18.379940685 XXXX 1      oap1    O  -0.800
O314     3.716414166   22.368242665   18.481751248 XXXX 1      oap1    O  -0.800
O315     3.705642851   15.472138904   18.702112994 XXXX 1      oap1    O  -0.800
O316     3.855311522    8.519120287   18.294653794 XXXX 1      oap1    O  -0.800
O321    22.285573698   29.898196179    2.094029899 XXXX 1      oap1    O  -0.800
O322    20.493123290   20.813690943    1.569907032 XXXX 1      oap1    O  -0.800
O323    22.879665630   16.196581746    1.886376049 XXXX 1      oap1    O  -0.800
O324    22.288088684    9.889996541    2.943764818 XXXX 1      oap1    O  -0.800
O325    18.126591237   29.203366923    9.839670741 XXXX 1      oap1    O  -0.800
O326    18.072872879   22.237723387   10.075635651 XXXX 1      oap1    O  -0.800
O327    18.000646903   15.442537373   10.084753888 XXXX 1      oap1    O  -0.800
O328    17.884183775    8.555995365   10.320969662 XXXX 1      oap1    O  -0.800
O329    13.449801899   29.196947393   18.095660586 XXXX 1      oap1    O  -0.800
O330    13.380881399   22.337093045   18.334777219 XXXX 1      oap1    O  -0.800
O331    13.274867934   15.393062326   18.274667680 XXXX 1      oap1    O  -0.800
O332    13.364243466    8.582947635   18.704119163 XXXX 1      oap1    O  -0.800
O333     8.630021934   28.966961170   26.460698703 XXXX 1      oap1    O  -0.800
O334     8.483939658   22.385003985   26.584082540 XXXX 1      oap1    O  -0.800
O335     8.461156568   15.497118909   26.693427204 XXXX 1      oap1    O  -0.800
O336     8.639923314    8.558352227   26.968948983 XXXX 1      oap1    O  -0.800
O357     7.616539154   29.165265585    5.747772139 XXXX 1      oap1    O  -0.800
O358     7.371098535   22.321021677    5.490731507 XXXX 1      oap1    O  -0.800
O359     7.440192598   15.707887625    5.650180601 XXXX 1      oap1    O  -0.800
O360     7.638925404    8.800125437    5.861469469 XXXX 1      oap1    O  -0.800
O361     2.909023193   29.079350545   13.933076076 XXXX 1      oap1    O  -0.800
O362     2.882515923   22.275908761   13.761006880 XXXX 1      oap1    O  -0.800
O363     3.077171540   15.317560172   13.755913611 XXXX 1      oap1    O  -0.800
O364     2.888988093    8.587023441   13.881303641 XXXX 1      oap1    O  -0.800
O373    17.138618082   29.142383065    5.546639593 XXXX 1      oap1    O  -0.800
O374    17.024597902   22.247107370    5.367676181 XXXX 1      oap1    O  -0.800
O375    16.965940507   15.513051515    5.771655695 XXXX 1      oap1    O  -0.800
O376    16.959395600    8.562865601    5.814776223 XXXX 1      oap1    O  -0.800
O377    12.398351518   29.108011747   13.687019459 XXXX 1      oap1    O  -0.800
O378    12.531055612   22.303472743   14.032637972 XXXX 1      oap1    O  -0.800
O379    12.340857939   15.415940913   13.932928385 XXXX 1      oap1    O  -0.800
O380    12.242060018    8.583552973   14.006146884 XXXX 1      oap1    O  -0.800
O381     7.637759080   29.085536711   22.116140002 XXXX 1      oap1    O  -0.800
O382     7.584661711   22.289538763   21.953346816 XXXX 1      oap1    O  -0.800
O383     7.621301150   15.493820669   22.126735416 XXXX 1      oap1    O  -0.800
O384     7.666152480    8.564963996   22.127738810 XXXX 1      oap1    O  -0.800
O389     2.740699694   29.026078704    7.138700710 XXXX 1      oap1    O  -0.800
O390     2.665614383   22.176716221    7.183202879 XXXX 1      oap1    O  -0.800
O391     2.535516550   15.414638650    7.017015385 XXXX 1      oap1    O  -0.800
O392     2.977807106    8.577965289    7.037492892 XXXX 1      oap1    O  -0.800
O405    12.171964557   29.259008481    7.018117353 XXXX 1      oap1    O  -0.800
O406    12.567746801   22.327813100    6.909034742 XXXX 1      oap1    O  -0.800
O407    11.979462671   15.484324356    7.245790914 XXXX 1      oap1    O  -0.800
O408    12.369875825    8.705237413    6.999124248 XXXX 1      oap1    O  -0.800
O409     7.501167758   29.212115508   15.098597023 XXXX 1      oap1    O  -0.800
O410     7.652515967   22.470292793   15.276216362 XXXX 1      oap1    O  -0.800
O411     7.238178536   15.436465538   15.187326904 XXXX 1      oap1    O  -0.800
O412     7.248403467    8.434838814   15.478320693 XXXX 1      oap1    O  -0.800
O413     2.529016684   29.004610553   23.590848095 XXXX 1      oap1    O  -0.800
O414     2.346236445   22.225182162   23.662211053 XXXX 1      oap1    O  -0.800
O415     2.387628046   15.351738418   23.500665466 XXXX 1      oap1    O  -0.800
O416     2.665217865    8.459771172   23.372929639 XXXX 1      oap1    O  -0.800
O421    21.307272692   29.153153710    6.978893055 XXXX 1      oap1    O  -0.800
O422    21.905133131   22.300334451    6.892695508 XXXX 1      oap1    O  -0.800
O423    21.455328953   15.334397101    7.138892956 XXXX 1      oap1    O  -0.800
O424    21.470291421    8.724053501    7.082300740 XXXX 1      oap1    O  -0.800
O425    16.615162758   29.152004164   15.330964587 XXXX 1      oap1    O  -0.800
O426    16.883286584   22.368147216   15.181166026 XXXX 1      oap1    O  -0.800
O427    16.789012164   15.436528337   15.272948300 XXXX 1      oap1    O  -0.800
O428    16.661891476    8.403341339   15.501525441 XXXX 1      oap1    O  -0.800
O429    12.018587803   29.121950373   23.361453027 XXXX 1      oap1    O  -0.800
O430    11.855320050   22.237637113   23.292257739 XXXX 1      oap1    O  -0.800
O431    11.910650013   15.413404811   23.440812523 XXXX 1      oap1    O  -0.800
O432    11.882527141    8.596077799   23.592606924 XXXX 1      oap1    O  -0.800
O453     5.632154225   32.539309939    7.788224554 XXXX 1      oap1    O  -0.800
O454     5.452362188   25.597949513    7.879645598 XXXX 1      oap1    O  -0.800
O455     5.450647726   18.875019562    8.007407856 XXXX 1      oap1    O  -0.800
O456     5.583402492   11.986427910    7.792428619 XXXX 1      oap1    O  -0.800
O457     0.757751892   32.592795882   16.056882797 XXXX 1      oap1    O  -0.800
O458     0.807085862   25.715591879   16.169263263 XXXX 1      oap1    O  -0.800
O459     0.801201670   18.919107152   15.957755006 XXXX 1      oap1    O  -0.800
O460     0.819064236   12.160392869   15.808835279 XXXX 1      oap1    O  -0.800
O469    14.914191785   32.748840856    7.393642574 XXXX 1      oap1    O  -0.800
O470    14.947547508   25.631440585    7.796522042 XXXX 1      oap1    O  -0.800
O471    14.891943621   18.882794287    7.687370028 XXXX 1      oap1    O  -0.800
O472    15.052226697   11.968925140    7.957309679 XXXX 1      oap1    O  -0.800
O473    10.154486144   32.726697167   16.058047166 XXXX 1      oap1    O  -0.800
O474    10.187446932   25.776184584   16.000063191 XXXX 1      oap1    O  -0.800
O475    10.004636562   18.948083471   15.985668410 XXXX 1      oap1    O  -0.800
O476    10.191956584   12.006856059   16.172057000 XXXX 1      oap1    O  -0.800
O477     5.588131679   32.584905553   23.728616727 XXXX 1      oap1    O  -0.800
O478     5.391523588   25.681590883   24.133443782 XXXX 1      oap1    O  -0.800
O479     5.371022311   18.832769744   24.329310566 XXXX 1      oap1    O  -0.800
O480     5.755187217   11.851155702   24.326703955 XXXX 1      oap1    O  -0.800
O481     1.644123218   32.418961660    4.239063266 XXXX 1      oap1    O  -0.800
O482     1.646978569   25.411061947    4.427406311 XXXX 1      oap1    O  -0.800
O483     1.583483878   18.607713774    4.311295284 XXXX 1      oap1    O  -0.800
O484     1.521675977   11.917668924    4.282639621 XXXX 1      oap1    O  -0.800
O497    11.068891371   32.568351977    4.366857987 XXXX 1      oap1    O  -0.800
O498    10.885214065   25.642727172    3.947083683 XXXX 1      oap1    O  -0.800
O499    11.237085895   19.043441007    4.401453393 XXXX 1      oap1    O  -0.800
O500    11.196763506   12.237362916    4.244746832 XXXX 1      oap1    O  -0.800
O501     6.626827629   32.620548435   12.271814012 XXXX 1      oap1    O  -0.800
O502     6.676487643   25.903646770   12.256379801 XXXX 1      oap1    O  -0.800
O503     6.650286476   18.876742647   12.398927908 XXXX 1      oap1    O  -0.800
O504     6.258944655   11.923916271   12.320459704 XXXX 1      oap1    O  -0.800
O505     1.682901785   32.496160690   20.459720359 XXXX 1      oap1    O  -0.800
O506     2.016704430   25.817515449   20.599897119 XXXX 1      oap1    O  -0.800
O507     1.599984297   18.884021871   20.662720570 XXXX 1      oap1    O  -0.800
O508     1.826104708   11.945268047   20.479964021 XXXX 1      oap1    O  -0.800
O513    20.451857271   32.739107173    4.297397058 XXXX 1      oap1    O  -0.800
O514    20.608536683   25.742046189    3.895861462 XXXX 1      oap1    O  -0.800
O515    20.936745547   18.856224856    4.555716248 XXXX 1      oap1    O  -0.800
O516    20.316598930   12.026665912    4.209792981 XXXX 1      oap1    O  -0.800
O517    15.779224209   32.507066161   12.316673534 XXXX 1      oap1    O  -0.800
O518    15.957967873   25.615255591   12.220421556 XXXX 1      oap1    O  -0.800
O519    16.116593972   18.870754154   12.528065257 XXXX 1      oap1    O  -0.800
O520    15.845227424   11.815799969   12.523426849 XXXX 1      oap1    O  -0.800
O521    11.271503061   32.631885788   20.431340869 XXXX 1      oap1    O  -0.800
O522    11.249035887   25.700886672   20.592073513 XXXX 1      oap1    O  -0.800
O523    11.072294547   18.862312381   20.611088050 XXXX 1      oap1    O  -0.800
O524    11.241429242   12.019273462   20.456338209 XXXX 1      oap1    O  -0.800
O525     6.477902391   32.462837475   28.773309771 XXXX 1      oap1    O  -0.800
O526     6.692733117   25.763395320   28.899377836 XXXX 1      oap1    O  -0.800
O527     6.570915320   18.820550910   28.586454268 XXXX 1      oap1    O  -0.800
O528     6.869075452   12.051920866   28.878350611 XXXX 1      oap1    O  -0.800
O545     6.876446511   32.571996666    2.911701791 XXXX 1      oap1    O  -0.800
O546     7.028390100   25.726587968    2.590547813 XXXX 1      oap1    O  -0.800
O547     6.498237466   18.996622321    2.862338797 XXXX 1      oap1    O  -0.800
O548     6.954825375   12.273443498    3.002554649 XXXX 1      oap1    O  -0.800
O549     1.987417164   32.602876590   10.898958404 XXXX 1      oap1    O  -0.800
O550     2.084899026   25.688837956   10.988203222 XXXX 1      oap1    O  -0.800
O551     2.207404620   18.839120056   11.000510490 XXXX 1      oap1    O  -0.800
O552     2.208698246   12.002492952   11.069945460 XXXX 1      oap1    O  -0.800
O561    16.676531530   33.217256518    3.129883954 XXXX 1      oap1    O  -0.800
O562    16.529068957   25.366344939    2.953544808 XXXX 1      oap1    O  -0.800
O563    15.563601506   18.991791037    3.000578870 XXXX 1      oap1    O  -0.800
O564    16.255659085   11.868314363    2.401952103 XXXX 1      oap1    O  -0.800
O565    11.559323139   32.618518930   10.800249335 XXXX 1      oap1    O  -0.800
O566    11.551801481   25.757355281   10.863110538 XXXX 1      oap1    O  -0.800
O567    11.589443650   18.845833073   10.890981272 XXXX 1      oap1    O  -0.800
O568    11.685022016   11.950947183   11.095928334 XXXX 1      oap1    O  -0.800
O569     6.723178824   32.623228754   19.176520684 XXXX 1      oap1    O  -0.800
O570     6.716607036   25.673176569   19.083014377 XXXX 1      oap1    O  -0.800
O571     6.603538870   18.813106598   19.161826551 XXXX 1      oap1    O  -0.800
O572     6.675920452   11.888695775   19.229753038 XXXX 1      oap1    O  -0.800
O573     1.754847634   32.593443335   27.359381814 XXXX 1      oap1    O  -0.800
O574     2.090698591   25.725816414   27.440043530 XXXX 1      oap1    O  -0.800
O575     2.179325623   18.924136318   27.292255831 XXXX 1      oap1    O  -0.800
O576     2.137754572   11.911753021   27.203864300 XXXX 1      oap1    O  -0.800
Ca5      0.004572579   35.606414647    7.659137634 XXXX 1      ca+h    Ca  1.500
Ca6     -0.099868636   28.671005127    7.633881622 XXXX 1      ca+h    Ca  1.500
Ca7      0.005150710   21.726815607    7.638142531 XXXX 1      ca+h    Ca  1.500
Ca8     -0.037767663   14.847483494    7.748283824 XXXX 1      ca+h    Ca  1.500
Ca21     9.344823550   35.612110602    7.658500780 XXXX 1      ca+h    Ca  1.500
Ca22     9.235060448   28.670284730    7.536847599 XXXX 1      ca+h    Ca  1.500
Ca23     9.328263658   21.756690087    7.707926021 XXXX 1      ca+h    Ca  1.500
Ca24     9.539729483   15.045374608    7.905132231 XXXX 1      ca+h    Ca  1.500
Ca25     4.771784921   35.539005359   15.713637063 XXXX 1      ca+h    Ca  1.500
Ca26     4.586052912   28.664071871   15.770434139 XXXX 1      ca+h    Ca  1.500
Ca27     4.563647781   21.868260440   15.737580987 XXXX 1      ca+h    Ca  1.500
Ca28     4.725440423   14.933210967   15.803168205 XXXX 1      ca+h    Ca  1.500
Ca29    -0.022034924   35.606019799   23.905667135 XXXX 1      ca+h    Ca  1.500
Ca30     0.100641563   28.690817728   24.004218203 XXXX 1      ca+h    Ca  1.500
Ca31    -0.084873971   21.836896983   24.096618785 XXXX 1      ca+h    Ca  1.500
Ca32    -0.031390504   15.019899989   23.900348846 XXXX 1      ca+h    Ca  1.500
Ca37    18.871041040   35.688566782    7.752671493 XXXX 1      ca+h    Ca  1.500
Ca38    18.789811121   28.632774816    7.407559285 XXXX 1      ca+h    Ca  1.500
Ca39    18.718620326   21.554865401    7.848077377 XXXX 1      ca+h    Ca  1.500
Ca40    18.768602351   14.951191055    7.621424921 XXXX 1      ca+h    Ca  1.500
Ca41    14.165331142   35.617537966   15.841223371 XXXX 1      ca+h    Ca  1.500
Ca42    14.234073355   28.647953108   15.789663398 XXXX 1      ca+h    Ca  1.500
Ca43    14.171969700   21.793372110   15.907318558 XXXX 1      ca+h    Ca  1.500
Ca44    14.015643181   14.951916926   15.819929922 XXXX 1      ca+h    Ca  1.500
Ca45     9.492143342   35.572320995   24.055796240 XXXX 1      ca+h    Ca  1.500
Ca46     9.374123200   28.760708295   23.954440300 XXXX 1      ca+h    Ca  1.500
Ca47     9.320921238   21.801053702   24.068546208 XXXX 1      ca+h    Ca  1.500
Ca48     9.379407563   15.030985366   23.829695050 XXXX 1      ca+h    Ca  1.500
Ca49    -0.162672063   32.114867412    2.545776003 XXXX 1      ca+h    Ca  1.500
Ca50     0.099273984   25.109550215    2.629731180 XXXX 1      ca+h    Ca  1.500
Ca51     0.042909224   18.348736435    2.542449621 XXXX 1      ca+h    Ca  1.500
Ca52    -0.073006367   11.768533595    2.556191228 XXXX 1      ca+h    Ca  1.500
Ca65     9.337013125   32.245905421    2.589946718 XXXX 1      ca+h    Ca  1.500
Ca66     9.430467972   25.248775558    2.131929888 XXXX 1      ca+h    Ca  1.500
Ca67     9.852661915   18.660026093    2.562396531 XXXX 1      ca+h    Ca  1.500
Ca68     9.295367517   11.700003121    2.853593204 XXXX 1      ca+h    Ca  1.500
Ca69     4.715065141   32.163896159   10.302468304 XXXX 1      ca+h    Ca  1.500
Ca70     4.821670965   25.306357817   10.343177864 XXXX 1      ca+h    Ca  1.500
Ca71     4.671247604   18.402475148   10.200550286 XXXX 1      ca+h    Ca  1.500
Ca72     4.601729635   11.705187493   10.520528753 XXXX 1      ca+h    Ca  1.500
Ca73     0.019930251   32.144242228   18.566015500 XXXX 1      ca+h    Ca  1.500
Ca74    -0.115023232   25.238079286   18.497375438 XXXX 1      ca+h    Ca  1.500
Ca75    -0.129400514   18.433774457   18.618854463 XXXX 1      ca+h    Ca  1.500
Ca76    -0.107033448   11.406025641   18.637130332 XXXX 1      ca+h    Ca  1.500
Ca81    18.905929722   32.352894920    2.523761140 XXXX 1      ca+h    Ca  1.500
Ca82    18.913126914   25.129960499    2.159739630 XXXX 1      ca+h    Ca  1.500
Ca83    19.518200912   18.682735037    2.255306992 XXXX 1      ca+h    Ca  1.500
Ca84    18.633454002   11.686776330    2.566818217 XXXX 1      ca+h    Ca  1.500
Ca85    14.121622599   32.096766024   10.384327282 XXXX 1      ca+h    Ca  1.500
Ca86    14.213538466   25.185464478   10.347411188 XXXX 1      ca+h    Ca  1.500
Ca87    14.094005133   18.271532152   10.330480450 XXXX 1      ca+h    Ca  1.500
Ca88    14.067286282   11.544725627   10.519857541 XXXX 1      ca+h    Ca  1.500
Ca89     9.495292727   32.122553105   18.495059571 XXXX 1      ca+h    Ca  1.500
Ca90     9.389776060   25.267110315   18.575195503 XXXX 1      ca+h    Ca  1.500
Ca91     9.254677099   18.375313151   18.440430394 XXXX 1      ca+h    Ca  1.500
Ca92     9.477351689   11.622594109   18.562088989 XXXX 1      ca+h    Ca  1.500
Ca93     4.692372409   31.972286748   26.651365980 XXXX 1      ca+h    Ca  1.500
Ca94     4.490189258   25.329070552   26.716880887 XXXX 1      ca+h    Ca  1.500
Ca95     4.807476027   18.461900816   26.678734358 XXXX 1      ca+h    Ca  1.500
Ca96     4.715897577   11.417441837   26.585598340 XXXX 1      ca+h    Ca  1.500
Ca97    -0.657081982   28.464347351    1.885476009 XXXX 1      ca+h    Ca  1.500
Ca98    -0.207978123   21.781099734    2.253593655 XXXX 1      ca+h    Ca  1.500
Ca99    -0.368128558   14.987823357    2.731834517 XXXX 1      ca+h    Ca  1.500
Ca100   -0.196329089    8.365291066    2.612576681 XXXX 1      ca+h    Ca  1.500
Ca113    9.477424881   28.768894470    2.048674001 XXXX 1      ca+h    Ca  1.500
Ca114    9.291282746   21.556874053    2.615211165 XXXX 1      ca+h    Ca  1.500
Ca115    9.433185697   15.051865908    2.610887064 XXXX 1      ca+h    Ca  1.500
Ca116    9.299058466    8.258556415    2.546984175 XXXX 1      ca+h    Ca  1.500
Ca117    4.685332405   28.644603966   10.489549162 XXXX 1      ca+h    Ca  1.500
Ca118    4.757639516   21.862329111   10.425221559 XXXX 1      ca+h    Ca  1.500
Ca119    4.734265802   14.996029017   10.349312577 XXXX 1      ca+h    Ca  1.500
Ca120    4.728771630    8.243318936   10.462162029 XXXX 1      ca+h    Ca  1.500
Ca121    0.156762725   28.725247426   18.629652406 XXXX 1      ca+h    Ca  1.500
Ca122    0.064802290   21.842486804   18.562083920 XXXX 1      ca+h    Ca  1.500
Ca123    0.041013634   15.038849237   18.566067366 XXXX 1      ca+h    Ca  1.500
Ca124    0.047769949    8.151180227   18.591184663 XXXX 1      ca+h    Ca  1.500
Ca129   18.344388209   28.726160018    1.858797616 XXXX 1      ca+h    Ca  1.500
Ca130   18.263491418   21.598950634    2.883993496 XXXX 1      ca+h    Ca  1.500
Ca131   18.747039311   15.008276097    2.495350519 XXXX 1      ca+h    Ca  1.500
Ca132   18.933247698    8.153794390    2.599959306 XXXX 1      ca+h    Ca  1.500
Ca133   14.134998514   28.653024260   10.413306034 XXXX 1      ca+h    Ca  1.500
Ca134   14.312244693   21.829295507   10.273921503 XXXX 1      ca+h    Ca  1.500
Ca135   14.093213573   14.886958977   10.329801084 XXXX 1      ca+h    Ca  1.500
Ca136   14.091408868    8.074888427   10.363521390 XXXX 1      ca+h    Ca  1.500
Ca137    9.402825615   28.551830794   18.624906786 XXXX 1      ca+h    Ca  1.500
Ca138    9.367155318   21.857264354   18.434316536 XXXX 1      ca+h    Ca  1.500
Ca139    9.280939923   15.010466475   18.808103819 XXXX 1      ca+h    Ca  1.500
Ca140    9.318775974    8.087764877   18.666934547 XXXX 1      ca+h    Ca  1.500
Ca141    4.798231363   28.640417727   26.798581626 XXXX 1      ca+h    Ca  1.500
Ca142    4.711999869   21.852078459   26.850032251 XXXX 1      ca+h    Ca  1.500
Ca143    4.769188850   14.868255101   26.877035712 XXXX 1      ca+h    Ca  1.500
Ca144    4.861098507    7.956317765   26.970145840 XXXX 1      ca+h    Ca  1.500
Ca149   -0.019931442   32.227398043    7.393670435 XXXX 1      ca+h    Ca  1.500
Ca150   -0.098250522   25.165896137    7.725633429 XXXX 1      ca+h    Ca  1.500
Ca151   -0.070541953   18.266995871    7.631136408 XXXX 1      ca+h    Ca  1.500
Ca152    0.150094957   11.582530135    7.662563069 XXXX 1      ca+h    Ca  1.500
Ca165    9.511819765   32.134164705    7.566830386 XXXX 1      ca+h    Ca  1.500
Ca166    9.465301335   25.261619702    7.702157560 XXXX 1      ca+h    Ca  1.500
Ca167    9.270265281   18.387634931    7.789063380 XXXX 1      ca+h    Ca  1.500
Ca168    9.539637861   11.603104224    7.732643952 XXXX 1      ca+h    Ca  1.500
Ca169    4.780920227   32.163808499   15.874156636 XXXX 1      ca+h    Ca  1.500
Ca170    4.793486143   25.141957872   15.885743027 XXXX 1      ca+h    Ca  1.500
Ca171    4.715582193   18.425287013   15.861917725 XXXX 1      ca+h    Ca  1.500
Ca172    4.643945582   11.547540987   15.845799444 XXXX 1      ca+h    Ca  1.500
Ca173   -0.025340386   32.073339140   23.980992214 XXXX 1      ca+h    Ca  1.500
Ca174    0.001828467   25.280979018   24.086746356 XXXX 1      ca+h    Ca  1.500
Ca175   -0.156327233   18.531696421   24.085848478 XXXX 1      ca+h    Ca  1.500
Ca176   -0.066539282   11.367956051   24.050930952 XXXX 1      ca+h    Ca  1.500
Ca181   18.800037884   32.158217837    7.601787906 XXXX 1      ca+h    Ca  1.500
Ca182   19.048512654   25.129814699    7.578605156 XXXX 1      ca+h    Ca  1.500
Ca183   18.899839512   18.281718803    7.719429086 XXXX 1      ca+h    Ca  1.500
Ca184   18.702367244   11.542609543    7.827192863 XXXX 1      ca+h    Ca  1.500
Ca185   14.225489437   32.248215201   15.773061432 XXXX 1      ca+h    Ca  1.500
Ca186   14.179367259   25.258370446   15.699656132 XXXX 1      ca+h    Ca  1.500
Ca187   14.146590022   18.377413054   15.830808896 XXXX 1      ca+h    Ca  1.500
Ca188   13.954082768   11.413384351   15.901570931 XXXX 1      ca+h    Ca  1.500
Ca189    9.633668021   32.229553422   23.929853261 XXXX 1      ca+h    Ca  1.500
Ca190    9.446382571   25.297607618   24.089351183 XXXX 1      ca+h    Ca  1.500
Ca191    9.367083552   18.343294810   23.975607295 XXXX 1      ca+h    Ca  1.500
Ca192    9.560772153   11.487794772   24.076152574 XXXX 1      ca+h    Ca  1.500
Ca213    3.585382582   33.734930557    6.925639337 XXXX 1      ca+h    Ca  1.500
Ca214    3.530116583   26.899070038    6.755959449 XXXX 1      ca+h    Ca  1.500
Ca215    3.500850370   20.102618269    6.818794449 XXXX 1      ca+h    Ca  1.500
Ca216    3.555244361   13.214235322    6.926673927 XXXX 1      ca+h    Ca  1.500
Ca229   12.919314342   33.983017813    6.598966698 XXXX 1      ca+h    Ca  1.500
Ca230   12.961187370   26.970640759    6.883825230 XXXX 1      ca+h    Ca  1.500
Ca231   12.865755168   19.983523513    6.884793566 XXXX 1      ca+h    Ca  1.500
Ca232   12.943467842   13.331243524    6.783535873 XXXX 1      ca+h    Ca  1.500
Ca233    8.244919794   33.877983200   15.171921606 XXXX 1      ca+h    Ca  1.500
Ca234    8.293429631   26.991185766   15.115968293 XXXX 1      ca+h    Ca  1.500
Ca235    8.112452468   20.095444097   14.988341999 XXXX 1      ca+h    Ca  1.500
Ca236    8.200971410   13.152222030   15.133404023 XXXX 1      ca+h    Ca  1.500
Ca237    3.376648946   33.747216572   23.311341276 XXXX 1      ca+h    Ca  1.500
Ca238    3.505400780   26.959946460   23.246697634 XXXX 1      ca+h    Ca  1.500
Ca239    3.252285289   20.128691238   23.312601692 XXXX 1      ca+h    Ca  1.500
Ca240    3.472582480   13.340492214   23.327004936 XXXX 1      ca+h    Ca  1.500
P21      6.293597604   33.849571060    8.165631234 XXXX 1      pap     P   1.000
P22      6.312111523   26.876933226    8.077963796 XXXX 1      pap     P   1.000
P23      6.255061242   20.148150614    8.224158391 XXXX 1      pap     P   1.000
P24      6.354147982   13.249884087    8.216763654 XXXX 1      pap     P   1.000
P25      1.555131699   33.805438740   16.413574613 XXXX 1      pap     P   1.000
P26      1.729278401   26.932735664   16.435291444 XXXX 1      pap     P   1.000
P27      1.603527627   20.153599725   16.324831327 XXXX 1      pap     P   1.000
P28      1.558286333   13.312976782   16.486564098 XXXX 1      pap     P   1.000
P37     15.772266317   33.801215046    8.085065925 XXXX 1      pap     P   1.000
P38     15.751815255   26.859132770    8.155979925 XXXX 1      pap     P   1.000
P39     15.789565812   20.020483550    8.170870788 XXXX 1      pap     P   1.000
P40     15.769693731   13.226126862    8.364827752 XXXX 1      pap     P   1.000
P41     10.998344308   33.974341074   16.360823094 XXXX 1      pap     P   1.000
P42     11.091907069   27.031116897   16.310784394 XXXX 1      pap     P   1.000
P43     10.910113225   20.113373826   16.364732210 XXXX 1      pap     P   1.000
P44     10.963250694   13.295523890   16.422280052 XXXX 1      pap     P   1.000
P45      6.321165214   33.762300316   24.385899535 XXXX 1      pap     P   1.000
P46      6.278413883   26.914310249   24.562817912 XXXX 1      pap     P   1.000
P47      6.210839789   20.070201940   24.477558805 XXXX 1      pap     P   1.000
P48      6.477986744   13.153926891   24.630089514 XXXX 1      pap     P   1.000
O597     6.310630332   33.991326520    9.751019893 XXXX 1      oap1    O  -0.800
O598     6.441308923   27.202163411    9.588856565 XXXX 1      oap1    O  -0.800
O599     6.346234854   20.333525615    9.737995620 XXXX 1      oap1    O  -0.800
O600     6.438176393   13.362289248    9.754190978 XXXX 1      oap1    O  -0.800
O601     1.479354970   33.867325869   17.964101232 XXXX 1      oap1    O  -0.800
O602     1.787975404   27.141571918   17.969558580 XXXX 1      oap1    O  -0.800
O603     1.710323464   20.176855084   17.869164754 XXXX 1      oap1    O  -0.800
O604     1.516220959   13.218498843   17.999800037 XXXX 1      oap1    O  -0.800
O613    15.641164156   33.648402830    9.637452054 XXXX 1      oap1    O  -0.800
O614    15.806832991   26.924268279    9.692053024 XXXX 1      oap1    O  -0.800
O615    15.830662025   19.942216352    9.679686324 XXXX 1      oap1    O  -0.800
O616    15.777446372   13.200372468    9.830654142 XXXX 1      oap1    O  -0.800
O617    11.138653155   34.080851336   17.885603377 XXXX 1      oap1    O  -0.800
O618    11.237057610   27.110639718   17.805520239 XXXX 1      oap1    O  -0.800
O619    11.158867114   20.094200241   17.878932845 XXXX 1      oap1    O  -0.800
O620    10.898238714   13.552673723   17.946307955 XXXX 1      oap1    O  -0.800
O621     6.275787567   33.489799332   25.858212100 XXXX 1      oap1    O  -0.800
O622     6.345539289   26.948740160   26.088855551 XXXX 1      oap1    O  -0.800
O623     6.340578790   20.279280203   25.993150554 XXXX 1      oap1    O  -0.800
O624     6.570524698   13.186180945   26.182462826 XXXX 1      oap1    O  -0.800
O645     7.764186950   33.906537175    7.574810149 XXXX 1      oap1    O  -0.800
O646     7.761319043   26.768344497    7.528886965 XXXX 1      oap1    O  -0.800
O647     7.652602275   20.081675387    7.577073112 XXXX 1      oap1    O  -0.800
O648     7.788946625   13.337403885    7.512099043 XXXX 1      oap1    O  -0.800
O649     2.959237599   33.709476201   15.753419082 XXXX 1      oap1    O  -0.800
O650     3.088206485   26.743032234   15.850018414 XXXX 1      oap1    O  -0.800
O651     3.010143247   20.096685256   15.658657580 XXXX 1      oap1    O  -0.800
O652     3.011656949   13.273742665   15.976366447 XXXX 1      oap1    O  -0.800
O661    17.189073080   33.902267089    7.497007088 XXXX 1      oap1    O  -0.800
O662    17.085843250   26.932325371    7.411723942 XXXX 1      oap1    O  -0.800
O663    17.104555402   19.835098501    7.424523408 XXXX 1      oap1    O  -0.800
O664    17.122363883   13.297567623    7.605521951 XXXX 1      oap1    O  -0.800
O665    12.425682587   33.956771668   15.673785027 XXXX 1      oap1    O  -0.800
O666    12.463640760   26.978632384   15.532107622 XXXX 1      oap1    O  -0.800
O667    12.293529933   20.038500598   15.588738577 XXXX 1      oap1    O  -0.800
O668    12.404044009   13.160675117   15.857067066 XXXX 1      oap1    O  -0.800
O669     7.832933363   33.828847981   23.915309253 XXXX 1      oap1    O  -0.800
O670     7.754776899   26.925560224   23.924188222 XXXX 1      oap1    O  -0.800
O671     7.621148755   20.034704840   23.786361274 XXXX 1      oap1    O  -0.800
O672     7.786690150   13.268980639   23.844228438 XXXX 1      oap1    O  -0.800
Ca241    4.182882986   34.865570834    2.763536105 XXXX 1      ca+h    Ca  1.500
Ca242    3.466795660   26.698966807    0.657347591 XXXX 1      ca+h    Ca  1.500
Ca243    3.544686996   20.407775518    1.234358154 XXXX 1      ca+h    Ca  1.500
Ca244    3.568467656   13.600099347    0.494973694 XXXX 1      ca+h    Ca  1.500
Ca257   12.927445992   34.488008961    2.189508732 XXXX 1      ca+h    Ca  1.500
Ca258   13.681484867   28.040448901    2.819418445 XXXX 1      ca+h    Ca  1.500
Ca259   13.009195430   19.703081173    0.111963645 XXXX 1      ca+h    Ca  1.500
Ca260   12.993511276   13.487003093    1.076844685 XXXX 1      ca+h    Ca  1.500
Ca261    8.345179557   33.823049321   11.033351950 XXXX 1      ca+h    Ca  1.500
Ca262    8.334626117   27.045872058   10.936217351 XXXX 1      ca+h    Ca  1.500
Ca263    8.332760053   20.129813420   11.078862562 XXXX 1      ca+h    Ca  1.500
Ca264    8.353683497   13.272149250   11.040158715 XXXX 1      ca+h    Ca  1.500
Ca265    3.606364726   33.942637098   19.073489460 XXXX 1      ca+h    Ca  1.500
Ca266    3.723876874   27.059781822   19.291249313 XXXX 1      ca+h    Ca  1.500
Ca267    3.588363241   20.128204164   19.258024964 XXXX 1      ca+h    Ca  1.500
Ca268    3.522610634   13.202444443   19.203604667 XXXX 1      ca+h    Ca  1.500
Ca273   22.783675546   34.857583447    2.795063059 XXXX 1      ca+h    Ca  1.500
Ca274   22.860621961   27.817616226    2.864079021 XXXX 1      ca+h    Ca  1.500
Ca275   22.166708466   19.917420009    0.139080502 XXXX 1      ca+h    Ca  1.500
Ca276   22.372413820   13.519441483    0.713696652 XXXX 1      ca+h    Ca  1.500
Ca277   17.739571521   33.859811972   10.833639607 XXXX 1      ca+h    Ca  1.500
Ca278   17.833381096   26.864895609   10.886360192 XXXX 1      ca+h    Ca  1.500
Ca279   17.749880643   20.054415034   11.095687310 XXXX 1      ca+h    Ca  1.500
Ca280   17.707241575   13.218883379   11.063293042 XXXX 1      ca+h    Ca  1.500
Ca281   13.073238017   33.869082627   19.215874235 XXXX 1      ca+h    Ca  1.500
Ca282   13.119141810   26.989313447   19.189531193 XXXX 1      ca+h    Ca  1.500
Ca283   13.040489595   20.007404966   19.306781181 XXXX 1      ca+h    Ca  1.500
Ca284   13.109351548   13.257212686   19.294906793 XXXX 1      ca+h    Ca  1.500
Ca285    8.372093239   33.697933212   27.419750123 XXXX 1      ca+h    Ca  1.500
Ca286    8.410447019   26.869089358   27.434698827 XXXX 1      ca+h    Ca  1.500
Ca287    8.357407000   20.100790349   27.395896631 XXXX 1      ca+h    Ca  1.500
Ca288    8.543613407   13.230948413   27.409623893 XXXX 1      ca+h    Ca  1.500
P49      1.167317446   33.880964646    4.673770695 XXXX 1      pap     P   1.000
P50      1.117513597   26.838456420    4.839001316 XXXX 1      pap     P   1.000
P51      1.121824058   19.997788449    4.777991908 XXXX 1      pap     P   1.000
P52      0.958608004   13.220377012    4.865676022 XXXX 1      pap     P   1.000
P65     10.547123034   33.903849648    4.762146870 XXXX 1      pap     P   1.000
P66     10.508506465   27.028357958    4.520917651 XXXX 1      pap     P   1.000
P67     10.433426458   20.190910786    4.982318567 XXXX 1      pap     P   1.000
P68     10.501049077   13.443363478    4.884873307 XXXX 1      pap     P   1.000
P69      5.858760907   33.819962165   12.779208924 XXXX 1      pap     P   1.000
P70      5.844129177   27.047096293   12.864397284 XXXX 1      pap     P   1.000
P71      5.811513103   20.092544181   12.931707317 XXXX 1      pap     P   1.000
P72      5.722564477   13.205021407   12.937223661 XXXX 1      pap     P   1.000
P73      1.074055713   33.789351048   20.974735681 XXXX 1      pap     P   1.000
P74      1.241092463   27.002424564   21.136250295 XXXX 1      pap     P   1.000
P75      0.856137020   20.139199532   21.167467160 XXXX 1      pap     P   1.000
P76      1.028959122   13.120657659   21.041952816 XXXX 1      pap     P   1.000
P81     20.045513395   34.131832587    4.823597735 XXXX 1      pap     P   1.000
P82     20.020067991   26.986250022    4.577869130 XXXX 1      pap     P   1.000
P83     19.943914831   19.943478101    5.032326901 XXXX 1      pap     P   1.000
P84     19.754895184   13.297804171    4.771651007 XXXX 1      pap     P   1.000
P85     15.180094113   33.813451725   12.836859929 XXXX 1      pap     P   1.000
P86     15.337291097   26.906021444   12.707495859 XXXX 1      pap     P   1.000
P87     15.234055742   20.139311947   12.821187970 XXXX 1      pap     P   1.000
P88     15.220820646   13.174229857   12.968423092 XXXX 1      pap     P   1.000
P89     10.551242659   33.870796622   20.994222640 XXXX 1      pap     P   1.000
P90     10.547237924   27.013250608   21.008948199 XXXX 1      pap     P   1.000
P91     10.346366226   20.168157516   20.937282562 XXXX 1      pap     P   1.000
P92     10.525578810   13.206118259   21.078103955 XXXX 1      pap     P   1.000
P93      5.772835124   33.839954187   29.013567920 XXXX 1      pap     P   1.000
P94      5.917610690   27.051803942   29.210609170 XXXX 1      pap     P   1.000
P95      5.828309349   20.052640909   29.197689825 XXXX 1      pap     P   1.000
P96      5.852651586   13.075741689   29.233580625 XXXX 1      pap     P   1.000
O673    -0.303229308   33.947450080    4.141185004 XXXX 1      oap1    O  -0.800
O674     0.056803691   27.219983484    3.831170967 XXXX 1      oap1    O  -0.800
O675    -0.172427462   20.206660006    4.084771365 XXXX 1      oap1    O  -0.800
O676    -0.573195528   13.260539360    4.510186755 XXXX 1      oap1    O  -0.800
O689     9.170371843   34.037928823    4.087835766 XXXX 1      oap1    O  -0.800
O690     9.167423601   27.305785274    3.851621574 XXXX 1      oap1    O  -0.800
O691     9.012925393   20.048618687    4.396686748 XXXX 1      oap1    O  -0.800
O692     9.086278606   13.488327507    4.313631375 XXXX 1      oap1    O  -0.800
O693     4.480180263   33.837003657   12.046697735 XXXX 1      oap1    O  -0.800
O694     4.488107538   26.972604661   12.207216578 XXXX 1      oap1    O  -0.800
O695     4.451372679   20.109491279   12.195679565 XXXX 1      oap1    O  -0.800
O696     4.411556234   13.524741418   12.310034266 XXXX 1      oap1    O  -0.800
O697    -0.216778694   33.926022618   20.188983282 XXXX 1      oap1    O  -0.800
O698    -0.121072801   27.109224332   20.340668934 XXXX 1      oap1    O  -0.800
O699    -0.410930579   20.301155855   20.366799125 XXXX 1      oap1    O  -0.800
O700    -0.277840773   13.225828597   20.268978313 XXXX 1      oap1    O  -0.800
O705    18.731122495   34.495097725    4.151828583 XXXX 1      oap1    O  -0.800
O706    18.730435650   27.254144359    3.730854927 XXXX 1      oap1    O  -0.800
O707    18.560989947   19.722251644    4.425206106 XXXX 1      oap1    O  -0.800
O708    18.363258521   13.362850194    4.209776796 XXXX 1      oap1    O  -0.800
O709    13.809682939   33.961055206   12.181217236 XXXX 1      oap1    O  -0.800
O710    14.006269695   26.903774628   11.954380173 XXXX 1      oap1    O  -0.800
O711    13.930553565   20.135601791   11.880259173 XXXX 1      oap1    O  -0.800
O712    13.914799539   13.330343506   12.159857652 XXXX 1      oap1    O  -0.800
O713     9.295059854   33.876804296   20.304822696 XXXX 1      oap1    O  -0.800
O714     9.134740813   26.989333177   20.269210546 XXXX 1      oap1    O  -0.800
O715     9.002517267   20.159784392   20.159411674 XXXX 1      oap1    O  -0.800
O716     9.186585224   13.307285398   20.417692134 XXXX 1      oap1    O  -0.800
O717     4.414230707   33.744013955   28.320161797 XXXX 1      oap1    O  -0.800
O718     4.503266296   26.911326711   28.570496586 XXXX 1      oap1    O  -0.800
O719     4.404854490   20.121017209   28.664853912 XXXX 1      oap1    O  -0.800
O720     4.573527405   12.948485246   28.468925289 XXXX 1      oap1    O  -0.800
O721     1.084209953   34.055861992    6.208849755 XXXX 1      oap1    O  -0.800
O722     0.380977354   26.835730250    6.164949613 XXXX 1      oap1    O  -0.800
O723     0.984352265   20.053998349    6.331089356 XXXX 1      oap1    O  -0.800
O724     1.217712511   13.274400647    6.386541483 XXXX 1      oap1    O  -0.800
O737    10.377393534   34.026245500    6.245657651 XXXX 1      oap1    O  -0.800
O738    10.335038077   26.926226561    6.054287591 XXXX 1      oap1    O  -0.800
O739    10.503400555   20.168977780    6.510816185 XXXX 1      oap1    O  -0.800
O740    10.577534061   13.362325218    6.448898785 XXXX 1      oap1    O  -0.800
O741     5.663411592   33.747434069   14.315292551 XXXX 1      oap1    O  -0.800
O742     5.724433541   26.902813566   14.380434382 XXXX 1      oap1    O  -0.800
O743     5.681460248   20.113325166   14.474783382 XXXX 1      oap1    O  -0.800
O744     5.700188678   13.018529967   14.483986327 XXXX 1      oap1    O  -0.800
O745     0.836966784   33.808574436   22.497814899 XXXX 1      oap1    O  -0.800
O746     1.093266592   26.947129220   22.716733587 XXXX 1      oap1    O  -0.800
O747     0.694695957   20.109123584   22.722079272 XXXX 1      oap1    O  -0.800
O748     0.827384469   13.085352323   22.537700991 XXXX 1      oap1    O  -0.800
O753    19.761282256   34.011554986    6.351335383 XXXX 1      oap1    O  -0.800
O754    19.595787415   26.909884305    6.090679900 XXXX 1      oap1    O  -0.800
O755    19.893617496   19.934431014    6.573092536 XXXX 1      oap1    O  -0.800
O756    19.671459867   13.167619707    6.310260750 XXXX 1      oap1    O  -0.800
O757    15.136450281   33.915833867   14.387947989 XXXX 1      oap1    O  -0.800
O758    15.163320462   26.981377170   14.218434308 XXXX 1      oap1    O  -0.800
O759    14.945004387   20.161415062   14.373322830 XXXX 1      oap1    O  -0.800
O760    14.963354321   13.261735962   14.506541136 XXXX 1      oap1    O  -0.800
O761    10.555064238   33.889449636   22.578174490 XXXX 1      oap1    O  -0.800
O762    10.382080733   27.035096693   22.598903050 XXXX 1      oap1    O  -0.800
O763    10.208319069   20.302499114   22.468347378 XXXX 1      oap1    O  -0.800
O764    10.360450578   13.152672687   22.658430701 XXXX 1      oap1    O  -0.800
O765     5.563380855   34.161477287   30.498665983 XXXX 1      oap1    O  -0.800
O766     5.903967490   27.211247284   30.744603462 XXXX 1      oap1    O  -0.800
O767     5.906003441   20.067562010   30.725423974 XXXX 1      oap1    O  -0.800
O768     5.696809774   13.276466779   30.801961582 XXXX 1      oap1    O  -0.800
Ca305    6.952042789   33.951789744    5.113191807 XXXX 1      ca+h    Ca  1.500
Ca306    6.978312741   27.029295911    4.993544692 XXXX 1      ca+h    Ca  1.500
Ca307    6.565918505   20.120116847    4.974064326 XXXX 1      ca+h    Ca  1.500
Ca308    6.666388722   13.461477916    5.229399575 XXXX 1      ca+h    Ca  1.500
Ca309    2.286369786   33.750730768   13.162916722 XXXX 1      ca+h    Ca  1.500
Ca310    2.270158090   26.998513960   13.229436856 XXXX 1      ca+h    Ca  1.500
Ca311    2.434244471   19.992628189   13.210143140 XXXX 1      ca+h    Ca  1.500
Ca312    2.195194146   13.185363186   13.236556610 XXXX 1      ca+h    Ca  1.500
Ca321   16.219827955   34.170648799    5.134448830 XXXX 1      ca+h    Ca  1.500
Ca322   16.560255108   26.900182686    4.888127131 XXXX 1      ca+h    Ca  1.500
Ca323   16.195474711   20.044528937    5.134737765 XXXX 1      ca+h    Ca  1.500
Ca324   16.163939012   13.220066282    5.257734202 XXXX 1      ca+h    Ca  1.500
Ca325   11.802145442   33.884324262   13.175737739 XXXX 1      ca+h    Ca  1.500
Ca326   11.756266436   26.900645741   13.114944016 XXXX 1      ca+h    Ca  1.500
Ca327   11.847086247   20.243788113   13.108059348 XXXX 1      ca+h    Ca  1.500
Ca328   11.719507276   13.203253009   13.267285107 XXXX 1      ca+h    Ca  1.500
Ca329    6.986636446   33.853185526   21.288490273 XXXX 1      ca+h    Ca  1.500
Ca330    7.015768359   26.918494316   21.383706906 XXXX 1      ca+h    Ca  1.500
Ca331    6.911138332   20.148812751   21.426628904 XXXX 1      ca+h    Ca  1.500
Ca332    6.967822845   13.251123875   21.470648421 XXXX 1      ca+h    Ca  1.500
Ca333    2.246171717   33.630722680   29.385796389 XXXX 1      ca+h    Ca  1.500
Ca334    2.071244538   27.076002930   29.558051532 XXXX 1      ca+h    Ca  1.500
Ca335    1.979882267   20.272590188   29.410565315 XXXX 1      ca+h    Ca  1.500
Ca336    2.472044999   12.952303118   29.388600875 XXXX 1      ca+h    Ca  1.500
P113     6.723005508   33.833477803    2.002499395 XXXX 1      pap     P   1.000
P114     6.919295685   26.926357680    1.739238062 XXXX 1      pap     P   1.000
P115     6.844161942   20.146920603    1.903282533 XXXX 1      pap     P   1.000
P116     7.017802015   13.379759533    1.935118532 XXXX 1      pap     P   1.000
P117     2.005269303   33.883603681   10.007509610 XXXX 1      pap     P   1.000
P118     2.024453318   26.913112280   10.054417172 XXXX 1      pap     P   1.000
P119     2.041041792   20.122776136   10.142052482 XXXX 1      pap     P   1.000
P120     2.024459490   13.255119482   10.132799342 XXXX 1      pap     P   1.000
P129    16.318592164   34.126105372    1.977680308 XXXX 1      pap     P   1.000
P130    16.182450983   26.443948253    1.944912075 XXXX 1      pap     P   1.000
P131    16.028931174   19.931827286    1.832604110 XXXX 1      pap     P   1.000
P132    16.355497192   13.258447996    1.732400988 XXXX 1      pap     P   1.000
P133    11.403837424   33.808646960    9.941183638 XXXX 1      pap     P   1.000
P134    11.510020935   27.034417341    9.996463031 XXXX 1      pap     P   1.000
P135    11.443708456   20.106797445   10.059994448 XXXX 1      pap     P   1.000
P136    11.531116469   13.208090740   10.188641436 XXXX 1      pap     P   1.000
P137     6.719823226   33.900111269   18.263902030 XXXX 1      pap     P   1.000
P138     6.701370190   26.988503613   18.278933810 XXXX 1      pap     P   1.000
P139     6.582707854   20.102433189   18.318019742 XXXX 1      pap     P   1.000
P140     6.648533981   13.192546075   18.367493381 XXXX 1      pap     P   1.000
P141     1.979822288   33.752247152   26.341651839 XXXX 1      pap     P   1.000
P142     2.030996935   26.988909074   26.526375511 XXXX 1      pap     P   1.000
P143     2.135980715   20.125554598   26.347860715 XXXX 1      pap     P   1.000
P144     2.097574048   13.232758046   26.369350603 XXXX 1      pap     P   1.000
O785     8.060474110   34.036800417    1.264162771 XXXX 1      oap1    O  -0.800
O786     8.270740172   27.118699874    0.947037858 XXXX 1      oap1    O  -0.800
O787     8.267084371   19.944511658    1.365882926 XXXX 1      oap1    O  -0.800
O788     8.470881955   13.253171272    1.458465259 XXXX 1      oap1    O  -0.800
O789     3.329409039   33.873052538    9.213444478 XXXX 1      oap1    O  -0.800
O790     3.369721472   27.010287388    9.247487256 XXXX 1      oap1    O  -0.800
O791     3.282122159   20.177771160    9.232112803 XXXX 1      oap1    O  -0.800
O792     3.346807637   13.400218893    9.351107556 XXXX 1      oap1    O  -0.800
O801    17.593096782   34.063243698    1.118029213 XXXX 1      oap1    O  -0.800
O802    17.394106077   26.573104433    1.007241935 XXXX 1      oap1    O  -0.800
O803    17.547055738   19.645645688    1.618062863 XXXX 1      oap1    O  -0.800
O804    17.825334156   13.407437817    1.272153637 XXXX 1      oap1    O  -0.800
O805    12.659790746   33.929916042    9.054901616 XXXX 1      oap1    O  -0.800
O806    12.812593869   27.073970456    9.194090988 XXXX 1      oap1    O  -0.800
O807    12.704066502   20.242836354    9.215840920 XXXX 1      oap1    O  -0.800
O808    12.798968720   13.282604212    9.242771736 XXXX 1      oap1    O  -0.800
O809     7.980995463   33.689418873   17.426665288 XXXX 1      oap1    O  -0.800
O810     8.051867576   26.998937212   17.554427322 XXXX 1      oap1    O  -0.800
O811     7.784867710   20.209444943   17.415004063 XXXX 1      oap1    O  -0.800
O812     7.972778459   13.347489874   17.576786210 XXXX 1      oap1    O  -0.800
O813     3.343171479   33.604910268   25.618202202 XXXX 1      oap1    O  -0.800
O814     3.325429054   26.929620972   25.696303315 XXXX 1      oap1    O  -0.800
O815     3.484683396   20.306419227   25.683964872 XXXX 1      oap1    O  -0.800
O816     3.462631314   13.334046962   25.613381245 XXXX 1      oap1    O  -0.800
O833     5.395568415   33.707203608    1.204922687 XXXX 1      oap1    O  -0.800
O834     5.765320913   26.761701191    0.733119177 XXXX 1      oap1    O  -0.800
O835     5.746174745   20.184101099    0.835004229 XXXX 1      oap1    O  -0.800
O836     5.871384536   13.232517632    0.896257137 XXXX 1      oap1    O  -0.800
O837     0.761598278   33.865854927    9.059305517 XXXX 1      oap1    O  -0.800
O838     0.806730357   26.908315201    9.186149134 XXXX 1      oap1    O  -0.800
O839     0.670735297   20.081161863    9.312843130 XXXX 1      oap1    O  -0.800
O840     0.775280408   13.045633580    9.295133609 XXXX 1      oap1    O  -0.800
O849    14.983111921   33.520166695    1.439030838 XXXX 1      oap1    O  -0.800
O850    14.788880082   26.101832463    1.356250099 XXXX 1      oap1    O  -0.800
O851    15.175755829   19.719065511    0.595815050 XXXX 1      oap1    O  -0.800
O852    15.267833751   13.418784030    0.576625524 XXXX 1      oap1    O  -0.800
O853    10.005463659   33.748561549    9.200860748 XXXX 1      oap1    O  -0.800
O854    10.300121113   27.008004466    9.128064570 XXXX 1      oap1    O  -0.800
O855    10.180557270   20.042222757    9.188804859 XXXX 1      oap1    O  -0.800
O856    10.246634614   13.120713389    9.323914361 XXXX 1      oap1    O  -0.800
O857     5.506533848   34.025398470   17.356401649 XXXX 1      oap1    O  -0.800
O858     5.470928753   27.121291468   17.333930866 XXXX 1      oap1    O  -0.800
O859     5.241652715   20.122296246   17.484131825 XXXX 1      oap1    O  -0.800
O860     5.357127126   13.320658902   17.557584634 XXXX 1      oap1    O  -0.800
O861     0.844736000   33.807822231   25.270850042 XXXX 1      oap1    O  -0.800
O862     0.693425460   26.994727944   25.723725172 XXXX 1      oap1    O  -0.800
O863     0.898024269   20.153116076   25.419329250 XXXX 1      oap1    O  -0.800
O864     0.899282056   13.220785206   25.395707871 XXXX 1      oap1    O  -0.800
Ca337    5.596744853   30.375693853    2.796277524 XXXX 1      ca+h    Ca  1.500
Ca338    5.780909204   23.600168151    3.158715609 XXXX 1      ca+h    Ca  1.500
Ca339    5.895958401   16.805986481    3.404746729 XXXX 1      ca+h    Ca  1.500
Ca340    5.884854094   10.087835835    3.273186437 XXXX 1      ca+h    Ca  1.500
Ca341    1.103949072   30.294965266   11.146281578 XXXX 1      ca+h    Ca  1.500
Ca342    1.211031349   23.509842147   11.151247471 XXXX 1      ca+h    Ca  1.500
Ca343    1.214675594   16.742174240   11.198065429 XXXX 1      ca+h    Ca  1.500
Ca344    1.335595988    9.898567684   11.135079872 XXXX 1      ca+h    Ca  1.500
Ca353   15.070789550   31.481817509    2.996766890 XXXX 1      ca+h    Ca  1.500
Ca354   14.621921205   23.556318782    2.129088098 XXXX 1      ca+h    Ca  1.500
Ca355   15.301737784   16.629356408    3.400388354 XXXX 1      ca+h    Ca  1.500
Ca356   15.245293570    9.843881948    3.250553017 XXXX 1      ca+h    Ca  1.500
Ca357   10.663595925   30.453589173   11.039558513 XXXX 1      ca+h    Ca  1.500
Ca358   10.824081584   23.619089562   10.970984684 XXXX 1      ca+h    Ca  1.500
Ca359   10.719360115   16.660453016   11.393690951 XXXX 1      ca+h    Ca  1.500
Ca360   10.654561699    9.786925257   11.069288444 XXXX 1      ca+h    Ca  1.500
Ca361    6.036090668   30.424069168   19.276773874 XXXX 1      ca+h    Ca  1.500
Ca362    5.750328772   23.497222109   19.429064439 XXXX 1      ca+h    Ca  1.500
Ca363    5.820900083   16.645240993   19.321556524 XXXX 1      ca+h    Ca  1.500
Ca364    6.032226388    9.736221389   19.404178450 XXXX 1      ca+h    Ca  1.500
Ca365    1.012810944   30.319785311   27.554476351 XXXX 1      ca+h    Ca  1.500
Ca366    1.100048696   23.553315189   27.642657493 XXXX 1      ca+h    Ca  1.500
Ca367    1.330871745   16.760536717   27.529982675 XXXX 1      ca+h    Ca  1.500
Ca368    1.414797139    9.659944180   27.519356872 XXXX 1      ca+h    Ca  1.500
Ca369   24.090478508   31.355623535    2.875868663 XXXX 1      ca+h    Ca  1.500
Ca370   24.069443260   23.292322330    2.223608226 XXXX 1      ca+h    Ca  1.500
Ca371   24.685727913   16.772453894    3.381296328 XXXX 1      ca+h    Ca  1.500
Ca372   24.472840344    9.786252393    3.513671538 XXXX 1      ca+h    Ca  1.500
Ca373   19.990744290   30.328977680   10.974177918 XXXX 1      ca+h    Ca  1.500
Ca374   20.158741890   23.434909777   10.969186802 XXXX 1      ca+h    Ca  1.500
Ca375   20.163492312   16.687238200   11.136643515 XXXX 1      ca+h    Ca  1.500
Ca376   20.032255308    9.673887196   11.174121238 XXXX 1      ca+h    Ca  1.500
Ca377   15.419603159   30.455436092   19.278138630 XXXX 1      ca+h    Ca  1.500
Ca378   15.302759710   23.590005540   19.332688893 XXXX 1      ca+h    Ca  1.500
Ca379   15.259774672   16.661227542   19.330693539 XXXX 1      ca+h    Ca  1.500
Ca380   15.253276127    9.819102375   19.646217290 XXXX 1      ca+h    Ca  1.500
Ca381   10.770751191   30.278751105   27.538564382 XXXX 1      ca+h    Ca  1.500
Ca382   10.640537147   23.526078191   27.542359618 XXXX 1      ca+h    Ca  1.500
Ca383   10.606494125   16.717838771   27.661195005 XXXX 1      ca+h    Ca  1.500
Ca384   10.732997273    9.867547868   27.786736159 XXXX 1      ca+h    Ca  1.500
P145     2.213647741   29.279191036    1.412757144 XXXX 1      pap     P   1.000
P146     2.408375197   23.193198518    1.566855912 XXXX 1      pap     P   1.000
P147     2.567060726   16.886617285    1.676346425 XXXX 1      pap     P   1.000
P148     2.697075278   10.108993757    1.514418437 XXXX 1      pap     P   1.000
P161    11.819568325   30.872062622    1.614180409 XXXX 1      pap     P   1.000
P162    11.845184998   22.331295806    1.387499290 XXXX 1      pap     P   1.000
P163    12.051414646   16.455968003    1.607253200 XXXX 1      pap     P   1.000
P164    12.079292344    9.885516924    1.486914321 XXXX 1      pap     P   1.000
P165     7.772799818   30.379512563    9.818715437 XXXX 1      pap     P   1.000
P166     7.862253918   23.609455080    9.833384567 XXXX 1      pap     P   1.000
P167     7.865888090   16.677552558    9.903605043 XXXX 1      pap     P   1.000
P168     7.826908968    9.829869363    9.859229647 XXXX 1      pap     P   1.000
P169     3.131615017   30.559290165   17.929622340 XXXX 1      pap     P   1.000
P170     3.058854596   23.629062208   17.987814923 XXXX 1      pap     P   1.000
P171     3.077524607   16.676272141   18.068293102 XXXX 1      pap     P   1.000
P172     3.180572957    9.852376004   18.021621039 XXXX 1      pap     P   1.000
P177    20.906451382   30.371750654    1.594116564 XXXX 1      pap     P   1.000
P178    20.922286449   22.334317713    1.299979343 XXXX 1      pap     P   1.000
P179    21.402823817   16.393588745    1.458884523 XXXX 1      pap     P   1.000
P180    21.641154515    9.883851682    1.564157541 XXXX 1      pap     P   1.000
P181    17.194916358   30.381988339    9.557538448 XXXX 1      pap     P   1.000
P182    17.308636990   23.509199671    9.648278868 XXXX 1      pap     P   1.000
P183    17.141634894   16.691214258    9.808894701 XXXX 1      pap     P   1.000
P184    17.043038784    9.770228602    9.937688900 XXXX 1      pap     P   1.000
P185    12.583768199   30.411476054   17.896193480 XXXX 1      pap     P   1.000
P186    12.545258645   23.555993345   17.976457731 XXXX 1      pap     P   1.000
P187    12.432584749   16.686472967   17.943476181 XXXX 1      pap     P   1.000
P188    12.468190747    9.723646618   18.190847950 XXXX 1      pap     P   1.000
P189     7.958075997   30.323397174   26.318094730 XXXX 1      pap     P   1.000
P190     7.767089567   23.602045180   26.144278439 XXXX 1      pap     P   1.000
P191     7.716950827   16.643241707   26.174136531 XXXX 1      pap     P   1.000
P192     7.844044166    9.729711296   26.405032176 XXXX 1      pap     P   1.000
O865     1.585648149   27.885135850    1.645527353 XXXX 1      oap1    O  -0.800
O866     1.768019349   21.950776845    0.881088026 XXXX 1      oap1    O  -0.800
O867     2.819776985   15.869818888    0.459031365 XXXX 1      oap1    O  -0.800
O868     3.019418640    8.865107328    0.731810782 XXXX 1      oap1    O  -0.800
O881    10.954262058   30.273919353    0.557145260 XXXX 1      oap1    O  -0.800
O882    10.553495211   23.184738565    0.990372940 XXXX 1      oap1    O  -0.800
O883    11.171008028   15.271845495    1.091702453 XXXX 1      oap1    O  -0.800
O884    12.223590663    8.651826012    0.487441518 XXXX 1      oap1    O  -0.800
O885     7.601034579   30.455347308    8.297880717 XXXX 1      oap1    O  -0.800
O886     7.732744388   23.498441461    8.355905811 XXXX 1      oap1    O  -0.800
O887     7.702354121   16.677444914    8.413045537 XXXX 1      oap1    O  -0.800
O888     7.616387035   10.114862074    8.362662365 XXXX 1      oap1    O  -0.800
O889     3.067870395   30.505059114   16.422143701 XXXX 1      oap1    O  -0.800
O890     3.106852018   23.461778823   16.466010566 XXXX 1      oap1    O  -0.800
O891     3.199321826   16.619776504   16.519229219 XXXX 1      oap1    O  -0.800
O892     3.106217310    9.905608606   16.487255941 XXXX 1      oap1    O  -0.800
O897    20.300838090   29.458986933    0.491067335 XXXX 1      oap1    O  -0.800
O898    19.544026090   23.111866262    1.264397233 XXXX 1      oap1    O  -0.800
O899    20.864775910   15.198164475    0.776415258 XXXX 1      oap1    O  -0.800
O900    21.820646054    8.527108286    0.819670882 XXXX 1      oap1    O  -0.800
O901    17.041878577   30.419329674    8.048277238 XXXX 1      oap1    O  -0.800
O902    17.180732210   23.390461040    8.154397882 XXXX 1      oap1    O  -0.800
O903    16.989866739   16.827863921    8.319327565 XXXX 1      oap1    O  -0.800
O904    17.024681449    9.797897950    8.421705894 XXXX 1      oap1    O  -0.800
O905    12.432041202   30.705130470   16.366150542 XXXX 1      oap1    O  -0.800
O906    12.543972996   23.618134846   16.369956959 XXXX 1      oap1    O  -0.800
O907    12.457545041   16.796649104   16.401098788 XXXX 1      oap1    O  -0.800
O908    12.430229893    9.705349785   16.661046209 XXXX 1      oap1    O  -0.800
O909     8.086582967   30.759483930   24.834806375 XXXX 1      oap1    O  -0.800
O910     7.643814359   23.561592171   24.661284198 XXXX 1      oap1    O  -0.800
O911     7.770361719   16.611160308   24.637063145 XXXX 1      oap1    O  -0.800
O912     7.951065677    9.837827649   24.843991814 XXXX 1      oap1    O  -0.800
O913     3.189395283   29.629777924    2.496498593 XXXX 1      oap1    O  -0.800
O914     1.578736677   23.265360576    2.801237090 XXXX 1      oap1    O  -0.800
O915     1.261719196   16.426054863    2.314338110 XXXX 1      oap1    O  -0.800
O916     1.304809548   10.003160657    2.141785362 XXXX 1      oap1    O  -0.800
O929    10.986115856   30.411937360    2.851502714 XXXX 1      oap1    O  -0.800
O930    11.396962245   20.793479453    1.661727283 XXXX 1      oap1    O  -0.800
O931    11.271690062   16.849511425    2.841204938 XXXX 1      oap1    O  -0.800
O932    10.619358084    9.964254340    2.080287631 XXXX 1      oap1    O  -0.800
O933     6.392685967   30.454804532   10.554371670 XXXX 1      oap1    O  -0.800
O934     6.532172280   23.619587448   10.519108883 XXXX 1      oap1    O  -0.800
O935     6.460980619   16.690603740   10.600974220 XXXX 1      oap1    O  -0.800
O936     6.524032568    9.658119911   10.623104427 XXXX 1      oap1    O  -0.800
O937     1.766190331   30.555196154   18.561609311 XXXX 1      oap1    O  -0.800
O938     1.591770402   23.627121492   18.508515707 XXXX 1      oap1    O  -0.800
O939     1.626794750   16.765622351   18.551749498 XXXX 1      oap1    O  -0.800
O940     1.732572557    9.849495959   18.673507443 XXXX 1      oap1    O  -0.800
O945    19.984976562   30.135043479    2.774566518 XXXX 1      oap1    O  -0.800
O946    21.767012040   22.811051737    2.489473134 XXXX 1      oap1    O  -0.800
O947    20.561306959   16.535388952    2.764508009 XXXX 1      oap1    O  -0.800
O948    20.134449136   10.014134166    1.831286695 XXXX 1      oap1    O  -0.800
O949    15.835729396   30.232345284   10.336908473 XXXX 1      oap1    O  -0.800
O950    15.936225799   23.566385078   10.304692988 XXXX 1      oap1    O  -0.800
O951    15.697173113   16.609849660   10.463211842 XXXX 1      oap1    O  -0.800
O952    15.670804524    9.746810847   10.618691117 XXXX 1      oap1    O  -0.800
O953    11.207689592   30.333111420   18.645708785 XXXX 1      oap1    O  -0.800
O954    11.191521950   23.522371774   18.664760973 XXXX 1      oap1    O  -0.800
O955    11.056684630   16.718005581   18.649604467 XXXX 1      oap1    O  -0.800
O956    11.056155778    9.695070429   18.857039982 XXXX 1      oap1    O  -0.800
O957     6.403702298   30.315496285   26.630654772 XXXX 1      oap1    O  -0.800
O958     6.376761575   23.756795761   26.815236926 XXXX 1      oap1    O  -0.800
O959     6.294676957   16.674700522   26.704210999 XXXX 1      oap1    O  -0.800
O960     6.413443795    9.772272512   26.945394593 XXXX 1      oap1    O  -0.800
Ca405    5.684287344   30.370221628    6.972221986 XXXX 1      ca+h    Ca  1.500
Ca406    5.663639171   23.538431056    6.845715007 XXXX 1      ca+h    Ca  1.500
Ca407    5.851707677   16.734212890    7.044428042 XXXX 1      ca+h    Ca  1.500
Ca408    5.514616983    9.712892691    7.058281468 XXXX 1      ca+h    Ca  1.500
Ca409    0.936449360   30.463008448   15.118473748 XXXX 1      ca+h    Ca  1.500
Ca410    1.078092967   23.581303045   15.167536452 XXXX 1      ca+h    Ca  1.500
Ca411    1.080898134   16.644271982   15.150220066 XXXX 1      ca+h    Ca  1.500
Ca412    0.893594602    9.815528744   15.191821079 XXXX 1      ca+h    Ca  1.500
Ca421   14.983663712   30.308872043    6.809242748 XXXX 1      ca+h    Ca  1.500
Ca422   15.170816866   23.490785393    6.752182676 XXXX 1      ca+h    Ca  1.500
Ca423   15.074837489   16.536089806    6.861451394 XXXX 1      ca+h    Ca  1.500
Ca424   15.003140396    9.811317171    6.936979955 XXXX 1      ca+h    Ca  1.500
Ca425   10.526383698   30.511783299   15.126245789 XXXX 1      ca+h    Ca  1.500
Ca426   10.479707103   23.628166026   15.176174999 XXXX 1      ca+h    Ca  1.500
Ca427   10.580367920   16.657820154   15.193884428 XXXX 1      ca+h    Ca  1.500
Ca428   10.438711701    9.782881257   15.154874717 XXXX 1      ca+h    Ca  1.500
Ca429    5.918956468   30.386559609   23.415881678 XXXX 1      ca+h    Ca  1.500
Ca430    5.648884348   23.499887554   23.305642116 XXXX 1      ca+h    Ca  1.500
Ca431    5.757254610   16.648715708   23.403139203 XXXX 1      ca+h    Ca  1.500
Ca432    5.746787622    9.817229404   23.362645504 XXXX 1      ca+h    Ca  1.500
P213     8.293472528   30.401819099    5.176629945 XXXX 1      pap     P   1.000
P214     8.338672327   23.546394312    5.126554622 XXXX 1      pap     P   1.000
P215     8.292760792   16.865036286    5.326638395 XXXX 1      pap     P   1.000
P216     8.240952174   10.062180720    5.304581166 XXXX 1      pap     P   1.000
P217     3.540548067   30.376223915   13.363657118 XXXX 1      pap     P   1.000
P218     3.706465529   23.512749885   13.306624400 XXXX 1      pap     P   1.000
P219     3.649795027   16.652579615   13.265876566 XXXX 1      pap     P   1.000
P220     3.663076433    9.772146485   13.450404671 XXXX 1      pap     P   1.000
P229    17.423156016   30.529942645    4.879553218 XXXX 1      pap     P   1.000
P230    17.953036997   23.531147238    5.283148952 XXXX 1      pap     P   1.000
P231    17.781364933   16.659360190    5.226871736 XXXX 1      pap     P   1.000
P232    17.675555164    9.820288668    5.298664784 XXXX 1      pap     P   1.000
P233    13.077866670   30.496541513   13.305266055 XXXX 1      pap     P   1.000
P234    13.113349889   23.518511067   13.339773853 XXXX 1      pap     P   1.000
P235    13.009126226   16.720224515   13.372363419 XXXX 1      pap     P   1.000
P236    13.010876612    9.740634885   13.431155766 XXXX 1      pap     P   1.000
P237     8.249649978   30.347037884   21.441293949 XXXX 1      pap     P   1.000
P238     8.279445246   23.536369182   21.502094110 XXXX 1      pap     P   1.000
P239     8.280100890   16.744792551   21.587940050 XXXX 1      pap     P   1.000
P240     8.205113938    9.850469747   21.641580538 XXXX 1      pap     P   1.000
O981     9.682598674   30.411210830    5.832097718 XXXX 1      oap1    O  -0.800
O982     9.627010383   23.526003588    6.007480895 XXXX 1      oap1    O  -0.800
O983     9.585005919   16.629956162    6.094381278 XXXX 1      oap1    O  -0.800
O984     9.678551207   10.124774441    5.828535065 XXXX 1      oap1    O  -0.800
O985     4.902554696   30.553112534   13.976662153 XXXX 1      oap1    O  -0.800
O986     5.070757237   23.558105608   14.076733503 XXXX 1      oap1    O  -0.800
O987     4.972755996   16.824608837   14.062397312 XXXX 1      oap1    O  -0.800
O988     5.053249576    9.795865464   14.033862737 XXXX 1      oap1    O  -0.800
O997    18.781418831   30.951532753    5.464652120 XXXX 1      oap1    O  -0.800
O998    19.186168931   23.277470867    6.180069743 XXXX 1      oap1    O  -0.800
O999    19.172541433   16.639017027    5.925622387 XXXX 1      oap1    O  -0.800
O1000   19.016766939    9.733434841    5.917753171 XXXX 1      oap1    O  -0.800
O1001   14.372289479   30.626382858   14.142369306 XXXX 1      oap1    O  -0.800
O1002   14.474430434   23.739347019   14.020227407 XXXX 1      oap1    O  -0.800
O1003   14.424438931   16.758541720   13.967207196 XXXX 1      oap1    O  -0.800
O1004   14.397224381    9.636586680   14.195194365 XXXX 1      oap1    O  -0.800
O1005    9.590422545   30.652704714   22.167572625 XXXX 1      oap1    O  -0.800
O1006    9.518585554   23.678184030   22.407262196 XXXX 1      oap1    O  -0.800
O1007    9.659097579   16.741262746   22.206883120 XXXX 1      oap1    O  -0.800
O1008    9.577435092    9.996547471   22.366417154 XXXX 1      oap1    O  -0.800
O1029    8.362758434   30.321340297    3.643720761 XXXX 1      oap1    O  -0.800
O1030    8.656059416   23.561719472    3.615526052 XXXX 1      oap1    O  -0.800
O1031    8.494674589   17.006981456    3.778563367 XXXX 1      oap1    O  -0.800
O1032    8.169401034    9.923187675    3.804235571 XXXX 1      oap1    O  -0.800
O1033    3.646795029   30.294942993   11.845355700 XXXX 1      oap1    O  -0.800
O1034    3.824708485   23.574860459   11.735470012 XXXX 1      oap1    O  -0.800
O1035    3.883955746   16.677771646   11.710085939 XXXX 1      oap1    O  -0.800
O1036    3.607654077    9.793693941   11.877700934 XXXX 1      oap1    O  -0.800
O1045   17.357400902   30.391476432    3.346149566 XXXX 1      oap1    O  -0.800
O1046   18.422194848   23.771288461    3.857694077 XXXX 1      oap1    O  -0.800
O1047   17.825533230   16.667818940    3.645265283 XXXX 1      oap1    O  -0.800
O1048   17.772098610    9.845204451    3.753831176 XXXX 1      oap1    O  -0.800
O1049   13.307645760   30.506061081   11.760207560 XXXX 1      oap1    O  -0.800
O1050   13.317018617   23.425367329   11.779739759 XXXX 1      oap1    O  -0.800
O1051   13.169858157   16.627027403   11.821073675 XXXX 1      oap1    O  -0.800
O1052   13.074756914    9.690756213   11.880526588 XXXX 1      oap1    O  -0.800
O1053    8.498942282   30.286008809   19.947618895 XXXX 1      oap1    O  -0.800
O1054    8.549551627   23.513430783   19.973769531 XXXX 1      oap1    O  -0.800
O1055    8.249049155   16.656008459   20.052142562 XXXX 1      oap1    O  -0.800
O1056    8.408852493    9.807019169   20.100313769 XXXX 1      oap1    O  -0.800
Ca437    2.289236476   30.192217363    4.824458781 XXXX 1      ca+h    Ca  1.500
Ca438    2.464468406   23.299838907    5.009880969 XXXX 1      ca+h    Ca  1.500
Ca439    2.468272926   16.571295706    4.931881508 XXXX 1      ca+h    Ca  1.500
Ca440    2.635695243    9.828029922    4.878932254 XXXX 1      ca+h    Ca  1.500
Ca453   11.777202244   30.481941548    4.941399669 XXXX 1      ca+h    Ca  1.500
Ca454   11.905649912   23.675796610    4.897523458 XXXX 1      ca+h    Ca  1.500
Ca455   11.854836451   16.811650770    5.094387068 XXXX 1      ca+h    Ca  1.500
Ca456   12.176046039    9.696949794    4.913726067 XXXX 1      ca+h    Ca  1.500
Ca457    7.006513586   30.510967044   12.980013572 XXXX 1      ca+h    Ca  1.500
Ca458    7.291513674   23.668779337   12.977528933 XXXX 1      ca+h    Ca  1.500
Ca459    7.055311279   16.636843271   12.963706736 XXXX 1      ca+h    Ca  1.500
Ca460    7.071181642    9.857391547   13.016298408 XXXX 1      ca+h    Ca  1.500
Ca461    2.481815067   30.463784396   21.139607029 XXXX 1      ca+h    Ca  1.500
Ca462    2.296533243   23.597229669   21.256634440 XXXX 1      ca+h    Ca  1.500
Ca463    2.462065665   16.755189558   21.195484052 XXXX 1      ca+h    Ca  1.500
Ca464    2.461995298    9.834308836   21.315139135 XXXX 1      ca+h    Ca  1.500
Ca469   21.066802948   30.503734944    4.830794757 XXXX 1      ca+h    Ca  1.500
Ca470   21.228152489   23.369291738    4.777942061 XXXX 1      ca+h    Ca  1.500
Ca471   21.397629703   16.643257869    4.953495605 XXXX 1      ca+h    Ca  1.500
Ca472   21.378671635    9.950873108    5.031207763 XXXX 1      ca+h    Ca  1.500
Ca473   16.525875102   30.477558777   12.988741014 XXXX 1      ca+h    Ca  1.500
Ca474   16.539184526   23.474656938   12.918887026 XXXX 1      ca+h    Ca  1.500
Ca475   16.632121614   16.662989963   12.986788595 XXXX 1      ca+h    Ca  1.500
Ca476   16.458695629    9.670080992   12.989509412 XXXX 1      ca+h    Ca  1.500
Ca477   11.932032688   30.537160603   21.103292541 XXXX 1      ca+h    Ca  1.500
Ca478   11.719229027   23.443944044   21.226669324 XXXX 1      ca+h    Ca  1.500
Ca479   11.850448926   16.720835912   21.243809787 XXXX 1      ca+h    Ca  1.500
Ca480   11.717275044    9.913389736   21.317959948 XXXX 1      ca+h    Ca  1.500
P245     2.638911880   30.345368944    7.835123848 XXXX 1      pap     P   1.000
P246     2.719961055   23.486848232    8.014144363 XXXX 1      pap     P   1.000
P247     2.693696176   16.651561020    7.921957536 XXXX 1      pap     P   1.000
P248     2.790910816    9.776003436    8.008282998 XXXX 1      pap     P   1.000
P261    12.150615715   30.476890032    7.889767146 XXXX 1      pap     P   1.000
P262    12.252854397   23.448300551    7.873594289 XXXX 1      pap     P   1.000
P263    12.023569181   16.753723134    8.153912368 XXXX 1      pap     P   1.000
P264    12.251552070    9.871500269    7.951971891 XXXX 1      pap     P   1.000
P265     7.387443567   30.439743109   16.084321356 XXXX 1      pap     P   1.000
P266     7.442594661   23.653058310   16.243162892 XXXX 1      pap     P   1.000
P267     7.277890323   16.643008768   16.182164462 XXXX 1      pap     P   1.000
P268     7.425907829    9.784040650   16.199196593 XXXX 1      pap     P   1.000
P269     2.652578618   30.311613188   24.339786931 XXXX 1      pap     P   1.000
P270     2.593772185   23.494695008   24.446059283 XXXX 1      pap     P   1.000
P271     2.594964555   16.613934311   24.366644851 XXXX 1      pap     P   1.000
P272     2.665716323    9.667654334   24.366991211 XXXX 1      pap     P   1.000
P277    21.525780739   30.420825732    7.879307612 XXXX 1      pap     P   1.000
P278    21.718282814   23.459996017    7.875947708 XXXX 1      pap     P   1.000
P279    21.455369546   16.556432725    8.011182115 XXXX 1      pap     P   1.000
P280    21.471598312    9.849394716    8.117807309 XXXX 1      pap     P   1.000
P281    16.861415530   30.474115851   16.087724443 XXXX 1      pap     P   1.000
P282    16.813634352   23.588328059   16.126779090 XXXX 1      pap     P   1.000
P283    16.741462841   16.607515171   16.222863878 XXXX 1      pap     P   1.000
P284    16.797720314    9.764057285   16.259096643 XXXX 1      pap     P   1.000
P285    12.239293871   30.403591000   24.203364500 XXXX 1      pap     P   1.000
P286    12.123861215   23.472718375   24.206823221 XXXX 1      pap     P   1.000
P287    12.026518303   16.646613835   24.385476528 XXXX 1      pap     P   1.000
P288    12.143114678    9.862992817   24.461284009 XXXX 1      pap     P   1.000
O1061    1.256820907   30.528208359    8.438699962 XXXX 1      oap1    O  -0.800
O1062    1.386753950   23.628712858    8.729101505 XXXX 1      oap1    O  -0.800
O1063    1.383864477   16.673738534    8.708092968 XXXX 1      oap1    O  -0.800
O1064    1.522578048    9.647590379    8.793836376 XXXX 1      oap1    O  -0.800
O1077   10.858350653   30.450962414    8.713754533 XXXX 1      oap1    O  -0.800
O1078   10.829831827   23.330068570    8.490583482 XXXX 1      oap1    O  -0.800
O1079   10.783074037   16.739698518    9.076693634 XXXX 1      oap1    O  -0.800
O1080   10.907917837    9.773220440    8.653617489 XXXX 1      oap1    O  -0.800
O1081    6.074999012   30.412250781   16.888641011 XXXX 1      oap1    O  -0.800
O1082    6.030668818   23.461628748   16.947832802 XXXX 1      oap1    O  -0.800
O1083    5.983776847   16.599406928   16.866247956 XXXX 1      oap1    O  -0.800
O1084    6.093888211   10.073366531   16.936690175 XXXX 1      oap1    O  -0.800
O1085    1.342082509   30.457913966   25.178387659 XXXX 1      oap1    O  -0.800
O1086    1.307676279   23.718376377   25.229368727 XXXX 1      oap1    O  -0.800
O1087    1.288419445   16.765194282   25.180265625 XXXX 1      oap1    O  -0.800
O1088    1.309316854    9.712964295   25.126805699 XXXX 1      oap1    O  -0.800
O1093   20.236952051   30.488734390    8.716892049 XXXX 1      oap1    O  -0.800
O1094   20.410191561   23.068277482    8.638962550 XXXX 1      oap1    O  -0.800
O1095   20.141157773   16.629551608    8.790808033 XXXX 1      oap1    O  -0.800
O1096   20.100753775    9.804340061    8.813179640 XXXX 1      oap1    O  -0.800
O1097   15.565548376   30.748493161   16.868656662 XXXX 1      oap1    O  -0.800
O1098   15.506699689   23.455169402   16.899481086 XXXX 1      oap1    O  -0.800
O1099   15.430774112   16.525939357   16.998775232 XXXX 1      oap1    O  -0.800
O1100   15.560847484    9.868730784   17.175086481 XXXX 1      oap1    O  -0.800
O1101   10.986436061   30.520643145   25.035267533 XXXX 1      oap1    O  -0.800
O1102   10.887899766   23.632181521   25.173323980 XXXX 1      oap1    O  -0.800
O1103   10.754882261   16.674978922   25.213401944 XXXX 1      oap1    O  -0.800
O1104   10.898001504   10.019671706   25.340104593 XXXX 1      oap1    O  -0.800
O1109    3.788319712   30.362401825    8.834695943 XXXX 1      oap1    O  -0.800
O1110    3.976991238   23.575930967    8.943415376 XXXX 1      oap1    O  -0.800
O1111    3.962153248   16.562213578    8.862504169 XXXX 1      oap1    O  -0.800
O1112    3.974852496    9.816553131    9.020293806 XXXX 1      oap1    O  -0.800
O1125   13.414851601   30.441980338    8.785471398 XXXX 1      oap1    O  -0.800
O1126   13.311553680   23.543452141    8.981502723 XXXX 1      oap1    O  -0.800
O1127   13.341663365   16.618049953    8.920044889 XXXX 1      oap1    O  -0.800
O1128   13.483502299    9.745212359    8.881338360 XXXX 1      oap1    O  -0.800
O1129    8.568519426   30.349588642   17.056200626 XXXX 1      oap1    O  -0.800
O1130    8.638240655   23.669692370   17.152089626 XXXX 1      oap1    O  -0.800
O1131    8.487702260   16.554668664   17.122782181 XXXX 1      oap1    O  -0.800
O1132    8.571299020    9.868232041   17.235434579 XXXX 1      oap1    O  -0.800
O1133    3.995153255   30.207820251   25.170139691 XXXX 1      oap1    O  -0.800
O1134    3.909527673   23.539457188   25.282994272 XXXX 1      oap1    O  -0.800
O1135    3.830105483   16.418396796   25.269882984 XXXX 1      oap1    O  -0.800
O1136    3.866669463    9.629247841   25.367544177 XXXX 1      oap1    O  -0.800
O1141   22.795173407   30.484354876    8.746082533 XXXX 1      oap1    O  -0.800
O1142   22.960170371   23.460295053    8.801641467 XXXX 1      oap1    O  -0.800
O1143   22.716840608   16.556365745    8.966687185 XXXX 1      oap1    O  -0.800
O1144   22.576836775    9.683442227    9.186027777 XXXX 1      oap1    O  -0.800
O1145   18.055894573   30.317258608   16.994530386 XXXX 1      oap1    O  -0.800
O1146   18.045933773   23.616431119   17.090037846 XXXX 1      oap1    O  -0.800
O1147   18.031544724   16.672569175   17.022267546 XXXX 1      oap1    O  -0.800
O1148   18.190071235    9.716134844   17.021838532 XXXX 1      oap1    O  -0.800
O1149   13.440487238   30.367397180   25.157775056 XXXX 1      oap1    O  -0.800
O1150   13.414373476   23.417755297   25.035040477 XXXX 1      oap1    O  -0.800
O1151   13.276219427   16.518089262   25.297613522 XXXX 1      oap1    O  -0.800
O1152   13.479118213    9.768728820   25.253507615 XXXX 1      oap1    O  -0.800
O1173    4.598091265   33.353632835    4.754988308 XXXX 1      oap2    O  -1.100
O1174    4.766869027   25.349568416    4.901268226 XXXX 1      oap2    O  -1.100
O1175    4.688315835   18.388793262    5.108460047 XXXX 1      oap2    O  -1.100
O1176    4.670134137   11.593797104    4.944318340 XXXX 1      oap2    O  -1.100
O1177   -0.027955717   33.220829938   13.012961491 XXXX 1      oap2    O  -1.100
O1178   -0.068299846   26.295982372   13.093438903 XXXX 1      oap2    O  -1.100
O1179    0.031085051   19.477254881   13.095097822 XXXX 1      oap2    O  -1.100
O1180   -0.095189136   12.492488234   13.157236893 XXXX 1      oap2    O  -1.100
O1189   14.049143722   33.128307936    4.331851417 XXXX 1      oap2    O  -1.100
O1190   14.133644587   26.747718409    4.794474940 XXXX 1      oap2    O  -1.100
O1191   14.060548261   17.891044404    5.108338549 XXXX 1      oap2    O  -1.100
O1192   14.100754822   11.316251374    4.898473830 XXXX 1      oap2    O  -1.100
O1193    9.474005879   33.280188052   13.077876715 XXXX 1      oap2    O  -1.100
O1194    9.443277706   26.303794991   13.026063740 XXXX 1      oap2    O  -1.100
O1195    9.561489727   19.634313291   13.054429936 XXXX 1      oap2    O  -1.100
O1196    9.369308551   12.473072177   13.069420314 XXXX 1      oap2    O  -1.100
O1197    4.584199159   33.427597820   21.234597852 XXXX 1      oap2    O  -1.100
O1198    4.735128215   26.098578932   21.351899767 XXXX 1      oap2    O  -1.100
O1199    4.585553336   19.278547218   21.299473724 XXXX 1      oap2    O  -1.100
O1200    4.630045622   12.547960273   21.341487454 XXXX 1      oap2    O  -1.100
O1221    4.707311203   29.883739084    4.897865504 XXXX 1      oap2    O  -1.100
O1222    4.630045843   22.190200028    5.079149470 XXXX 1      oap2    O  -1.100
O1223    4.789702118   15.097844749    5.010156258 XXXX 1      oap2    O  -1.100
O1224    4.897597157    8.444913271    4.993833676 XXXX 1      oap2    O  -1.100
O1225   -0.095645028   29.646338328   13.074431335 XXXX 1      oap2    O  -1.100
O1226    0.096593565   23.051146980   13.121844196 XXXX 1      oap2    O  -1.100
O1227   -0.017497175   15.903571675   13.147935448 XXXX 1      oap2    O  -1.100
O1228    0.002593102    9.278934106   13.027139896 XXXX 1      oap2    O  -1.100
O1237   14.113948923   29.849605823    4.573202151 XXXX 1      oap2    O  -1.100
O1238   14.254654309   23.604742220    4.590935504 XXXX 1      oap2    O  -1.100
O1239   14.171589795   14.814700244    5.251105422 XXXX 1      oap2    O  -1.100
O1240   14.281762294    8.106452270    4.900161594 XXXX 1      oap2    O  -1.100
O1241    9.399556344   30.002874912   13.075735400 XXXX 1      oap2    O  -1.100
O1242    9.576305873   23.009098637   13.001499864 XXXX 1      oap2    O  -1.100
O1243    9.349095302   15.999105863   13.236594973 XXXX 1      oap2    O  -1.100
O1244    9.490451231    9.215465103   13.041639599 XXXX 1      oap2    O  -1.100
O1245    4.695248915   29.592106566   21.202665778 XXXX 1      oap2    O  -1.100
O1246    4.504066354   22.800674995   21.299273127 XXXX 1      oap2    O  -1.100
O1247    4.681190941   15.880450986   21.377470658 XXXX 1      oap2    O  -1.100
O1248    4.747891686    8.843822560   21.357214736 XXXX 1      oap2    O  -1.100
H21      4.264262613   32.497978039    4.721013650 XXXX 1      hop     H   0.200
H22      4.047881783   25.716844288    4.444471574 XXXX 1      hop     H   0.200
H23      3.993943807   18.658257714    4.511050789 XXXX 1      hop     H   0.200
H24      4.123815870   12.068436064    4.360201790 XXXX 1      hop     H   0.200
H25     -0.214112109   32.307148439   12.793672592 XXXX 1      hop     H   0.200
H26      0.112772252   25.365081579   13.022012287 XXXX 1      hop     H   0.200
H27     -0.056809956   18.536211186   13.457174190 XXXX 1      hop     H   0.200
H28     -0.397547470   11.571014431   12.994536235 XXXX 1      hop     H   0.200
H37     13.066103015   33.056064611    4.258079559 XXXX 1      hop     H   0.200
H38     14.079366438   25.747893244    4.784269088 XXXX 1      hop     H   0.200
H39     13.927387166   18.595812317    4.436916080 XXXX 1      hop     H   0.200
H40     13.403580046   11.943947935    4.745945569 XXXX 1      hop     H   0.200
H41      9.367396108   32.433663972   13.423216206 XXXX 1      hop     H   0.200
H42      9.667167601   25.357067225   12.973001797 XXXX 1      hop     H   0.200
H43      9.850101010   18.832495662   13.499014610 XXXX 1      hop     H   0.200
H44      9.157449090   11.547243191   13.288385101 XXXX 1      hop     H   0.200
H45      5.101403874   32.644091229   21.249086558 XXXX 1      hop     H   0.200
H46      4.680778585   25.165406000   21.285032447 XXXX 1      hop     H   0.200
H47      4.828803988   18.378098191   21.492659800 XXXX 1      hop     H   0.200
H48      4.777360000   11.717689652   21.055247691 XXXX 1      hop     H   0.200
H69      4.327889702   28.991144279    4.772054197 XXXX 1      hop     H   0.200
H70      4.035934916   21.562609252    4.623428854 XXXX 1      hop     H   0.200
H71      4.738233412   14.835878512    4.069294567 XXXX 1      hop     H   0.200
H72      4.832306029    8.097542133    4.095882164 XXXX 1      hop     H   0.200
H73     -0.377605040   28.702534844   13.048434467 XXXX 1      hop     H   0.200
H74      0.255430672   22.086538851   13.203073050 XXXX 1      hop     H   0.200
H75     -0.054988667   14.994393854   13.368204327 XXXX 1      hop     H   0.200
H76      0.078208271    8.307518925   12.858362086 XXXX 1      hop     H   0.200
H85     14.663205508   29.178422499    4.599723821 XXXX 1      hop     H   0.200
H86     14.807955454   24.390005708    4.621451234 XXXX 1      hop     H   0.200
H87     13.471041767   14.677723197    4.623538068 XXXX 1      hop     H   0.200
H88     13.632662396    7.561117400    4.421183854 XXXX 1      hop     H   0.200
H89      9.448939493   29.078671575   13.320948980 XXXX 1      hop     H   0.200
H90      9.482329352   22.060587361   13.016470849 XXXX 1      hop     H   0.200
H91      9.238267339   15.054013347   13.215492762 XXXX 1      hop     H   0.200
H92      9.331942426    8.334443695   12.697087212 XXXX 1      hop     H   0.200
H93      4.741768005   28.711147058   20.834155484 XXXX 1      hop     H   0.200
H94      4.201488881   21.918059373   21.463227520 XXXX 1      hop     H   0.200
H95      4.577302905   15.009957763   21.041966965 XXXX 1      hop     H   0.200
H96      4.889256843    8.138559321   21.935291828 XXXX 1      hop     H   0.200
end
O21      5.512370268    7.486910849    7.571563718 XXXX 1      oap1    O  -0.800
O25      0.775796137    7.609945670   15.856684537 XXXX 1      oap1    O  -0.800
O37     14.963638620    7.626070782    7.626972909 XXXX 1      oap1    O  -0.800
O41     10.213082423    7.538781863   15.859208743 XXXX 1      oap1    O  -0.800
O45      5.677399947    7.657558842   24.342361535 XXXX 1      oap1    O  -0.800
O49      1.669879770    7.844558873    4.227865934 XXXX 1      oap1    O  -0.800
O65     10.966337794    7.888289335    4.248565178 XXXX 1      oap1    O  -0.800
O69      6.907728333    7.486759847   12.571488810 XXXX 1      oap1    O  -0.800
O73      1.879078089    7.598121284   20.471902074 XXXX 1      oap1    O  -0.800
O81     20.717307845    7.829035777    4.284594587 XXXX 1      oap1    O  -0.800
O85     16.243051513    7.431668129   12.496590557 XXXX 1      oap1    O  -0.800
O89     11.390305058    7.593290629   20.806453737 XXXX 1      oap1    O  -0.800
O93      6.475069712    7.636045955   28.924705672 XXXX 1      oap1    O  -0.800
O113     6.629886289    7.846670711    2.509886385 XXXX 1      oap1    O  -0.800
O117     1.892636999    7.647099524   10.978057040 XXXX 1      oap1    O  -0.800
O129    16.505812550    7.703400308    2.720765633 XXXX 1      oap1    O  -0.800
O133    11.508223701    7.585655749   11.138540283 XXXX 1      oap1    O  -0.800
O137     6.877757203    7.536487457   19.212392540 XXXX 1      oap1    O  -0.800
O141     1.952694465    7.353130357   27.517282209 XXXX 1      oap1    O  -0.800
O145     2.190642650    4.604463301    1.138060644 XXXX 1      oap1    O  -0.800
O161    11.995125222    4.289974565    0.866466568 XXXX 1      oap1    O  -0.800
O165     8.686310861    4.151791811   10.269721553 XXXX 1      oap1    O  -0.800
O169     3.986749279    4.093952164   18.489657710 XXXX 1      oap1    O  -0.800
O177    21.036620636    4.601155435    1.242877188 XXXX 1      oap1    O  -0.800
O181    18.016583699    4.016859976   10.575258138 XXXX 1      oap1    O  -0.800
O185    13.360566171    4.079111015   18.808230986 XXXX 1      oap1    O  -0.800
O189     8.680565456    4.115139716   26.569495339 XXXX 1      oap1    O  -0.800
O213     7.284157920    4.245002359    5.337373008 XXXX 1      oap1    O  -0.800
O217     2.546532510    4.088715865   13.790181794 XXXX 1      oap1    O  -0.800
O229    17.015954519    4.359545328    5.668165761 XXXX 1      oap1    O  -0.800
O233    12.079629602    4.216891488   13.696598225 XXXX 1      oap1    O  -0.800
O237     7.657751099    4.098725847   22.024597845 XXXX 1      oap1    O  -0.800
O245     2.734805628    4.162383709    7.176854993 XXXX 1      oap1    O  -0.800
O261    11.927763453    4.325209789    7.084313987 XXXX 1      oap1    O  -0.800
O265     7.544941015    4.068331169   15.176548333 XXXX 1      oap1    O  -0.800
O269     2.562540320    4.213302966   23.420597126 XXXX 1      oap1    O  -0.800
O277    21.692577262    4.299740807    7.093999448 XXXX 1      oap1    O  -0.800
O281    16.947883021    4.102316386   15.210233204 XXXX 1      oap1    O  -0.800
O285    12.434936252    4.216587813   23.475196372 XXXX 1      oap1    O  -0.800
O289     3.757503722    2.742529304    2.143167428 XXXX 1      oap1    O  -0.800
O305    13.143462698    2.730965227    2.428774935 XXXX 1      oap1    O  -0.800
O309     8.572167986    1.574088002   10.075497993 XXXX 1      oap1    O  -0.800
O313     3.943983101    1.615082724   18.226612741 XXXX 1      oap1    O  -0.800
O321    22.785767533    2.797835474    2.018802298 XXXX 1      oap1    O  -0.800
O325    18.055723248    1.673989256   10.056509947 XXXX 1      oap1    O  -0.800
O329    13.462058948    1.612149571   18.349773402 XXXX 1      oap1    O  -0.800
O333     8.628617490    1.619494036   26.528043285 XXXX 1      oap1    O  -0.800
O357     7.752262147    1.770021064    5.848270190 XXXX 1      oap1    O  -0.800
O361     2.979320871    1.601365290   13.878686672 XXXX 1      oap1    O  -0.800
O373    16.947648689    1.897874169    5.768454895 XXXX 1      oap1    O  -0.800
O377    12.274824631    1.701312209   13.952423402 XXXX 1      oap1    O  -0.800
O381     7.666913841    1.560553020   21.908519846 XXXX 1      oap1    O  -0.800
O389     2.620639659    1.666926055    7.159008996 XXXX 1      oap1    O  -0.800
O405    12.173257886    1.876385757    6.948399947 XXXX 1      oap1    O  -0.800
O409     7.296322321    1.570806218   15.458298589 XXXX 1      oap1    O  -0.800
O413     2.581715795    1.623546876   23.540129063 XXXX 1      oap1    O  -0.800
O421    21.750381304    1.894706969    7.086732971 XXXX 1      oap1    O  -0.800
O425    16.739396845    1.728830284   15.254046618 XXXX 1      oap1    O  -0.800
O429    12.362623729    1.723453248   23.478029525 XXXX 1      oap1    O  -0.800
O453     5.474791073    5.097554194    8.011360410 XXXX 1      oap1    O  -0.800
O457     0.666751365    5.168326305   16.175907884 XXXX 1      oap1    O  -0.800
O469    14.841853061    5.200610901    7.627449059 XXXX 1      oap1    O  -0.800
O473    10.268437425    5.164666248   16.177366301 XXXX 1      oap1    O  -0.800
O477     5.672909619    5.141135800   24.467254751 XXXX 1      oap1    O  -0.800
O481     1.964442467    5.313201804    4.292253169 XXXX 1      oap1    O  -0.800
O497    11.158260280    5.436587085    4.169523816 XXXX 1      oap1    O  -0.800
O501     6.479221254    5.049032743   12.434646114 XXXX 1      oap1    O  -0.800
O505     1.728773760    5.076158136   20.430468908 XXXX 1      oap1    O  -0.800
O513    20.522169513    5.356749553    4.170692018 XXXX 1      oap1    O  -0.800
O517    15.845223181    4.964320828   12.350062635 XXXX 1      oap1    O  -0.800
O521    11.207149927    5.071302980   20.744529424 XXXX 1      oap1    O  -0.800
O525     6.899211625    5.135554210   28.990634226 XXXX 1      oap1    O  -0.800
O545     6.643275476    5.398221882    2.706393558 XXXX 1      oap1    O  -0.800
O549     2.236787936    5.108992715   10.949209235 XXXX 1      oap1    O  -0.800
O561    16.475957227    5.181493778    2.780841346 XXXX 1      oap1    O  -0.800
O565    11.661467956    5.117070032   11.073987896 XXXX 1      oap1    O  -0.800
O569     6.707123551    5.067882488   19.398358477 XXXX 1      oap1    O  -0.800
O573     2.142745527    4.967316659   27.098702321 XXXX 1      oap1    O  -0.800
Ca5      0.012186321    8.145841187    7.697591951 XXXX 1      ca+h    Ca  1.500
Ca21     9.286237974    8.213804958    7.695550785 XXXX 1      ca+h    Ca  1.500
Ca25     4.686191103    8.033810530   15.967690861 XXXX 1      ca+h    Ca  1.500
Ca29     0.100240229    7.996749452   23.977334810 XXXX 1      ca+h    Ca  1.500
Ca37    18.712246732    8.087910263    7.804651420 XXXX 1      ca+h    Ca  1.500
Ca41    14.113490078    8.072131438   15.945032407 XXXX 1      ca+h    Ca  1.500
Ca45     9.519929790    8.112832286   24.071351681 XXXX 1      ca+h    Ca  1.500
Ca49    -0.014686173    4.694927470    2.429737903 XXXX 1      ca+h    Ca  1.500
Ca65     9.185707830    4.827792302    2.676089042 XXXX 1      ca+h    Ca  1.500
Ca69     4.691863980    4.691295481   10.520744711 XXXX 1      ca+h    Ca  1.500
Ca73    -0.058444354    4.643393613   18.470479264 XXXX 1      ca+h    Ca  1.500
Ca81    18.870534060    4.826893422    2.600077350 XXXX 1      ca+h    Ca  1.500
Ca85    14.083875812    4.661613251   10.494742965 XXXX 1      ca+h    Ca  1.500
Ca89     9.659778355    4.634187747   18.755228463 XXXX 1      ca+h    Ca  1.500
Ca93     4.637871373    4.604529604   26.595758784 XXXX 1      ca+h    Ca  1.500
Ca97     0.138833843    1.197112378    2.298604855 XXXX 1      ca+h    Ca  1.500
Ca113    9.296087587    1.328582707    2.224341181 XXXX 1      ca+h    Ca  1.500
Ca117    4.654992235    1.289436286   10.487269279 XXXX 1      ca+h    Ca  1.500
Ca121    0.072712701    1.216814395   18.488243460 XXXX 1      ca+h    Ca  1.500
Ca129   18.782007494    1.405165942    2.109579007 XXXX 1      ca+h    Ca  1.500
Ca133   13.986035179    1.062695967   10.284716166 XXXX 1      ca+h    Ca  1.500
Ca137    9.407398162    1.123897132   18.580987736 XXXX 1      ca+h    Ca  1.500
Ca141    4.834243303    1.088562163   26.584463330 XXXX 1      ca+h    Ca  1.500
Ca149   -0.010340241    4.654612481    7.689504327 XXXX 1      ca+h    Ca  1.500
Ca165    9.520678576    4.809694449    7.604282629 XXXX 1      ca+h    Ca  1.500
Ca169    4.754594850    4.664101691   15.788386705 XXXX 1      ca+h    Ca  1.500
Ca173    0.116001300    4.643273936   23.729475563 XXXX 1      ca+h    Ca  1.500
Ca181   18.845364129    4.719167888    7.575615922 XXXX 1      ca+h    Ca  1.500
Ca185   14.132565226    4.671872113   15.906428815 XXXX 1      ca+h    Ca  1.500
Ca189    9.442530469    4.553981174   24.016485975 XXXX 1      ca+h    Ca  1.500
Ca213    3.612759268    6.280663993    6.882602745 XXXX 1      ca+h    Ca  1.500
Ca229   13.006094714    6.504565003    6.801599734 XXXX 1      ca+h    Ca  1.500
Ca233    8.180896716    6.348754791   15.170024960 XXXX 1      ca+h    Ca  1.500
Ca237    3.636150003    6.314460164   23.308723533 XXXX 1      ca+h    Ca  1.500
P21      6.273430821    6.370123597    8.341533483 XXXX 1      pap     P   1.000
P25      1.575871851    6.418015512   16.375936082 XXXX 1      pap     P   1.000
P37     15.619105874    6.375945543    8.204472874 XXXX 1      pap     P   1.000
P41     11.069424447    6.422743450   16.456022941 XXXX 1      pap     P   1.000
P45      6.528494588    6.431813197   24.675734133 XXXX 1      pap     P   1.000
O597     6.318815849    6.568913387    9.868846047 XXXX 1      oap1    O  -0.800
O601     1.715574104    6.501136263   17.915289117 XXXX 1      oap1    O  -0.800
O613    15.717083817    6.461091887    9.702403918 XXXX 1      oap1    O  -0.800
O617    11.188909056    6.602069614   17.977607572 XXXX 1      oap1    O  -0.800
O621     6.745575515    6.506445841   26.191258764 XXXX 1      oap1    O  -0.800
O645     7.733308425    6.311918989    7.835542536 XXXX 1      oap1    O  -0.800
O649     2.974349473    6.298010413   15.696378330 XXXX 1      oap1    O  -0.800
O661    17.073597890    6.347086676    7.723772290 XXXX 1      oap1    O  -0.800
O665    12.470055803    6.294014240   15.769337372 XXXX 1      oap1    O  -0.800
O669     7.812842045    6.352934653   23.836809880 XXXX 1      oap1    O  -0.800
Ca241    3.613178858    6.594585031    0.754419972 XXXX 1      ca+h    Ca  1.500
Ca257   13.076673785    6.572664950    0.464967300 XXXX 1      ca+h    Ca  1.500
Ca261    8.355876722    6.410385834   11.050841547 XXXX 1      ca+h    Ca  1.500
Ca265    3.650054929    6.214204572   19.294107257 XXXX 1      ca+h    Ca  1.500
Ca273   22.393290857    6.337165267    0.680331245 XXXX 1      ca+h    Ca  1.500
Ca277   17.750480080    6.352850474   10.985343191 XXXX 1      ca+h    Ca  1.500
Ca281   13.199283282    6.307315620   19.396451686 XXXX 1      ca+h    Ca  1.500
Ca285    8.478565534    6.294109450   27.618374705 XXXX 1      ca+h    Ca  1.500
P49      1.095651796    6.478560829    4.772857866 XXXX 1      pap     P   1.000
P65     10.373643733    6.600223515    4.819132162 XXXX 1      pap     P   1.000
P69      5.875842732    6.383214758   12.937043166 XXXX 1      pap     P   1.000
P73      1.055940329    6.349119611   20.918090887 XXXX 1      pap     P   1.000
P81     19.950847960    6.573694460    4.812291809 XXXX 1      pap     P   1.000
P85     15.341131597    6.278994744   12.942619729 XXXX 1      pap     P   1.000
P89     10.568918430    6.359128568   21.253046897 XXXX 1      pap     P   1.000
P93      5.890541550    6.201362438   29.315372878 XXXX 1      pap     P   1.000
O673    -0.236722568    6.453879370    4.028245765 XXXX 1      oap1    O  -0.800
O689     8.940883680    6.506699944    4.295729773 XXXX 1      oap1    O  -0.800
O693     4.547380263    6.578797261   12.177089128 XXXX 1      oap1    O  -0.800
O697    -0.259350473    6.412227571   20.168923938 XXXX 1      oap1    O  -0.800
O705    18.505316229    6.666150757    4.260868496 XXXX 1      oap1    O  -0.800
O709    13.982193058    6.545521664   12.265448699 XXXX 1      oap1    O  -0.800
O713     9.213777352    6.479557100   20.504953046 XXXX 1      oap1    O  -0.800
O717     4.573619414    6.016491077   28.504774933 XXXX 1      oap1    O  -0.800
O721     0.890285371    6.372729155    6.290535896 XXXX 1      oap1    O  -0.800
O737    10.460946573    6.598259771    6.344968168 XXXX 1      oap1    O  -0.800
O741     5.647798774    6.425855279   14.432659018 XXXX 1      oap1    O  -0.800
O745     0.869545705    6.330383805   22.427214398 XXXX 1      oap1    O  -0.800
O753    19.910032749    6.392214845    6.332181847 XXXX 1      oap1    O  -0.800
O757    15.163355310    6.186714579   14.486495745 XXXX 1      oap1    O  -0.800
O761    10.319716732    6.289153963   22.734967757 XXXX 1      oap1    O  -0.800
O765     5.604769895    6.152657512   30.830889054 XXXX 1      oap1    O  -0.800
Ca305    6.578299297    6.636618555    5.062750062 XXXX 1      ca+h    Ca  1.500
Ca309    2.371489266    6.441053392   13.244638781 XXXX 1      ca+h    Ca  1.500
Ca321   16.244066351    6.452256271    5.125365777 XXXX 1      ca+h    Ca  1.500
Ca325   11.731726401    6.462247398   13.218094581 XXXX 1      ca+h    Ca  1.500
Ca329    7.144797133    6.382083615   21.491266543 XXXX 1      ca+h    Ca  1.500
Ca333    2.386612178    6.112144382   29.475165380 XXXX 1      ca+h    Ca  1.500
P113     6.839707608    6.527565528    1.739142749 XXXX 1      pap     P   1.000
P117     2.052783300    6.354405644   10.079955331 XXXX 1      pap     P   1.000
P129    16.523109571    6.402181646    1.861851690 XXXX 1      pap     P   1.000
P133    11.487979428    6.380613649   10.144620592 XXXX 1      pap     P   1.000
P137     6.719007537    6.209638204   18.376678914 XXXX 1      pap     P   1.000
P141     2.109261621    6.317217229   26.424225376 XXXX 1      pap     P   1.000
O785     8.322345088    6.447184207    1.288858211 XXXX 1      oap1    O  -0.800
O789     3.326477650    6.507158642    9.283142956 XXXX 1      oap1    O  -0.800
O801    17.923134033    6.361625159    1.183277551 XXXX 1      oap1    O  -0.800
O805    12.790750460    6.483564063    9.279724630 XXXX 1      oap1    O  -0.800
O809     8.048999521    6.147154023   17.577441040 XXXX 1      oap1    O  -0.800
O813     3.457024935    6.582965000   25.698672780 XXXX 1      oap1    O  -0.800
O833     5.844193938    6.395363291    0.527949263 XXXX 1      oap1    O  -0.800
O837     0.851292082    6.180700356    9.170461459 XXXX 1      oap1    O  -0.800
O849    15.331623359    6.313740462    0.876627941 XXXX 1      oap1    O  -0.800
O853    10.149882925    6.406846682    9.307685769 XXXX 1      oap1    O  -0.800
O857     5.432688640    6.278990054   17.531564869 XXXX 1      oap1    O  -0.800
O861     0.935092617    6.318756116   25.424732747 XXXX 1      oap1    O  -0.800
Ca337    5.580115025    3.403846418    3.341032912 XXXX 1      ca+h    Ca  1.500
Ca341    1.336882021    2.953709497   11.212994389 XXXX 1      ca+h    Ca  1.500
Ca353   15.209664451    3.280221828    3.376846239 XXXX 1      ca+h    Ca  1.500
Ca357   10.653908560    2.915518959   11.113784711 XXXX 1      ca+h    Ca  1.500
Ca361    5.933782185    2.911527002   19.377918535 XXXX 1      ca+h    Ca  1.500
Ca365    1.327413490    2.773038609   27.590022680 XXXX 1      ca+h    Ca  1.500
Ca369   24.766559765    3.229498898    3.352395279 XXXX 1      ca+h    Ca  1.500
Ca373   19.946159872    2.801843607   11.181726216 XXXX 1      ca+h    Ca  1.500
Ca377   15.464532872    2.895160620   19.364930621 XXXX 1      ca+h    Ca  1.500
Ca381   10.611570496    2.899612296   27.510850275 XXXX 1      ca+h    Ca  1.500
P145     2.298842944    3.163989796    1.628429106 XXXX 1      pap     P   1.000
P161    11.835471462    3.009936299    1.785010407 XXXX 1      pap     P   1.000
P165     7.861014391    2.911816536    9.765067386 XXXX 1      pap     P   1.000
P169     3.141827723    2.897126383   17.917870695 XXXX 1      pap     P   1.000
P177    21.291206389    3.124836903    1.713728560 XXXX 1      pap     P   1.000
P181    17.232907622    2.909594827    9.936124238 XXXX 1      pap     P   1.000
P185    12.612036807    2.891465564   18.115014233 XXXX 1      pap     P   1.000
P189     7.883604484    2.914922932   26.116623052 XXXX 1      pap     P   1.000
O865     1.565396301    2.092774924    0.800156361 XXXX 1      oap1    O  -0.800
O881    11.328428248    1.704606412    1.050107064 XXXX 1      oap1    O  -0.800
O885     7.865652031    3.096786453    8.223372171 XXXX 1      oap1    O  -0.800
O889     3.067023603    2.998392657   16.380421760 XXXX 1      oap1    O  -0.800
O897    20.653166871    2.144596790    0.768668318 XXXX 1      oap1    O  -0.800
O901    17.155045610    3.142155597    8.409944520 XXXX 1      oap1    O  -0.800
O905    12.633211817    3.137146724   16.593968460 XXXX 1      oap1    O  -0.800
O909     7.922439714    2.959893784   24.571831553 XXXX 1      oap1    O  -0.800
O913     1.503669001    3.125791780    2.967276168 XXXX 1      oap1    O  -0.800
O929    10.727603765    3.142777576    2.873752121 XXXX 1      oap1    O  -0.800
O933     6.447231381    2.861597865   10.406404129 XXXX 1      oap1    O  -0.800
O937     1.803836460    2.872268572   18.628429109 XXXX 1      oap1    O  -0.800
O945    20.389569510    2.995896635    2.952027503 XXXX 1      oap1    O  -0.800
O949    15.826809400    2.750131730   10.565805025 XXXX 1      oap1    O  -0.800
O953    11.162743190    2.754996666   18.588716605 XXXX 1      oap1    O  -0.800
O957     6.395665219    2.930639309   26.568929408 XXXX 1      oap1    O  -0.800
Ca405    5.764206908    3.034817727    7.069441631 XXXX 1      ca+h    Ca  1.500
Ca409    0.987385775    3.062505290   15.170262530 XXXX 1      ca+h    Ca  1.500
Ca421   15.164839086    3.012309474    7.054344149 XXXX 1      ca+h    Ca  1.500
Ca425   10.526367670    3.027626983   15.248052095 XXXX 1      ca+h    Ca  1.500
Ca429    5.873949308    2.806002494   23.358863417 XXXX 1      ca+h    Ca  1.500
P213     8.200683192    3.054346502    5.058393468 XXXX 1      pap     P   1.000
P217     3.561361649    2.931368873   13.388971016 XXXX 1      pap     P   1.000
P229    17.734505969    3.057739474    5.225537642 XXXX 1      pap     P   1.000
P233    12.930598512    2.990102598   13.325128984 XXXX 1      pap     P   1.000
P237     8.460743149    2.883015566   21.569460188 XXXX 1      pap     P   1.000
O981     9.565409109    3.426808178    5.552268372 XXXX 1      oap1    O  -0.800
O985     4.936360204    3.123647354   14.025154698 XXXX 1      oap1    O  -0.800
O997    19.136664419    2.938716326    5.968106503 XXXX 1      oap1    O  -0.800
O1001   14.274872779    3.053592981   14.061040204 XXXX 1      oap1    O  -0.800
O1005    9.750583577    2.789686941   22.404646481 XXXX 1      oap1    O  -0.800
O1029    8.107586283    2.893065803    3.558277347 XXXX 1      oap1    O  -0.800
O1033    3.648560386    2.915157897   11.822755690 XXXX 1      oap1    O  -0.800
O1045   17.838505477    3.061631217    3.616047446 XXXX 1      oap1    O  -0.800
O1049   13.122721641    2.833035998   11.720371246 XXXX 1      oap1    O  -0.800
O1053    8.727262979    2.919381804   20.056387756 XXXX 1      oap1    O  -0.800
Ca437    2.478938474    2.994914545    5.009207756 XXXX 1      ca+h    Ca  1.500
Ca453   12.107794634    3.138024786    4.889826023 XXXX 1      ca+h    Ca  1.500
Ca457    7.094545733    2.965025853   12.992062044 XXXX 1      ca+h    Ca  1.500
Ca461    2.528741755    2.880460736   21.157094557 XXXX 1      ca+h    Ca  1.500
Ca469   21.315466090    3.216705898    5.012137704 XXXX 1      ca+h    Ca  1.500
Ca473   16.436007998    2.794588657   13.033817600 XXXX 1      ca+h    Ca  1.500
Ca477   11.942515688    3.002290984   21.263576366 XXXX 1      ca+h    Ca  1.500
P245     2.670234220    2.893188750    8.050832068 XXXX 1      pap     P   1.000
P261    12.053189725    2.986170998    7.922354416 XXXX 1      pap     P   1.000
P265     7.458522604    2.889257125   16.175369302 XXXX 1      pap     P   1.000
P269     2.631660540    2.941057942   24.328180349 XXXX 1      pap     P   1.000
P277    21.638304365    3.066825962    8.003617745 XXXX 1      pap     P   1.000
P281    16.872168635    2.923306684   16.190564512 XXXX 1      pap     P   1.000
P285    12.308951271    2.957796780   24.401252533 XXXX 1      pap     P   1.000
O1061    1.284778777    2.895454775    8.768979579 XXXX 1      oap1    O  -0.800
O1077   10.771923912    2.838404827    8.736385917 XXXX 1      oap1    O  -0.800
O1081    6.179281014    3.079665240   17.023277126 XXXX 1      oap1    O  -0.800
O1085    1.385164649    3.017458622   25.225881707 XXXX 1      oap1    O  -0.800
O1093   20.294142234    2.939431018    8.746677726 XXXX 1      oap1    O  -0.800
O1097   15.633063777    3.025554912   17.005589579 XXXX 1      oap1    O  -0.800
O1101   10.988408771    3.033901613   25.105136354 XXXX 1      oap1    O  -0.800
O1109    3.782162111    2.836139080    9.100508697 XXXX 1      oap1    O  -0.800
O1125   13.337030759    3.000786450    8.796287394 XXXX 1      oap1    O  -0.800
O1129    8.678497007    2.938560078   17.084514254 XXXX 1      oap1    O  -0.800
O1133    3.906455751    2.869033681   25.135811000 XXXX 1      oap1    O  -0.800
O1141   22.815327398    3.007021868    9.013760141 XXXX 1      oap1    O  -0.800
O1145   18.170382970    2.829801130   16.994832934 XXXX 1      oap1    O  -0.800
O1149   13.402516459    2.872333109   25.476549338 XXXX 1      oap1    O  -0.800
O1173    4.701408261    5.072686593    5.013043710 XXXX 1      oap2    O  -1.100
O1177    0.048290045    6.062997266   13.253472121 XXXX 1      oap2    O  -1.100
O1189   13.984487815    4.941087152    4.966818348 XXXX 1      oap2    O  -1.100
O1193    9.474816724    5.735844426   13.115949814 XXXX 1      oap2    O  -1.100
O1197    4.777988914    5.530840352   21.259605161 XXXX 1      oap2    O  -1.100
O1221    4.682363290    1.950825799    4.990090032 XXXX 1      oap2    O  -1.100
O1225   -0.036807152    2.264147283   13.197840468 XXXX 1      oap2    O  -1.100
O1237   14.260804863    1.769421009    5.163412779 XXXX 1      oap2    O  -1.100
O1241    9.392880122    2.149269111   13.173844213 XXXX 1      oap2    O  -1.100
O1245    4.711253955    2.305519588   21.350382558 XXXX 1      oap2    O  -1.100
H21      3.843019500    5.444848136    4.760612879 XXXX 1      hop     H   0.200
H25      0.421645524    5.251270668   13.613783063 XXXX 1      hop     H   0.200
H37     13.347145996    5.526256319    4.470858064 XXXX 1      hop     H   0.200
H41      9.978329925    4.978767405   13.442203789 XXXX 1      hop     H   0.200
H45      5.054265973    4.637971243   21.276238434 XXXX 1      hop     H   0.200
H69      4.307589933    1.056897233    5.147970297 XXXX 1      hop     H   0.200
H73     -0.160696979    1.301684654   13.013963817 XXXX 1      hop     H   0.200
H85     13.977538496    0.963700642    4.733905975 XXXX 1      hop     H   0.200
H89      9.428685481    1.229797027   13.086371096 XXXX 1      hop     H   0.200
H93      4.733651393    1.357087966   21.488500989 XXXX 1      hop     H   0.200
end
O33      2.158804291   35.232830691   33.433764062 XXXX 1      oap1    O  -0.800
O34      2.416294410   28.347762132   33.616993900 XXXX 1      oap1    O  -0.800
O35      2.306608636   21.443397657   33.178933677 XXXX 1      oap1    O  -0.800
O36      2.319191732   14.936607686   32.728039174 XXXX 1      oap1    O  -0.800
O225     3.316212954   31.671866505   30.153084242 XXXX 1      oap1    O  -0.800
O226     2.999638556   24.944960730   30.092787645 XXXX 1      oap1    O  -0.800
O227     2.769202283   17.715729444   30.272665716 XXXX 1      oap1    O  -0.800
O228     2.632542883   10.729330486   30.244325892 XXXX 1      oap1    O  -0.800
O273     7.876286590   31.613965977   31.494228013 XXXX 1      oap1    O  -0.800
O274     7.302803260   24.802543608   31.633265526 XXXX 1      oap1    O  -0.800
O275     7.419499959   17.896919914   31.480491407 XXXX 1      oap1    O  -0.800
O276     7.424861112   11.009736223   31.394835352 XXXX 1      oap1    O  -0.800
O369     3.054728763   29.195516218   30.172675452 XXXX 1      oap1    O  -0.800
O370     2.885141052   22.470946457   30.083589384 XXXX 1      oap1    O  -0.800
O371     3.076081413   15.264757921   29.920979614 XXXX 1      oap1    O  -0.800
O372     3.185211855    8.202645063   30.327197900 XXXX 1      oap1    O  -0.800
O417     8.099579422   29.120720140   31.678388154 XXXX 1      oap1    O  -0.800
O418     7.270243355   22.175466223   31.666387616 XXXX 1      oap1    O  -0.800
O419     7.298590682   15.423474501   31.679510510 XXXX 1      oap1    O  -0.800
O420     7.360627609    8.580064399   31.553881989 XXXX 1      oap1    O  -0.800
O465     1.265981257   33.912427275   31.522124964 XXXX 1      oap1    O  -0.800
O466     0.920985634   27.162223540   31.904725177 XXXX 1      oap1    O  -0.800
O467     0.767285536   20.018216715   31.711336192 XXXX 1      oap1    O  -0.800
O468     0.812729078   12.796659986   32.232635713 XXXX 1      oap1    O  -0.800
Ca33     4.357245948   35.636075121   31.957157268 XXXX 1      ca+h    Ca  1.500
Ca34     4.736406294   28.843321123   31.969789235 XXXX 1      ca+h    Ca  1.500
Ca35     4.734586679   21.917780200   31.664062585 XXXX 1      ca+h    Ca  1.500
Ca36     4.656382024   14.953395479   31.892006469 XXXX 1      ca+h    Ca  1.500
Ca177    5.329023428   32.123026307   31.455645415 XXXX 1      ca+h    Ca  1.500
Ca178    4.917057108   25.293853803   31.534326527 XXXX 1      ca+h    Ca  1.500
Ca179    4.661212026   18.393666611   31.736642891 XXXX 1      ca+h    Ca  1.500
Ca180    4.838806862   11.481343427   32.115511801 XXXX 1      ca+h    Ca  1.500
P33      2.096692643   33.840118147   32.815088093 XXXX 1      pap     P   1.000
P34      2.197317763   27.072255596   32.788928579 XXXX 1      pap     P   1.000
P35      2.128811525   20.085964456   32.410211008 XXXX 1      pap     P   1.000
P36      2.239212442   13.383606649   32.648155648 XXXX 1      pap     P   1.000
O609     1.428153815   32.718152910   33.750072937 XXXX 1      oap1    O  -0.800
O610     2.246224843   25.736423063   33.676192311 XXXX 1      oap1    O  -0.800
O611     2.424320299   18.836343072   33.234345979 XXXX 1      oap1    O  -0.800
O612     3.061929103   12.533429745   33.608145985 XXXX 1      oap1    O  -0.800
O657     3.597863640   33.475218275   32.471938310 XXXX 1      oap1    O  -0.800
O658     3.380850383   26.944544884   31.826594157 XXXX 1      oap1    O  -0.800
O659     3.218692050   20.131792111   31.349700450 XXXX 1      oap1    O  -0.800
O660     3.184179810   13.077683961   31.489692342 XXXX 1      oap1    O  -0.800
Ca417    1.150040478   30.349962323   33.601570561 XXXX 1      ca+h    Ca  1.500
Ca418    1.281718423   23.616524179   33.352761947 XXXX 1      ca+h    Ca  1.500
Ca419    1.068774998   16.973624963   32.119804553 XXXX 1      ca+h    Ca  1.500
Ca420    0.548268874   10.661984278   31.476873825 XXXX 1      ca+h    Ca  1.500
P225     3.820693128   30.376274352   29.522551890 XXXX 1      pap     P   1.000
P226     3.596425941   23.672047402   29.492752626 XXXX 1      pap     P   1.000
P227     3.584099421   16.641251135   29.533213174 XXXX 1      pap     P   1.000
P228     3.558519765    9.614512872   29.808320751 XXXX 1      pap     P   1.000
O993     5.327068905   30.206822670   30.013261932 XXXX 1      oap1    O  -0.800
O994     5.047228827   23.579152487   29.888500185 XXXX 1      oap1    O  -0.800
O995     5.029270030   16.677937876   30.131145030 XXXX 1      oap1    O  -0.800
O996     4.907800329    9.933937465   30.465009144 XXXX 1      oap1    O  -0.800
O1041    3.650884354   30.413809784   27.994083398 XXXX 1      oap1    O  -0.800
O1042    3.540111325   23.626364433   27.977785311 XXXX 1      oap1    O  -0.800
O1043    3.637248185   16.777911010   27.975922489 XXXX 1      oap1    O  -0.800
O1044    3.712816773    9.581140094   28.246942124 XXXX 1      oap1    O  -0.800
Ca465    7.533391996   30.297932021   29.268029125 XXXX 1      ca+h    Ca  1.500
Ca466    7.297336869   23.556701040   29.074226958 XXXX 1      ca+h    Ca  1.500
Ca467    7.425601978   16.678378524   29.300097845 XXXX 1      ca+h    Ca  1.500
Ca468    7.348692133    9.737023275   29.344260273 XXXX 1      ca+h    Ca  1.500
P273     7.690403940   30.454632567   32.442635678 XXXX 1      pap     P   1.000
P274     7.152047148   23.478600037   32.485731986 XXXX 1      pap     P   1.000
P275     7.253257837   16.732730769   32.502336509 XXXX 1      pap     P   1.000
P276     7.457227780    9.837455086   32.393671175 XXXX 1      pap     P   1.000
O1089    6.181400657   30.502556082   32.793393211 XXXX 1      oap1    O  -0.800
O1090    5.676073847   23.606214873   32.904438613 XXXX 1      oap1    O  -0.800
O1091    5.834758994   16.927921661   33.090975723 XXXX 1      oap1    O  -0.800
O1092    6.146274779    9.925757125   33.245184969 XXXX 1      oap1    O  -0.800
O1137    8.513302738   30.668527426   33.670274796 XXXX 1      oap1    O  -0.800
O1138    8.049285607   23.438387380   33.736859637 XXXX 1      oap1    O  -0.800
O1139    8.437357325   16.696157381   33.580121848 XXXX 1      oap1    O  -0.800
O1140    8.808132060    9.695109456   33.114008407 XXXX 1      oap1    O  -0.800
O1185   -0.125792389   32.266341096   29.361004285 XXXX 1      oap2    O  -1.100
O1186   -0.184262356   25.581847944   29.365534441 XXXX 1      oap2    O  -1.100
O1187   -0.240576170   18.831973040   29.234677220 XXXX 1      oap2    O  -1.100
O1188    0.158342253   12.259470449   29.401889262 XXXX 1      oap2    O  -1.100
O1233   -0.187930517   28.658251411   29.325354169 XXXX 1      oap2    O  -1.100
O1234   -0.049665223   21.845912847   29.101764562 XXXX 1      oap2    O  -1.100
O1235    0.164405782   15.922867172   29.859624587 XXXX 1      oap2    O  -1.100
O1236    0.149663067    9.052958022   29.663769832 XXXX 1      oap2    O  -1.100
H33      0.310593852   31.917600741   30.035861185 XXXX 1      hop     H   0.200
H34      0.543806576   25.230161019   29.819738261 XXXX 1      hop     H   0.200
H35      0.424877532   18.392665246   29.772513379 XXXX 1      hop     H   0.200
H36     -0.101438340   11.507101475   28.869628096 XXXX 1      hop     H   0.200
H81      0.431375075   29.007246848   29.955374636 XXXX 1      hop     H   0.200
H82      0.377591035   22.424251100   29.770654165 XXXX 1      hop     H   0.200
H83      1.080081828   15.730483055   29.876374733 XXXX 1      hop     H   0.200
H84      0.946116145    8.684812067   29.929342824 XXXX 1      hop     H   0.200
end
O33      1.569343054    6.073352128   31.727466333 XXXX 1      oap1    O  -0.800
O225     2.438321676    3.788424337   29.525083427 XXXX 1      oap1    O  -0.800
O273     7.208573828    3.194850541   31.434263910 XXXX 1      oap1    O  -0.800
O369     3.150485697    1.391792248   29.877529820 XXXX 1      oap1    O  -0.800
O417     7.555195375    0.748940583   32.239269073 XXXX 1      oap1    O  -0.800
O465     1.705092962    5.320728320   34.224019207 XXXX 1      oap1    O  -0.800
Ca33     4.860534332    8.061898336   31.952488561 XXXX 1      ca+h    Ca  1.500
Ca177    5.384592620    4.533702626   32.407104663 XXXX 1      ca+h    Ca  1.500
P33      2.486081227    5.489389329   32.899636906 XXXX 1      pap     P   1.000
O609     3.770353350    6.289219436   33.074713165 XXXX 1      oap1    O  -0.800
O657     2.969212401    4.054216237   32.612190494 XXXX 1      oap1    O  -0.800
Ca417    1.136790378    2.983693177   33.801955240 XXXX 1      ca+h    Ca  1.500
P225     3.634223433    2.859663332   29.570240244 XXXX 1      pap     P   1.000
O993     4.663671191    3.249190093   30.608402156 XXXX 1      oap1    O  -0.800
O1041    4.291630103    2.847866770   28.151081166 XXXX 1      oap1    O  -0.800
Ca465    6.790418745    2.784997314   29.190462874 XXXX 1      ca+h    Ca  1.500
P273     7.390180843    2.253474270   32.644902241 XXXX 1      pap     P   1.000
O1089    6.018515875    2.492852562   33.352251981 XXXX 1      oap1    O  -0.800
O1137    8.724437114    2.779009355   33.277876377 XXXX 1      oap1    O  -0.800
O1185    0.022975320    5.531052075   29.477273193 XXXX 1      oap2    O  -1.100
O1233    0.012354649    0.983146664   29.183082195 XXXX 1      oap2    O  -1.100
H33      0.381898179    4.685297657   29.690657115 XXXX 1      hop     H   0.200
H81      0.476658609    1.613340552   29.751601629 XXXX 1      hop     H   0.200
end
Ca193   36.610512490   34.006860055   31.051870373 XXXX 1      ca+h    Ca  1.500
Ca194   36.422636706   27.083643964   30.963528885 XXXX 1      ca+h    Ca  1.500
Ca195   36.275298543   20.418914867   30.817044886 XXXX 1      ca+h    Ca  1.500
Ca196   36.741801940   13.936590178   30.955738099 XXXX 1      ca+h    Ca  1.500
end
Ca193   36.785816543    6.280282567   31.516931207 XXXX 1      ca+h    Ca  1.500
end
end
