!BIOSYM archive 3
PBC=ON

!DATE Wed Oct  1 18:58:04 2003
PBC   12.2350    7.0730    9.2980   90.0000  116.3100   90.0000 (P1)
CA1     -1.078170061    1.884247184    2.672974110 XXX  1      ca++    Ca  1.500
CA2      9.233276367    5.188045502    5.573488712 XXX  1      ca++    Ca  1.500
CA3      3.054332256    1.783810616   -0.013335701 XXX  1      ca++    Ca  1.500
CA4     -0.164337218    3.536499977    5.555985451 XXX  1      ca++    Ca  1.500
CA5      8.281771660    3.536499977    2.640468359 XXX  1      ca++    Ca  1.500
CA6      0.004507769    3.536499977   -0.004167076 XXX  1      ca++    Ca  1.500
SI1      0.031373210    0.000000000    0.005834368 XXX  1      sc1     Si  1.000
SI2     -0.028324552    0.000000000    5.436797619 XXX  1      sc1     Si  1.000
SI3      8.141782761    0.000000000    2.978028297 XXX  1      sc1     Si  1.000
O1       2.013966799    3.536499977    4.589980602 XXX  1      oc1     O  -1.000
O2      -2.054988384    3.536499977    4.193243980 XXX  1      oc2     O  -1.500
O3      -0.741423666    1.249091744    5.953556061 XXX  1      oc1     O  -1.000
O4       1.419561028    0.000000000    5.977726936 XXX  1      oc1     O  -1.000
O5      -0.034940246    0.000000000    1.641957879 XXX  1      oc1     O  -1.000
O6       0.074668229    0.000000000    3.805675030 XXX  1      oc1     O  -1.000
O7      -2.098614216    3.536499977    7.129598141 XXX  1      oc2     O  -1.500
O8       4.101085663    0.000000000    1.049352765 XXX  1      oc2     O  -1.500
O9      -3.369251966    5.760251045    7.890566349 XXX  1      oc1     O  -1.000
O10      0.482483178    3.536499977    2.379588842 XXX  1      oc1     O  -1.000
O11      0.545290768    3.536499977    7.859727383 XXX  1      oc1     O  -1.000
O12      2.765830755    4.900881767    2.401259184 XXX  1      oc1     O  -1.000
CA1     -1.078170061    5.188752651    2.672974110 XXX  ND     ca++    Ca  1.500
CA2      9.233276367    1.884954453    5.573488712 XXX  ND     ca++    Ca  1.500
CA3      3.054332256    5.289189339   -0.013335701 XXX  ND     ca++    Ca  1.500
O1      -0.741423666    5.823908329    5.953556061 XXX  ND     oc1     O  -1.000
O2      -3.369251966    1.312748909    7.890566349 XXX  ND     oc1     O  -1.000
O3       2.765830755    2.172118187    2.401259184 XXX  ND     oc1     O  -1.000
CA4      5.039330006    5.420747280    2.672974110 XXX  ND     ca++    Ca  1.500
CA5      3.115776300    1.651545525    5.573488712 XXX  ND     ca++    Ca  1.500
CA6      9.171832085    5.320310593   -0.013335701 XXX  ND     ca++    Ca  1.500
CA7      5.953162670    0.000000000    5.555985451 XXX  ND     ca++    Ca  1.500
CA8      2.164271593    0.000000000    2.640468359 XXX  ND     ca++    Ca  1.500
CA9      6.122007847    0.000000000   -0.004167076 XXX  ND     ca++    Ca  1.500
SI1      6.148873329    3.536499977    0.005834368 XXX  ND     sc1     Si  1.000
SI2      6.089175224    3.536499977    5.436797619 XXX  ND     sc1     Si  1.000
SI3      2.024282694    3.536499977    2.978028297 XXX  ND     sc1     Si  1.000
O4       8.131466866    0.000000000    4.589980602 XXX  ND     oc1     O  -1.000
O5       4.062511444    0.000000000    4.193243980 XXX  ND     oc2     O  -1.500
O6       5.376076221    4.785591602    5.953556061 XXX  ND     oc1     O  -1.000
O7       7.537061214    3.536499977    5.977726936 XXX  ND     oc1     O  -1.000
O8       6.082559586    3.536499977    1.641957879 XXX  ND     oc1     O  -1.000
O9       6.192168236    3.536499977    3.805675030 XXX  ND     oc1     O  -1.000
O10      4.018885612    0.000000000    7.129598141 XXX  ND     oc2     O  -1.500
O11     10.218585968    3.536499977    1.049352765 XXX  ND     oc2     O  -1.500
O12      2.748248100    2.223751068    7.890566349 XXX  ND     oc1     O  -1.000
O13      6.599983215    0.000000000    2.379588842 XXX  ND     oc1     O  -1.000
O14      6.662790775    0.000000000    7.859727383 XXX  ND     oc1     O  -1.000
O15      8.883330345    1.364381790    2.401259184 XXX  ND     oc1     O  -1.000
CA10     5.039330006    1.652252793    2.672974110 XXX  ND     ca++    Ca  1.500
CA11     3.115776300    5.421454430    5.573488712 XXX  ND     ca++    Ca  1.500
CA12     9.171832085    1.752689362   -0.013335701 XXX  ND     ca++    Ca  1.500
O16      5.376076221    2.287408352    5.953556061 XXX  ND     oc1     O  -1.000
O17      2.748248100    4.849248886    7.890566349 XXX  ND     oc1     O  -1.000
O18      8.883330345    5.708618164    2.401259184 XXX  ND     oc1     O  -1.000
end
end
