!BIOSYM archive 3
PBC=ON
Materials Studio Generated CAR File
!DATE Wed Aug 28 21:40:41 2013
PBC   33.3675   34.8420   66.8584   90.0000   90.0000   90.0000 (P1)
O1       3.608119221    0.011778367   10.806404633 XXXX 1      oc23    O  -0.550
O2       9.372835846    0.121666183    3.528187537 XXXX 1      oc23    O  -0.550
O3       6.568559949   -0.153709673    6.941626570 XXXX 1      oc23    O  -0.550
O4       1.700166209    4.937268992    6.425768225 XXXX 1      oc23    O  -0.550
O5       7.638396925    3.790312907   11.258235563 XXXX 1      oc23    O  -0.550
O6       5.104941030    4.233658418    2.734589265 XXXX 1      oc23    O  -0.550
O7       5.157622803    3.055431805   11.694830932 XXXX 1      oc23    O  -0.550
O8       2.531539675    3.780162435    2.834355911 XXXX 1      oc23    O  -0.550
O9       8.016074185    2.723215879    7.921980310 XXXX 1      oc23    O  -0.550
O10      3.114259781    1.310368167    8.513836577 XXXX 1      oc23    O  -0.550
O11     10.151263252    2.259035619    1.967719403 XXXX 1      oc23    O  -0.550
O12      6.109398877    0.999201426    4.558362280 XXXX 1      oc23    O  -0.550
O13      2.723546726    2.495806095   10.853276482 XXXX 1      oc23    O  -0.550
O14      5.684196669    2.274357065    6.831366649 XXXX 1      oc23    O  -0.550
O15      2.322265425    2.376677991    6.204868000 XXXX 1      oc23    O  -0.550
O16      6.939167153    1.350382878   10.787669081 XXXX 1      oc23    O  -0.550
O17      4.496094800    1.737361945    2.568772447 XXXX 1      oc23    O  -0.550
O18      7.260325417    1.174144923    2.182090328 XXXX 1      oc23    O  -0.550
O19      1.158158541    0.580801383   10.130169428 XXXX 1      oc23    O  -0.550
O20      4.084194594    0.441031342    6.238588010 XXXX 1      oc23    O  -0.550
O21      0.519889325    3.452036367    4.520987894 XXXX 1      oc23    O  -0.550
O22      5.979277257    3.280866620    9.260382225 XXXX 1      oc23    O  -0.550
O23      3.944963428    3.412256672    0.576025713 XXXX 1      oc24    O  -0.675
Si1      8.844236426    1.403947583    2.678652133 XXXX 1      sc4     Si  1.100
Si2      2.666915294    1.094857313   10.060330275 XXXX 1      sc4     Si  1.100
Si3      5.621556090    0.851988502    6.108938615 XXXX 1      sc4     Si  1.100
Si4      1.131123791    3.458426249    6.067973888 XXXX 1      sc4     Si  1.100
Si5      6.422557621    2.873929201   10.748546693 XXXX 1      sc4     Si  1.100
Si6      3.975731641    3.251829876    2.198595855 XXXX 1      sc4     Si  1.100
Si7      3.630076163    3.519268117   11.703645168 XXXX 1      sc4     Si  1.100
Si8      0.874576164    3.692445682    2.915352912 XXXX 1      sc4     Si  1.100
Si9      6.529592056    3.253085287    7.767541836 XXXX 1      sc4     Si  1.100
Si10     2.765416775    1.011067074    6.956512263 XXXX 1      sc4     Si  1.100
Si11     8.149866469    0.408751881   11.291935692 XXXX 1      sc4     Si  1.100
Si12     5.804832776    0.793058918    2.968898205 XXXX 1      sc4     Si  1.100
H1       4.768929906    3.778308631    0.313175898 XXXX 1      hoy     H   0.400
O1       2.633569324   -0.594947940   22.993812095 XXXX 2      oc23    O  -0.550
O2       8.780078423    0.031265306   15.299033982 XXXX 2      oc23    O  -0.550
O3       6.065147854   -0.222989425   19.108426643 XXXX 2      oc23    O  -0.550
O4       1.610721396    3.810574702   18.903569564 XXXX 2      oc23    O  -0.550
O5       6.643902924    4.163867278   23.581669332 XXXX 2      oc23    O  -0.550
O6       4.799923838    4.162068501   15.189911013 XXXX 2      oc23    O  -0.550
O7       3.968320565    3.595286010   23.637960751 XXXX 2      oc23    O  -0.550
O8       2.316147640    3.387473134   15.639778110 XXXX 2      oc23    O  -0.550
O9       7.493411811    2.884407495   19.876512282 XXXX 2      oc23    O  -0.550
O10      2.342264373    0.777343429   20.693629786 XXXX 2      oc23    O  -0.550
O11      8.573561650    0.827333569   12.795408614 XXXX 2      oc23    O  -0.550
O12      5.558500019    1.009869994   16.830232298 XXXX 2      oc23    O  -0.550
O13      2.016127493    1.946600965   23.112208696 XXXX 2      oc23    O  -0.550
O15      5.080288312    2.252308982   19.127744827 XXXX 2      oc23    O  -0.550
O16      1.241037258    1.246221883   18.356496133 XXXX 2      oc23    O  -0.550
O17      5.966640089    1.764307364   22.982280130 XXXX 2      oc23    O  -0.550
O18      4.047691664    1.653767457   14.781123307 XXXX 2      oc23    O  -0.550
O19      6.464002803    0.789511829   14.347078045 XXXX 2      oc23    O  -0.550
O20      0.292607585    0.384979794   22.386308780 XXXX 2      oc23    O  -0.550
O21      3.616710809    0.222433626   18.405962357 XXXX 2      oc23    O  -0.550
O22      0.080500616    3.155982541   16.943866514 XXXX 2      oc23    O  -0.550
O23      5.388579701    3.700710216   21.333783689 XXXX 2      oc23    O  -0.550
O24      3.154843742    3.555000463   13.225764247 XXXX 2      oc23    O  -0.550
Si1      8.041190156    1.053467490   14.304665972 XXXX 2      sc4     Si  1.100
Si2      1.848793227    0.603387551   22.236316151 XXXX 2      sc4     Si  1.100
Si3      5.095604970    0.825643573   18.368766307 XXXX 2      sc4     Si  1.100
Si4      0.551545723    2.701202874   18.419689589 XXXX 2      sc4     Si  1.100
Si5      5.453545953    3.307634223   22.908500325 XXXX 2      sc4     Si  1.100
Si6      3.599432423    3.192770202   14.720011439 XXXX 2      sc4     Si  1.100
Si7      2.376858026    3.505307629   23.234169488 XXXX 2      sc4     Si  1.100
Si8      0.735854014    3.542477895   15.516673257 XXXX 2      sc4     Si  1.100
Si9      5.976241559    3.381092815   19.851182781 XXXX 2      sc4     Si  1.100
Si10     2.202295221    0.236610203   19.163279738 XXXX 2      sc4     Si  1.100
Si11     7.237449728    0.839341728   23.422620828 XXXX 2      sc4     Si  1.100
Si12     5.182847247    0.650156084   15.301252785 XXXX 2      sc4     Si  1.100
O1       7.695581235    1.412861385   24.879977713 XXXX 3      oc24    O  -0.675
O3       8.052267738    6.008267879   24.859120999 XXXX 3      oc24    O  -0.900
O4       2.415479189    8.561883924   24.361736482 XXXX 3      oc24    O  -0.675
O5      10.011659863    9.415726164   24.201278346 XXXX 3      oc23    O  -0.550
O6       2.049665673   11.751739603   24.229677893 XXXX 3      oc23    O  -0.550
O8       3.028805665   17.774503377   24.934683615 XXXX 3      oc24    O  -0.675
O9       8.003923395   21.385634218   25.124101519 XXXX 3      oc24    O  -0.675
O10      1.388676054   21.840761415   23.961094761 XXXX 3      oc23    O  -0.550
O11      8.345688201   25.733674440   25.010735748 XXXX 3      oc24    O  -0.900
O12      2.998061689   28.854437552   24.667933849 XXXX 3      oc24    O  -0.675
O13      9.640761777   31.701971400   23.870248149 XXXX 3      oc23    O  -0.550
O14      1.436977574   31.838891404   23.876040044 XXXX 3      oc23    O  -0.550
O15     16.324369160   -0.200409626   25.005998053 XXXX 3      oc24    O  -0.675
O16     11.311599632    2.913157500   25.172863829 XXXX 3      oc24    O  -0.675
O17     18.115286020    4.521407386   24.165276273 XXXX 3      oc23    O  -0.550
O19     16.749105909   11.219870326   24.479238216 XXXX 3      oc24    O  -0.675
O20     11.160855698   13.245572214   24.818744719 XXXX 3      oc24    O  -0.675
O21     16.622037360   15.701906438   24.746424879 XXXX 3      oc24    O  -0.675
O22      9.836808697   16.540127797   23.875328009 XXXX 3      oc23    O  -0.550
O24     11.635533005   23.449115289   25.214698899 XXXX 3      oc24    O  -0.675
O26     12.743759050   28.210767060   24.578118995 XXXX 3      oc24    O  -0.675
O27     16.323910987   29.705791491   24.796139760 XXXX 3      oc24    O  -0.675
O29     26.470613934    1.920853269   24.020905418 XXXX 3      oc23    O  -0.550
O31     23.571291211    6.852431461   24.894991926 XXXX 3      oc24    O  -0.675
O33     22.524981548    9.134028027   23.677942502 XXXX 3      oc23    O  -0.550
O34     19.279201610   13.254274981   25.015761511 XXXX 3      oc24    O  -0.900
O35     24.732280717   15.926607936   24.945251510 XXXX 3      oc24    O  -0.675
O36     18.236375862   19.443565002   23.973072956 XXXX 3      oc23    O  -0.550
O37     26.716577830   19.611140093   23.949605169 XXXX 3      oc23    O  -0.550
O38     20.389144182   23.551849050   24.254124228 XXXX 3      oc24    O  -0.675
O39     25.211567516   24.652844247   24.989795901 XXXX 3      oc24    O  -0.900
O40     18.529940580   26.564997301   23.989216790 XXXX 3      oc23    O  -0.550
O42     20.073413354   32.788594016   25.029199833 XXXX 3      oc24    O  -0.675
O44     28.378349503    8.047175521   25.250853389 XXXX 3      oc24    O  -0.675
O45     28.098497511   13.921193528   25.256832388 XXXX 3      oc24    O  -0.675
O47     27.902626741   22.518816399   24.902495334 XXXX 3      oc24    O  -0.675
O48     26.620697952   29.309221796   23.932823882 XXXX 3      oc23    O  -0.550
O49     27.812735659   33.031996507   24.632367601 XXXX 3      oc24    O  -0.675
O50     33.263802183    0.236070586   24.985059603 XXXX 3      oc24    O  -0.675
O51      1.104858674    4.430127247   23.922149350 XXXX 3      oc23    O  -0.550
O53     33.200847622   15.436193688   24.981115211 XXXX 3      oc24    O  -0.675
O55     33.021164797   25.422567578   24.688719614 XXXX 3      oc24    O  -0.675
H1      32.645027893   25.983619361   25.341513392 XXXX 3      hoy     H   0.400
H2      26.910192005   32.772618787   24.664329267 XXXX 3      hoy     H   0.400
H5      15.848675023   30.192993033   25.443769311 XXXX 3      hoy     H   0.400
H7      12.027712326   28.573090033   25.069357166 XXXX 3      hoy     H   0.400
H8       9.144045729   23.773846346   25.336271538 XXXX 3      na+     Na  1.000
H10     23.124487764   24.790652979   25.560170293 XXXX 3      na+     Na  1.000
H12     25.425865533   16.559626092   24.913065591 XXXX 3      hoy     H   0.400
H13     29.128370542    8.102360343   25.816045796 XXXX 3      hoy     H   0.400
H16     33.093801989   16.178325420   25.547479287 XXXX 3      hoy     H   0.400
H21     21.045086141   12.577523584   25.976547981 XXXX 3      na+     Na  1.000
H24      7.468007818    2.327415412   24.903777700 XXXX 3      hoy     H   0.400
H26     19.534069655   23.286864213   24.547558471 XXXX 3      hoy     H   0.400
H30     12.331024514   23.749226638   25.778742282 XXXX 3      hoy     H   0.400
H35     10.429132817    3.232582073   25.236630668 XXXX 3      hoy     H   0.400
H36      1.867437055    7.834469093   24.590067002 XXXX 3      hoy     H   0.400
H37     24.310818872    6.986698122   25.457304902 XXXX 3      hoy     H   0.400
H39     27.760884269   13.239691515   25.809275448 XXXX 3      hoy     H   0.400
H40      3.691694076   17.962337254   25.569941701 XXXX 3      hoy     H   0.400
H41     11.888255007   13.463574621   25.367756768 XXXX 3      hoy     H   0.400
H42     17.286326130   15.072741770   24.986324653 XXXX 3      hoy     H   0.400
H44      3.651520662   28.870592005   25.342057109 XXXX 3      hoy     H   0.400
H45     15.960199595    0.492550039   25.519920439 XXXX 3      hoy     H   0.400
H46     32.782903227    0.694465124   25.645640986 XXXX 3      hoy     H   0.400
H47      8.392781978    7.853771975   25.765788462 XXXX 3      na+     Na  1.000
H48      7.363877843   20.911441098   25.627309810 XXXX 3      hoy     H   0.400
H50     17.412284176   11.855733108   24.246373226 XXXX 3      hoy     H   0.400
H53     20.760992345   32.905385067   25.656138284 XXXX 3      hoy     H   0.400
H55     27.180474467   23.098882629   25.109364835 XXXX 3      hoy     H   0.400
O1       3.476057499    4.984857180   11.066601223 XXXX 4      oc23    O  -0.550
O2       9.183180109    4.992469470    3.773616445 XXXX 4      oc23    O  -0.550
O3       6.454745553    4.704668185    7.075735082 XXXX 4      oc23    O  -0.550
O4       1.419062079    9.819239252    7.460112296 XXXX 4      oc23    O  -0.550
O5       7.837401121    8.798263875   10.988580040 XXXX 4      oc23    O  -0.550
O6       4.701533584    8.903409810    3.894581316 XXXX 4      oc23    O  -0.550
O7       5.324426561    8.395775304   11.570799278 XXXX 4      oc23    O  -0.550
O8       2.357189430    8.430191615    2.611711020 XXXX 4      oc23    O  -0.550
O9       8.359432331    8.041030214    7.597010106 XXXX 4      oc23    O  -0.550
O10      2.002532025    5.676749357    9.002692207 XXXX 4      oc23    O  -0.550
O11      8.140913126    5.032482999    1.326339347 XXXX 4      oc24    O  -0.675
O12      4.908162521    5.517547732    5.022917775 XXXX 4      oc23    O  -0.550
O13      2.994611127    7.533155602   10.607510817 XXXX 4      oc23    O  -0.550
O14      5.949766663    7.274146659    6.789618484 XXXX 4      oc23    O  -0.550
O15      2.357952998    7.402376113    7.078080557 XXXX 4      oc23    O  -0.550
O16      6.984930964    6.339057051   11.446446534 XXXX 4      oc23    O  -0.550
O17      4.356599555    6.696857039    2.695814496 XXXX 4      oc23    O  -0.550
O18      6.819623054    6.082923618    3.387272839 XXXX 4      oc23    O  -0.550
O19      1.057475463    5.916691505   11.437793288 XXXX 4      oc23    O  -0.550
O20      4.068977489    5.554939024    7.442385160 XXXX 4      oc23    O  -0.550
O21      1.629751409    8.873315436    5.028583117 XXXX 4      oc23    O  -0.550
O22      6.401524021    7.513072973    9.297259858 XXXX 4      oc23    O  -0.550
O23      4.613560882    8.859183668    1.258359316 XXXX 4      oc24    O  -0.675
Si1      8.255296259    5.805407722    2.756778284 XXXX 4      sc4     Si  1.100
Si2      2.383573608    6.033600573   10.528330893 XXXX 4      sc4     Si  1.100
Si3      5.372721586    5.778784317    6.555472817 XXXX 4      sc4     Si  1.100
Si4      1.339254931    8.506748567    6.548668121 XXXX 4      sc4     Si  1.100
Si5      6.617717136    7.763252390   10.840297931 XXXX 4      sc4     Si  1.100
Si6      3.974419464    8.245570661    2.624747586 XXXX 4      sc4     Si  1.100
Si7      3.727477374    8.606544475   11.574618749 XXXX 4      sc4     Si  1.100
Si8      1.063456040    8.660361685    3.553690996 XXXX 4      sc4     Si  1.100
Si9      6.773721140    8.120510658    7.888723809 XXXX 4      sc4     Si  1.100
Si10     2.510492815    5.866017341    7.489077335 XXXX 4      sc4     Si  1.100
Si11     8.165198640    5.276265501   11.553984081 XXXX 4      sc4     Si  1.100
Si12     5.297783017    5.635209770    3.465608983 XXXX 4      sc4     Si  1.100
H1       8.921252834    5.247605398    0.844117938 XXXX 4      hoy     H   0.400
H2       4.737531515    8.149304205    0.657330277 XXXX 4      hoy     H   0.400
O1       2.401278785    4.239585468   21.864290368 XXXX 5      oc23    O  -0.550
O2       8.664525109    5.009710524   15.612207490 XXXX 5      oc23    O  -0.550
O3       5.992840655    4.712730338   18.959672815 XXXX 5      oc23    O  -0.550
O4       1.758426370    8.707568303   18.810276038 XXXX 5      oc23    O  -0.550
O5       7.396138331    8.947459717   23.538970386 XXXX 5      oc23    O  -0.550
O6       4.780270731    9.166254452   15.075398505 XXXX 5      oc23    O  -0.550
O7       4.841341398    8.188319726   23.402885704 XXXX 5      oc23    O  -0.550
O8       2.283568149    8.389532583   15.479998412 XXXX 5      oc23    O  -0.550
O9       7.712179602    7.604926477   19.526475843 XXXX 5      oc23    O  -0.550
O10      2.313789877    6.002323378   20.051107708 XXXX 5      oc23    O  -0.550
O11      8.685419135    5.393959806   13.043860638 XXXX 5      oc23    O  -0.550
O12      5.641138353    6.082069095   16.772766605 XXXX 5      oc23    O  -0.550
O13      2.846367104    6.681815176   22.561977847 XXXX 5      oc23    O  -0.550
O15      5.188971082    7.201316003   19.118488542 XXXX 5      oc23    O  -0.550
O16      1.239560506    6.300381263   17.905663300 XXXX 5      oc23    O  -0.550
O17      6.755971329    6.587201744   22.631709943 XXXX 5      oc23    O  -0.550
O18      4.084076981    6.643555477   14.751874495 XXXX 5      oc23    O  -0.550
O19      6.569518888    5.922987384   14.371495061 XXXX 5      oc23    O  -0.550
O20      0.470952598    5.707110313   21.926600074 XXXX 5      oc23    O  -0.550
O21      3.637218444    5.289512188   18.050620764 XXXX 5      oc23    O  -0.550
O22      0.120443348    8.379535437   16.855976703 XXXX 5      oc23    O  -0.550
O23      6.081356356    8.665305616   21.202313703 XXXX 5      oc23    O  -0.550
O24      3.192636040    8.413761276   13.068735833 XXXX 5      oc23    O  -0.550
Si1      8.161997371    5.960463244   14.429898056 XXXX 5      sc4     Si  1.100
Si2      2.017344078    5.724210715   21.539995955 XXXX 5      sc4     Si  1.100
Si3      5.114934908    5.836959052   18.250309784 XXXX 5      sc4     Si  1.100
Si4      0.627242170    7.741529843   18.212136374 XXXX 5      sc4     Si  1.100
Si5      6.276402195    8.112403879   22.695501079 XXXX 5      sc4     Si  1.100
Si6      3.599585173    8.163445887   14.597797406 XXXX 5      sc4     Si  1.100
Si7      3.281305051    8.170989969   23.038578944 XXXX 5      sc4     Si  1.100
Si8      0.695611405    8.610642634   15.394351821 XXXX 5      sc4     Si  1.100
Si9      6.274392216    8.269869773   19.659311635 XXXX 5      sc4     Si  1.100
Si10     2.191666474    5.302008616   18.668390644 XXXX 5      sc4     Si  1.100
Si11     7.592593717    5.443852738   23.378198822 XXXX 5      sc4     Si  0.725
Si12     5.274106373    5.700838161   15.265930155 XXXX 5      sc4     Si  1.100
O1       3.351298571   10.113487874   11.147009457 XXXX 6      oc23    O  -0.550
O2       8.155061323    9.736045344    2.691568358 XXXX 6      oc23    O  -0.550
O3       6.321532571    9.643901275    8.022175384 XXXX 6      oc23    O  -0.550
O4       1.540401865   14.701668655    6.556159359 XXXX 6      oc23    O  -0.550
O5       7.443231708   13.893976807   11.591306989 XXXX 6      oc23    O  -0.550
O6       5.262741739   13.854688763    3.791339584 XXXX 6      oc23    O  -0.550
O7       5.006061459   12.902945383   11.871144165 XXXX 6      oc23    O  -0.550
O8       3.158414238   12.744509124    2.532943730 XXXX 6      oc23    O  -0.550
O9       8.092286831   12.799498918    8.037397252 XXXX 6      oc23    O  -0.550
O10      1.739864191   11.296958972    9.516112959 XXXX 6      oc23    O  -0.550
O11      5.976136497   11.715874741    2.367735073 XXXX 6      oc23    O  -0.550
O12      4.833876654   10.042693405    6.168658124 XXXX 6      oc23    O  -0.550
O13      2.408822006   12.579470828   11.584036150 XXXX 6      oc23    O  -0.550
O14      5.704125877   12.133374480    7.321749822 XXXX 6      oc23    O  -0.550
O15      2.280937196   12.277819335    7.195953266 XXXX 6      oc23    O  -0.550
O16      6.951967308   11.327903886   10.947287370 XXXX 6      oc23    O  -0.550
O17      4.394766157   11.477925931    4.199155193 XXXX 6      oc23    O  -0.550
O18      6.675396840   10.653267385    4.430585214 XXXX 6      oc23    O  -0.550
O19      0.840163606   10.462992199   11.743000763 XXXX 6      oc23    O  -0.550
O20      3.840593201   10.546227347    8.319203202 XXXX 6      oc23    O  -0.550
O21      1.474824462   12.621963315    4.737068366 XXXX 6      oc23    O  -0.550
O22      6.039180643   13.339383979    9.541083384 XXXX 6      oc23    O  -0.550
Si1      7.379315373   11.122682916    3.089840688 XXXX 6      sc4     Si  1.100
Si2      2.100538533   11.115689045   11.027453149 XXXX 6      sc4     Si  1.100
Si3      5.196928535   10.624902231    7.526990566 XXXX 6      sc4     Si  1.100
Si4      1.263797334   13.112007894    6.307775290 XXXX 6      sc4     Si  1.100
Si5      6.367679030   12.849329882   11.011995357 XXXX 6      sc4     Si  1.100
Si6      4.688258321   12.521640038    3.087592740 XXXX 6      sc4     Si  1.100
Si7      3.553656960   13.591645445   12.028760152 XXXX 6      sc4     Si  1.100
Si8      1.638844405   13.071247216    3.164409405 XXXX 6      sc4     Si  1.100
Si9      6.562455750   13.261438239    8.045964743 XXXX 6      sc4     Si  1.100
Si10     2.325567503   10.971461604    8.105362591 XXXX 6      sc4     Si  1.100
Si11     8.216816387   10.346530890   11.238498651 XXXX 6      sc4     Si  1.100
Si12     5.151381355   10.220269660    4.692880924 XXXX 6      sc4     Si  1.100
O1       3.018732710    9.265000013   21.893980945 XXXX 7      oc23    O  -0.550
O2       8.699076062   10.036159057   15.352833458 XXXX 7      oc23    O  -0.550
O3       6.237684871    9.599017843   18.759182831 XXXX 7      oc23    O  -0.550
O4       1.875807568   13.487806538   18.841052647 XXXX 7      oc23    O  -0.550
O5       7.602486085   14.324134585   23.705196503 XXXX 7      oc23    O  -0.550
O6       4.669562557   14.062026934   15.687944461 XXXX 7      oc23    O  -0.550
O7       5.077498061   12.702048861   23.997556052 XXXX 7      oc23    O  -0.550
O8       2.198661683   13.207139495   15.774030764 XXXX 7      oc23    O  -0.550
O9       7.951820643   12.841770424   19.488754052 XXXX 7      oc23    O  -0.550
O10      2.492862921   10.910685626   20.022603621 XXXX 7      oc23    O  -0.550
O11      8.647259287   10.492506490   12.762885195 XXXX 7      oc23    O  -0.550
O12      5.746605308   11.066834594   16.668272686 XXXX 7      oc23    O  -0.550
O13      3.344342359   11.929401734   22.183261180 XXXX 7      oc23    O  -0.550
O15      5.436892129   12.098584230   19.158447716 XXXX 7      oc23    O  -0.550
O16      1.270938458   11.145102109   18.008651173 XXXX 7      oc23    O  -0.550
O17      7.772502924   11.562568483   23.913791699 XXXX 7      oc23    O  -0.550
O18      4.091548001   11.693396386   14.759502755 XXXX 7      oc23    O  -0.550
O19      6.526009423   10.914169184   14.189045337 XXXX 7      oc23    O  -0.550
O20      1.010227526   10.946400677   22.146655016 XXXX 7      oc23    O  -0.550
O21      3.795950867   10.244884163   18.002337707 XXXX 7      oc23    O  -0.550
O22      0.071975434   13.191898363   17.095517870 XXXX 7      oc23    O  -0.550
O23      6.462083848   12.614068887   21.676793467 XXXX 7      oc23    O  -0.550
O24      3.318381185   13.855967163   13.558081672 XXXX 7      oc23    O  -0.550
Si1      8.120614076   10.988205278   14.176303084 XXXX 7      sc4     Si  1.100
Si2      2.473504482   10.744656325   21.548079801 XXXX 7      sc4     Si  1.100
Si3      5.312320225   10.776611954   18.179226764 XXXX 7      sc4     Si  1.100
Si4      0.665459852   12.570666489   18.381369795 XXXX 7      sc4     Si  1.100
Si5      6.729043474   12.838214214   23.342677104 XXXX 7      sc4     Si  1.100
Si6      3.563692286   13.190830092   14.960959200 XXXX 7      sc4     Si  1.100
Si7      3.357993512   12.709907989   23.569117947 XXXX 7      sc4     Si  1.100
Si8      0.638910785   13.540953489   15.699259841 XXXX 7      sc4     Si  1.100
Si9      6.442977400   13.069249804   20.039415258 XXXX 7      sc4     Si  1.100
Si10     2.341020007   10.192821181   18.661289137 XXXX 7      sc4     Si  1.100
Si11     8.539578827   10.089084603   23.509858125 XXXX 7      sc4     Si  1.100
Si12     5.281950429   10.704380663   15.167112706 XXXX 7      sc4     Si  1.100
O1       3.463696268   14.999674575   11.253278126 XXXX 8      oc23    O  -0.550
O2       9.200658377   14.808909817    3.684206674 XXXX 8      oc23    O  -0.550
O3       6.462665440   14.708209155    7.353423179 XXXX 8      oc23    O  -0.550
O4       1.662983130   19.910826022    7.373276044 XXXX 8      oc23    O  -0.550
O5       7.829591121   18.807784299   11.348940500 XXXX 8      oc23    O  -0.550
O6       4.597152393   18.616762953    2.107315131 XXXX 8      oc23    O  -0.550
O7       5.366152105   18.114177045   11.763813437 XXXX 8      oc23    O  -0.550
O8       2.574913824   18.309967403    3.734536289 XXXX 8      oc23    O  -0.550
O9       8.121109033   17.799406301    7.896300991 XXXX 8      oc23    O  -0.550
O10      2.828555829   15.502167576    8.775031150 XXXX 8      oc23    O  -0.550
O11      9.019346547   15.548957360    1.166520340 XXXX 8      oc24    O  -0.675
O12      6.033407767   15.901720742    5.092110874 XXXX 8      oc23    O  -0.550
O13      3.148278945   17.484727842   10.595633655 XXXX 8      oc23    O  -0.550
O14      5.647781297   17.205336171    7.270704651 XXXX 8      oc23    O  -0.550
O15      2.254892018   17.318296650    6.880568767 XXXX 8      oc23    O  -0.550
O16      7.014786422   16.401138053   10.726101295 XXXX 8      oc23    O  -0.550
O17      4.200694027   16.227122139    3.310017930 XXXX 8      oc23    O  -0.550
O18      6.840578071   15.683195713    2.680017280 XXXX 8      oc23    O  -0.550
O19      1.050923763   15.975202582   10.598803006 XXXX 8      oc23    O  -0.550
O20      4.021504085   15.374439170    6.553242022 XXXX 8      oc23    O  -0.550
O21      0.628943487   18.795903919    5.438348519 XXXX 8      oc23    O  -0.550
O22      6.222379455   18.538037289    9.362688823 XXXX 8      oc23    O  -0.550
Si1      8.461042278   15.834648730    2.674106808 XXXX 8      sc4     Si  1.100
Si2      2.617341491   15.989875651   10.300811671 XXXX 8      sc4     Si  1.100
Si3      5.554063509   15.782121945    6.584381944 XXXX 8      sc4     Si  1.100
Si4      1.107533140   18.479627548    6.900571352 XXXX 8      sc4     Si  1.100
Si5      6.605923356   17.952802217   10.801484905 XXXX 8      sc4     Si  1.100
Si6      3.433721783   17.502911033    2.656578976 XXXX 8      sc4     Si  1.100
Si7      3.818124629   18.430338634   11.733344273 XXXX 8      sc4     Si  1.100
Si8      0.995228537   18.463576044    3.959983637 XXXX 8      sc4     Si  1.100
Si9      6.616141717   18.319648434    7.844390849 XXXX 8      sc4     Si  1.100
Si10     2.612697257   15.748728344    7.193621575 XXXX 8      sc4     Si  1.100
Si11     8.050602867   15.381234804   11.396938038 XXXX 8      sc4     Si  1.100
Si12     5.580250517   15.432071431    3.662108628 XXXX 8      sc4     Si  1.100
H2       9.156453458   16.387101206    0.768652619 XXXX 8      hoy     H   0.400
O1       2.779198112   14.273885193   23.403003779 XXXX 9      oc23    O  -0.550
O2       8.883824316   15.053446081   15.171995035 XXXX 9      oc23    O  -0.550
O3       5.992789467   14.642553578   19.766171913 XXXX 9      oc23    O  -0.550
O4       2.014137750   18.404823265   18.829073867 XXXX 9      oc23    O  -0.550
O5       7.537400180   19.313825891   23.523533843 XXXX 9      oc23    O  -0.550
O6       4.867821842   19.065768256   15.125537383 XXXX 9      oc23    O  -0.550
O7       5.274548318   17.925422687   23.604854427 XXXX 9      oc23    O  -0.550
O8       2.389529221   18.447996665   15.719927347 XXXX 9      oc23    O  -0.550
O9       7.784175919   17.662497611   19.589252615 XXXX 9      oc23    O  -0.550
O10      2.483802328   14.861286630   20.906453696 XXXX 9      oc23    O  -0.550
O11      8.399272176   15.985872908   12.831518594 XXXX 9      oc23    O  -0.550
O12      5.773454191   15.775809155   17.246247284 XXXX 9      oc23    O  -0.550
O13      3.169946286   16.806626944   22.483750752 XXXX 9      oc23    O  -0.550
O15      5.286321451   17.214156072   19.374514117 XXXX 9      oc23    O  -0.550
O16      1.110022543   15.967033619   18.869047735 XXXX 9      oc23    O  -0.550
O17      7.438918523   16.788664294   22.563401372 XXXX 9      oc23    O  -0.550
O18      4.078325197   16.548641822   15.270127037 XXXX 9      oc23    O  -0.550
O19      6.442747311   15.628624805   14.614320094 XXXX 9      oc23    O  -0.550
O20      0.672223867   15.928056135   22.556417650 XXXX 9      oc23    O  -0.550
O21      3.652764847   15.336303438   18.602712252 XXXX 9      oc23    O  -0.550
O22      0.229798317   17.870189619   17.173768823 XXXX 9      oc23    O  -0.550
O23      6.218045213   18.716553969   21.332343662 XXXX 9      oc23    O  -0.550
O24      3.245504908   18.128467517   13.231848262 XXXX 9      oc23    O  -0.550
Si1      7.962087835   16.062131875   14.370003655 XXXX 9      sc4     Si  1.100
Si2      2.251966113   15.468860107   22.372304300 XXXX 9      sc4     Si  1.100
Si3      5.201580955   15.718897472   18.770069028 XXXX 9      sc4     Si  1.100
Si4      0.718572822   17.516413429   18.672588752 XXXX 9      sc4     Si  1.100
Si5      6.636009088   18.182352387   22.783335431 XXXX 9      sc4     Si  1.100
Si6      3.654489746   18.050230412   14.816843247 XXXX 9      sc4     Si  1.100
Si7      3.673606955   17.996474917   23.454837313 XXXX 9      sc4     Si  1.100
Si8      0.790528644   18.439987113   15.752033829 XXXX 9      sc4     Si  1.100
Si9      6.348780874   18.348477424   19.776363762 XXXX 9      sc4     Si  1.100
Si10     2.275879838   14.946078785   19.317324800 XXXX 9      sc4     Si  1.100
Si11     8.500974481   15.692801930   23.112735080 XXXX 9      sc4     Si  1.100
Si12     5.267704282   15.536468713   15.715156004 XXXX 9      sc4     Si  1.100
O1       3.642569473   19.976688982   11.290816627 XXXX 10     oc23    O  -0.550
O2       8.883046800   19.787784926    3.698263496 XXXX 10     oc23    O  -0.550
O3       6.519928280   19.632901349    6.906577838 XXXX 10     oc23    O  -0.550
O4       1.649202697   24.791419100    7.022261425 XXXX 10     oc23    O  -0.550
O5       7.789009554   23.692204254   10.648756693 XXXX 10     oc23    O  -0.550
O6       4.989546464   23.673699100    3.438025656 XXXX 10     oc23    O  -0.550
O7       5.347653455   23.153023023   11.353818466 XXXX 10     oc23    O  -0.550
O8       2.747494050   23.168760016    2.110867569 XXXX 10     oc23    O  -0.550
O9       8.341213114   22.761742592    7.181750577 XXXX 10     oc23    O  -0.550
O10      3.398719727   21.035535370    8.815315938 XXXX 10     oc23    O  -0.550
O11     10.204569481   19.340233590    1.719352566 XXXX 10     oc23    O  -0.550
O12      5.834509407   19.904279920    4.300253706 XXXX 10     oc23    O  -0.550
O13      2.843924282   22.453093501   10.906365520 XXXX 10     oc23    O  -0.550
O14      5.999588757   22.032937138    6.214001742 XXXX 10     oc23    O  -0.550
O15      2.609055740   22.364684639    6.586804251 XXXX 10     oc23    O  -0.550
O16      7.086243645   21.223981802   11.013781303 XXXX 10     oc23    O  -0.550
O17      4.689192367   21.258179185    2.177451071 XXXX 10     oc23    O  -0.550
O18      7.180097106   19.921601898    1.899895792 XXXX 10     oc23    O  -0.550
O19      1.285862116   20.446444339   10.320562588 XXXX 10     oc23    O  -0.550
O20      4.080414786   20.235132949    6.378059453 XXXX 10     oc23    O  -0.550
O21      1.632898019   23.905054843    4.498588854 XXXX 10     oc23    O  -0.550
O22      6.296919810   22.424801974    8.871454776 XXXX 10     oc23    O  -0.550
O23      4.963019846   23.445720770    0.782845884 XXXX 10     oc24    O  -0.900
Si1      8.825185241   20.304535747    2.229174395 XXXX 10     sc4     Si  1.100
Si2      2.809196485   20.968025127   10.324288290 XXXX 10     sc4     Si  1.100
Si3      5.591618362   20.475799666    5.876581097 XXXX 10     sc4     Si  1.100
Si4      1.508791959   23.472043507    6.101836697 XXXX 10     sc4     Si  1.100
Si5      6.599791509   22.632959050   10.450638607 XXXX 10     sc4     Si  1.100
Si6      4.356957741   22.879533235    2.204140129 XXXX 10     sc4     Si  0.725
Si7      3.792267035   23.593882743   11.500546644 XXXX 10     sc4     Si  1.100
Si8      1.347213811   23.452002028    2.937251714 XXXX 10     sc4     Si  1.100
Si9      6.753465526   22.909531756    7.395805725 XXXX 10     sc4     Si  1.100
Si10     2.926244592   20.905552837    7.279003838 XXXX 10     sc4     Si  1.100
Si11     8.351177733   20.308943465   11.337536743 XXXX 10     sc4     Si  1.100
Si12     5.602835707   19.926288176    2.625288234 XXXX 10     sc4     Si  1.100
H2       3.789385997   21.953318383   -0.197273318 XXXX 10     na+     Na  1.000
O1       3.272703783   19.481034097   22.929500578 XXXX 11     oc23    O  -0.550
O2       9.037948770   19.990669736   15.295535045 XXXX 11     oc23    O  -0.550
O3       6.229139441   19.686205899   18.851485061 XXXX 11     oc23    O  -0.550
O4       1.900948321   23.544889891   19.139054642 XXXX 11     oc23    O  -0.550
O5       6.730323459   24.197997981   23.617779700 XXXX 11     oc23    O  -0.550
O6       4.887020618   24.097697015   15.205353580 XXXX 11     oc23    O  -0.550
O7       4.233735284   22.891631955   23.727617885 XXXX 11     oc23    O  -0.550
O8       2.487163793   23.248822572   15.554554446 XXXX 11     oc23    O  -0.550
O9       7.618663010   22.692214917   19.775119527 XXXX 11     oc23    O  -0.550
O10      2.985028952   20.029036783   20.385370921 XXXX 11     oc23    O  -0.550
O11      8.870473733   20.709364765   12.789895193 XXXX 11     oc23    O  -0.550
O12      5.740547087   21.022582709   16.621384655 XXXX 11     oc23    O  -0.550
O13      2.811727869   21.922799652   22.051940511 XXXX 11     oc23    O  -0.550
O15      5.213234055   22.171673371   18.964018573 XXXX 11     oc23    O  -0.550
O16      1.270202486   20.952489923   18.681312277 XXXX 11     oc23    O  -0.550
O17      6.528537005   21.661243382   22.983522226 XXXX 11     oc23    O  -0.550
O18      4.294731355   21.620012824   14.509026179 XXXX 11     oc23    O  -0.550
O19      6.730385097   20.638197624   14.233977767 XXXX 11     oc23    O  -0.550
O20      0.947214512   20.367413768   22.049355218 XXXX 11     oc23    O  -0.550
O21      3.764552111   20.204865382   18.024232280 XXXX 11     oc23    O  -0.550
O22      0.389379399   22.811085699   17.078632640 XXXX 11     oc23    O  -0.550
O23      5.507533111   23.383704608   21.346261173 XXXX 11     oc23    O  -0.550
O24      3.423579728   23.716742362   13.081363392 XXXX 11     oc23    O  -0.550
Si1      8.296051741   20.958444288   14.258866446 XXXX 11     sc4     Si  1.100
Si2      2.519307072   20.390633122   21.813309109 XXXX 11     sc4     Si  1.100
Si3      5.253962094   20.775833298   18.128807063 XXXX 11     sc4     Si  1.100
Si4      0.775724654   22.503241144   18.600336785 XXXX 11     sc4     Si  1.100
Si5      5.723896157   23.062434450   22.935393891 XXXX 11     sc4     Si  1.100
Si6      3.763903075   23.154358989   14.570025257 XXXX 11     sc4     Si  1.100
Si7      2.622432591   22.817131724   23.319635238 XXXX 11     sc4     Si  1.100
Si8      0.886659399   23.342922176   15.656104638 XXXX 11     sc4     Si  1.100
Si9      6.094594957   23.226502585   19.821377777 XXXX 11     sc4     Si  1.100
Si10     2.491006479   19.913544385   18.926841817 XXXX 11     sc4     Si  1.100
Si11     7.819540358   20.906762596   23.564718149 XXXX 11     sc4     Si  1.100
Si12     5.395478899   20.594754451   15.113015459 XXXX 11     sc4     Si  1.100
O1       3.494814486   24.995496242   10.724726031 XXXX 12     oc23    O  -0.550
O2       8.393563573   24.641564242    2.254219094 XXXX 12     oc23    O  -0.550
O3       6.439649602   24.478938835    7.431062159 XXXX 12     oc23    O  -0.550
O4       1.656685769   29.740968496    6.775482225 XXXX 12     oc23    O  -0.550
O5       7.513340404   28.687390773   11.246187172 XXXX 12     oc23    O  -0.550
O6       5.084604974   28.824247319    3.311576234 XXXX 12     oc23    O  -0.550
O7       5.047088017   27.813830405   11.710038616 XXXX 12     oc23    O  -0.550
O8       2.863330790   27.773349131    2.086218920 XXXX 12     oc23    O  -0.550
O9       8.200913028   27.798368650    7.743314401 XXXX 12     oc23    O  -0.550
O10      2.188132650   26.496556761    8.911725422 XXXX 12     oc23    O  -0.550
O12      4.938500591   25.003857180    5.618449572 XXXX 12     oc23    O  -0.550
O13      2.462148075   27.375613377   11.276430556 XXXX 12     oc23    O  -0.550
O14      5.954155963   27.058396126    6.837790123 XXXX 12     oc23    O  -0.550
O15      2.456407944   27.264873311    6.451875244 XXXX 12     oc23    O  -0.550
O16      6.876975131   26.166446125   10.779883720 XXXX 12     oc23    O  -0.550
O17      4.320775504   26.314146045    3.622725271 XXXX 12     oc23    O  -0.550
O18      6.708437894   25.612087239    3.907700072 XXXX 12     oc23    O  -0.550
O19      0.950720139   25.273452591   10.661335298 XXXX 12     oc23    O  -0.550
O20      4.060180769   25.556867851    7.720409351 XXXX 12     oc23    O  -0.550
O21      1.611390539   28.714539386    4.334423093 XXXX 12     oc23    O  -0.550
O22      6.023239427   28.111834980    9.220553516 XXXX 12     oc23    O  -0.550
O23      5.901397983   26.643436631    1.852061451 XXXX 12     oc23    O  -0.550
Si1      7.404987909   26.049029246    2.574454585 XXXX 12     sc4     Si  1.100
Si2      2.298989788   26.044024186   10.413722050 XXXX 12     sc4     Si  1.100
Si3      5.395919091   25.554866799    6.950339071 XXXX 12     sc4     Si  1.100
Si4      1.412011194   28.391571167    5.944283668 XXXX 12     sc4     Si  1.100
Si5      6.351386180   27.696112826   10.743348873 XXXX 12     sc4     Si  1.100
Si6      4.520730574   27.467478505    2.567703074 XXXX 12     sc4     Si  1.100
Si7      3.541760812   28.386330159   11.892796391 XXXX 12     sc4     Si  1.100
Si8      1.302774952   28.232750019    2.795247415 XXXX 12     sc4     Si  1.100
Si9      6.653435711   28.186978955    7.730641069 XXXX 12     sc4     Si  1.100
Si10     2.577415970   26.023871196    7.484040318 XXXX 12     sc4     Si  1.100
Si11     8.137671070   25.204316237   11.086230461 XXXX 12     sc4     Si  1.100
Si12     5.221852038   25.115054508    4.144162695 XXXX 12     sc4     Si  1.100
O1       1.995442847   24.265061288   22.980683239 XXXX 13     oc23    O  -0.550
O2       8.690132475   24.957087201   15.348383182 XXXX 13     oc23    O  -0.550
O3       6.082727976   24.670876306   19.101388056 XXXX 13     oc23    O  -0.550
O4       1.831791979   28.556328813   18.904830688 XXXX 13     oc23    O  -0.550
O5       7.790433770   29.350578755   23.533177068 XXXX 13     oc23    O  -0.550
O6       4.723503657   29.076330980   15.327323991 XXXX 13     oc23    O  -0.550
O7       5.297967852   28.199975767   23.596365831 XXXX 13     oc23    O  -0.550
O8       2.269909654   28.233680306   15.831453433 XXXX 13     oc23    O  -0.550
O9       7.937547735   27.732325480   19.412683623 XXXX 13     oc23    O  -0.550
O10      2.625077537   25.549705413   20.780721375 XXXX 13     oc23    O  -0.550
O11      8.509952471   25.258839203   12.674316314 XXXX 13     oc23    O  -0.550
O12      5.698341239   25.991095239   16.872521644 XXXX 13     oc23    O  -0.550
O13      3.114633888   26.696686453   23.125499954 XXXX 13     oc23    O  -0.550
O15      5.384001700   27.217998870   19.242825744 XXXX 13     oc23    O  -0.550
O16      1.118359474   26.051022678   18.709388872 XXXX 13     oc23    O  -0.550
O17      7.358187896   26.729478265   22.721870856 XXXX 13     oc23    O  -0.550
O18      4.073472993   26.564190218   14.907864789 XXXX 13     oc23    O  -0.550
O19      6.508317684   25.902674858   14.311105171 XXXX 13     oc23    O  -0.550
O20      0.565385067   26.288728524   22.388174751 XXXX 13     oc23    O  -0.550
O21      3.639207078   25.382334914   18.376354360 XXXX 13     oc23    O  -0.550
O22      0.085585908   27.972998883   17.217370131 XXXX 13     oc23    O  -0.550
O23      6.381227742   28.715368793   21.298007118 XXXX 13     oc23    O  -0.550
O24      3.159999119   28.511108379   13.425360703 XXXX 13     oc23    O  -0.550
Si1      8.094346640   25.855225728   14.135774448 XXXX 13     sc4     Si  1.100
Si2      2.090613631   25.725795277   22.298836050 XXXX 13     sc4     Si  1.100
Si3      5.196813798   25.827046543   18.408923136 XXXX 13     sc4     Si  1.100
Si4      0.603868401   27.578719902   18.672647790 XXXX 13     sc4     Si  1.100
Si5      6.739679125   28.244181363   22.834692264 XXXX 13     sc4     Si  1.100
Si6      3.558862754   28.081689309   14.893024013 XXXX 13     sc4     Si  1.100
Si7      3.693210492   28.211666546   23.342694423 XXXX 13     sc4     Si  1.100
Si8      0.675766341   28.389734240   15.789171983 XXXX 13     sc4     Si  1.100
Si9      6.472454695   28.342736930   19.698969170 XXXX 13     sc4     Si  1.100
Si10     2.309628741   25.117077530   19.257016004 XXXX 13     sc4     Si  1.100
Si11     7.886773699   25.384255416   23.465465620 XXXX 13     sc4     Si  0.725
Si12     5.305706902   25.638479008   15.339718099 XXXX 13     sc4     Si  1.100
O1       3.449052142   29.846941744   11.238953659 XXXX 14     oc23    O  -0.550
O2       9.295311661   29.752359002    3.339187784 XXXX 14     oc23    O  -0.550
O3       6.528979670   29.683992713    7.107379854 XXXX 14     oc23    O  -0.550
O4       1.573924922   34.788094192    6.861053458 XXXX 14     oc23    O  -0.550
O5       7.645798128   33.719551382   11.260785303 XXXX 14     oc23    O  -0.550
O6       5.380436485   34.050512129    2.766664340 XXXX 14     oc23    O  -0.550
O7       5.173432055   32.901021947   11.540476647 XXXX 14     oc23    O  -0.550
O8       2.868424520   33.302076593    3.498360384 XXXX 14     oc23    O  -0.550
O9       8.203191825   32.765656987    7.624274236 XXXX 14     oc23    O  -0.550
O10      3.156323261   30.560455556    8.773302523 XXXX 14     oc23    O  -0.550
O11      9.170108764   30.467565905    0.828301221 XXXX 14     oc24    O  -0.675
O12      6.101343725   30.768804720    4.704836892 XXXX 14     oc23    O  -0.550
O13      2.757255350   32.338570752   10.697526443 XXXX 14     oc23    O  -0.550
O14      5.784038726   32.216006687    6.817985266 XXXX 14     oc23    O  -0.550
O15      2.403047007   32.274844152    6.971706618 XXXX 14     oc23    O  -0.550
O16      6.953566028   31.225735976   10.643294224 XXXX 14     oc23    O  -0.550
O17      4.570643156   31.435200712    2.665055763 XXXX 14     oc23    O  -0.550
O18      7.005900978   30.481792483    2.295274504 XXXX 14     oc23    O  -0.550
O19      1.069664766   30.340753450   10.312779906 XXXX 14     oc23    O  -0.550
O20      4.108645810   30.373823206    6.365510764 XXXX 14     oc23    O  -0.550
O21      0.781831919   33.046315052    5.090489392 XXXX 14     oc23    O  -0.550
O22      6.162587883   33.276347419    9.160338408 XXXX 14     oc23    O  -0.550
O23      3.613417867   33.248459760    0.993268194 XXXX 14     oc24    O  -0.675
Si1      8.598470905   30.795949546    2.321490593 XXXX 14     sc4     Si  1.100
Si2      2.606457827   30.784967338   10.258860152 XXXX 14     sc4     Si  1.100
Si3      5.649010518   30.732847400    6.245233237 XXXX 14     sc4     Si  1.100
Si4      1.181339329   33.252150256    6.625791905 XXXX 14     sc4     Si  1.100
Si5      6.494549929   32.773595132   10.651622784 XXXX 14     sc4     Si  1.100
Si6      4.131110551   33.008119677    2.525794869 XXXX 14     sc4     Si  1.100
Si7      3.656363708   33.400842380   11.525874648 XXXX 14     sc4     Si  1.100
Si8      1.241000476   33.338921356    3.585664815 XXXX 14     sc4     Si  1.100
Si9      6.679094396   33.243641437    7.641197223 XXXX 14     sc4     Si  1.100
Si10     2.815476963   30.742510565    7.223064976 XXXX 14     sc4     Si  1.100
Si11     8.076351471   30.198394752   11.163448947 XXXX 14     sc4     Si  1.100
Si12     5.674573011   30.364286183    3.218088663 XXXX 14     sc4     Si  1.100
H1       4.314828037   33.037841263    0.406925050 XXXX 14     hoy     H   0.400
H2       8.429897176   30.338752218    0.265955711 XXXX 14     hoy     H   0.400
O1       3.353768058   29.172599182   22.083858401 XXXX 15     oc23    O  -0.550
O2       8.733868209   29.874906651   15.153891205 XXXX 15     oc23    O  -0.550
O3       6.268592789   29.682587473   18.786848504 XXXX 15     oc23    O  -0.550
O4       1.628160165   33.565666289   19.139589899 XXXX 15     oc23    O  -0.550
O5       6.740446914   34.129543625   23.595772958 XXXX 15     oc23    O  -0.550
O6       4.649578597   33.982159677   15.204843893 XXXX 15     oc23    O  -0.550
O7       4.479072181   32.473185769   23.674098660 XXXX 15     oc23    O  -0.550
O8       2.235447849   33.074906023   15.501106239 XXXX 15     oc23    O  -0.550
O9       7.648802718   32.602580165   19.609085022 XXXX 15     oc23    O  -0.550
O10      2.686982495   30.590613172   20.028427364 XXXX 15     oc23    O  -0.550
O11      8.561172190   30.623879317   12.625853937 XXXX 15     oc23    O  -0.550
O12      5.671558040   31.063862548   16.613941552 XXXX 15     oc23    O  -0.550
O13      2.950246170   31.834626575   22.017469203 XXXX 15     oc23    O  -0.550
O15      5.189292187   32.119244380   18.979807116 XXXX 15     oc23    O  -0.550
O16      1.221431729   31.085998163   18.135826867 XXXX 15     oc23    O  -0.550
O17      7.022589162   31.649948249   22.697013647 XXXX 15     oc23    O  -0.550
O18      4.080158033   31.519069037   14.572539787 XXXX 15     oc23    O  -0.550
O19      6.481195146   30.619873717   14.162931079 XXXX 15     oc23    O  -0.550
O20      0.941754606   30.354942278   21.944680392 XXXX 15     oc23    O  -0.550
O21      3.753186211   30.128034651   17.934723497 XXXX 15     oc23    O  -0.550
O22      0.170019268   33.177237447   17.024972869 XXXX 15     oc23    O  -0.550
O23      5.656529981   33.298115375   21.353570114 XXXX 15     oc23    O  -0.550
O24      3.162609801   33.488104874   13.061604045 XXXX 15     oc23    O  -0.550
Si1      8.041810902   30.882436347   14.114045805 XXXX 15     sc4     Si  1.100
Si2      2.479727595   30.422133147   21.525616546 XXXX 15     sc4     Si  1.100
Si3      5.230458423   30.748446546   18.112284301 XXXX 15     sc4     Si  1.100
Si4      0.591474596   32.563958804   18.415792878 XXXX 15     sc4     Si  1.100
Si5      5.957001347   32.874132011   22.899185540 XXXX 15     sc4     Si  1.100
Si6      3.528922222   33.023646931   14.569260191 XXXX 15     sc4     Si  1.100
Si7      2.849376939   32.665094764   23.313208903 XXXX 15     sc4     Si  1.100
Si8      0.675392083   33.390701581   15.547018172 XXXX 15     sc4     Si  1.100
Si9      6.133935907   33.155735894   19.786804028 XXXX 15     sc4     Si  1.100
Si10     2.341664953   30.053142005   18.661681912 XXXX 15     sc4     Si  1.100
Si11     8.373754745   30.816599284   23.101710771 XXXX 15     sc4     Si  1.100
Si12     5.242841408   30.581620411   15.157293647 XXXX 15     sc4     Si  1.100
O1      11.767229450   -0.138214923   11.239870332 XXXX 16     oc23    O  -0.550
O2      17.594194573   -0.502817432    2.632928860 XXXX 16     oc23    O  -0.550
O3      14.928617800   -0.239626896    6.670474824 XXXX 16     oc23    O  -0.550
O4      10.377516604    3.863819515    7.905548187 XXXX 16     oc23    O  -0.550
O5      16.007621083    3.882283215   11.409625081 XXXX 16     oc23    O  -0.550
O6      12.181427880    4.445619505    2.454330167 XXXX 16     oc23    O  -0.550
O7      13.519269530    3.154186776   11.881356173 XXXX 16     oc23    O  -0.550
O8      10.969390692    3.081469356    4.091648155 XXXX 16     oc23    O  -0.550
O9      16.442917148    2.729344912    8.078178458 XXXX 16     oc23    O  -0.550
O10     11.598155791    0.683747395    8.803853662 XXXX 16     oc23    O  -0.550
O11     18.466245895    2.062939800    1.914135440 XXXX 16     oc23    O  -0.550
O12     14.287211688    1.478069999    4.710336180 XXXX 16     oc23    O  -0.550
O13     11.250617561    2.441637232   10.776269413 XXXX 16     oc23    O  -0.550
O14      8.592554813    2.483718003    3.766497244 XXXX 16     oc23    O  -0.550
O15     14.024991811    2.149039939    7.254776425 XXXX 16     oc23    O  -0.550
O16     10.040677888    1.354878733    6.892664454 XXXX 16     oc23    O  -0.550
O17     15.215579575    1.404229107   10.953790835 XXXX 16     oc23    O  -0.550
O18     12.872718121    1.889543058    2.490589969 XXXX 16     oc23    O  -0.550
O19     15.598832743    1.306676228    2.323822409 XXXX 16     oc23    O  -0.550
O20      9.430714050    0.582657074   10.316653227 XXXX 16     oc23    O  -0.550
O21     12.430650688    0.430255794    6.296047571 XXXX 16     oc23    O  -0.550
O22      9.121661344    3.550617008    5.917480756 XXXX 16     oc23    O  -0.550
O23     14.415358897    3.417337769    9.451418766 XXXX 16     oc23    O  -0.550
Si1     17.224966903    1.100287730    2.602501498 XXXX 16     sc4     Si  1.100
Si2     11.015006124    0.907675999   10.289719311 XXXX 16     sc4     Si  1.100
Si3     13.942177880    0.952482774    6.208211251 XXXX 16     sc4     Si  1.100
Si4      9.416504065    2.810777554    7.226352877 XXXX 16     sc4     Si  1.100
Si5     14.790055131    2.957124163   10.934898762 XXXX 16     sc4     Si  1.100
Si6     11.597083963    2.903942789    2.651080107 XXXX 16     sc4     Si  1.100
Si7     11.946460863    3.431064437   11.857822719 XXXX 16     sc4     Si  1.100
Si8      9.480556124    3.568338428    4.431499011 XXXX 16     sc4     Si  1.100
Si9     14.935460457    3.247239885    7.956981344 XXXX 16     sc4     Si  1.100
Si10    11.179832427    0.299239499    7.302413475 XXXX 16     sc4     Si  1.100
Si11    16.356054904    0.367775581   11.412709287 XXXX 16     sc4     Si  1.100
Si12    14.140345639    1.100117803    3.144790280 XXXX 16     sc4     Si  1.100
O1      10.558387591   -0.530573120   23.281343567 XXXX 17     oc23    O  -0.550
O2      16.866369110    0.037079918   15.518298368 XXXX 17     oc23    O  -0.550
O3      13.719031752   -0.429388037   19.528531784 XXXX 17     oc23    O  -0.550
O4       9.995059941    3.589913132   19.408929375 XXXX 17     oc23    O  -0.550
O5      15.849334789    4.247886297   22.607569123 XXXX 17     oc23    O  -0.550
O6      13.071501211    3.877324966   15.226431241 XXXX 17     oc23    O  -0.550
O7      13.495315192    3.177205316   23.647488521 XXXX 17     oc23    O  -0.550
O8      10.584171339    3.284213352   15.878555951 XXXX 17     oc23    O  -0.550
O9      16.208292494    2.513686857   19.535110354 XXXX 17     oc23    O  -0.550
O10     10.686081471    0.284100951   20.883976658 XXXX 17     oc23    O  -0.550
O11     16.785123226    0.651152100   12.951007149 XXXX 17     oc23    O  -0.550
O12     13.773562103    0.277088742   16.942816640 XXXX 17     oc23    O  -0.550
O13     11.119447572    2.124679988   22.641657128 XXXX 17     oc23    O  -0.550
O14      8.327601025    2.563271084   14.784999709 XXXX 17     oc23    O  -0.550
O15     13.728391013    2.093053466   18.797541870 XXXX 17     oc23    O  -0.550
O16      9.162593986    1.125240682   18.955807030 XXXX 17     oc23    O  -0.550
O17     15.717314149    1.737362864   23.404399023 XXXX 17     oc23    O  -0.550
O18     12.197001460    1.378161147   15.125846156 XXXX 17     oc23    O  -0.550
O19     14.675940113    0.969245051   14.516996771 XXXX 17     oc23    O  -0.550
O20      8.562156924    0.990575388   22.433788384 XXXX 17     oc23    O  -0.550
O21     11.629613360    0.603958966   18.441695466 XXXX 17     oc23    O  -0.550
O22      8.392762237    3.072532584   17.386818804 XXXX 17     oc23    O  -0.550
O23     14.359038558    2.602383299   21.278521672 XXXX 17     oc23    O  -0.550
O24     11.367317846    3.162940819   13.347768733 XXXX 17     oc23    O  -0.550
Si1     16.274106989    1.073642315   14.433251564 XXXX 17     sc4     Si  1.100
Si2     10.204693845    0.753550912   22.347024752 XXXX 17     sc4     Si  1.100
Si3     13.221817420    0.628178931   18.422471976 XXXX 17     sc4     Si  1.100
Si4      8.760609136    2.674546060   18.909319835 XXXX 17     sc4     Si  1.100
Si5     14.847148536    2.945353135   22.755630480 XXXX 17     sc4     Si  1.100
Si6     11.804383870    2.927395202   14.891846595 XXXX 17     sc4     Si  1.100
Si7     11.846826451    3.208458084   23.661392210 XXXX 17     sc4     Si  1.100
Si8      8.991733632    3.475491204   15.936351705 XXXX 17     sc4     Si  1.100
Si9     14.685647837    2.936442624   19.752950649 XXXX 17     sc4     Si  1.100
Si10    10.368578509    0.154500285   19.321344566 XXXX 17     sc4     Si  1.100
Si11    16.053096795    0.158179831   23.439433601 XXXX 17     sc4     Si  1.100
Si12    13.435215545    0.379995919   15.363607233 XXXX 17     sc4     Si  1.100
O1      11.729275430    4.979599819   11.421835139 XXXX 18     oc23    O  -0.550
O2      16.670700777    4.324062948    3.747248822 XXXX 18     oc23    O  -0.550
O3      14.834484123    4.613066288    7.098571470 XXXX 18     oc23    O  -0.550
O4      10.742406050    8.743269626    6.869882057 XXXX 18     oc23    O  -0.550
O5      15.951397397    8.855407200   11.094328142 XXXX 18     oc23    O  -0.550
O6      13.163168536    9.615757149    2.320862474 XXXX 18     oc23    O  -0.550
O7      13.530851305    8.094907255   11.782470880 XXXX 18     oc23    O  -0.550
O8      10.737976741    8.926695402    3.115353310 XXXX 18     oc23    O  -0.550
O9      16.311875979    7.945300613    7.972377562 XXXX 18     oc23    O  -0.550
O10     11.383323928    5.954649209    8.962793175 XXXX 18     oc23    O  -0.550
O11     17.108618597    5.193956554    1.274660735 XXXX 18     oc24    O  -0.675
O12     13.773893832    5.151950656    4.670697648 XXXX 18     oc23    O  -0.550
O13     11.114012014    7.500110658   10.961510461 XXXX 18     oc23    O  -0.550
O14      8.890449537    7.225338152    2.541843355 XXXX 18     oc23    O  -0.550
O15     14.055865888    7.114078813    6.674395993 XXXX 18     oc23    O  -0.550
O16     10.019012447    6.259494070    6.659635225 XXXX 18     oc23    O  -0.550
O17     15.270534408    6.333844101   10.913232358 XXXX 18     oc23    O  -0.550
O18     12.721648970    7.078066191    3.209000972 XXXX 18     oc23    O  -0.550
O19     14.723330871    5.484972680    2.357491441 XXXX 18     oc23    O  -0.550
O20      9.345237558    5.652560592   10.545012812 XXXX 18     oc23    O  -0.550
O21     12.347704462    5.025644548    6.757304542 XXXX 18     oc23    O  -0.550
O22      8.891879231    8.228442994    4.965317621 XXXX 18     oc23    O  -0.550
O23     14.182959788    8.040738438    9.247703128 XXXX 18     oc23    O  -0.550
O24     11.734930517    8.027816498    0.875929287 XXXX 18     oc24    O  -0.900
Si1     16.319597913    5.492631377    2.668389591 XXXX 18     sc4     Si  1.100
Si2     10.902483519    6.004445163   10.478895634 XXXX 18     sc4     Si  1.100
Si3     13.780544925    5.527068394    6.280281152 XXXX 18     sc4     Si  1.100
Si4      9.499965149    7.803872847    6.473274690 XXXX 18     sc4     Si  1.100
Si5     14.729984582    7.843329562   10.754356247 XXXX 18     sc4     Si  1.100
Si6     12.110207803    8.378169278    2.441314819 XXXX 18     sc4     Si  0.725
Si7     11.971953550    8.442037032   11.901104600 XXXX 18     sc4     Si  1.100
Si8      9.164229149    8.565539873    3.348325890 XXXX 18     sc4     Si  1.100
Si9     14.743540702    8.180135479    7.753417621 XXXX 18     sc4     Si  1.100
Si10    11.014959919    5.302981557    7.565371240 XXXX 18     sc4     Si  1.100
Si11    16.496092341    5.409669506   11.410600864 XXXX 18     sc4     Si  1.100
Si12    13.294401426    5.535396421    3.135968981 XXXX 18     sc4     Si  1.100
H1      11.715949602   10.142952061    0.470089326 XXXX 18     na+     Na  1.000
H2      16.467370357    5.188228015    0.588666096 XXXX 18     hoy     H   0.400
O1      11.419782044    4.732019324   23.298652030 XXXX 19     oc23    O  -0.550
O2      17.109478363    5.128599894   15.405636816 XXXX 19     oc23    O  -0.550
O3      14.474860072    4.503404026   19.416693895 XXXX 19     oc23    O  -0.550
O4      10.033127966    8.670783009   19.131134189 XXXX 19     oc23    O  -0.550
O5      15.382932188    9.136141229   23.646054260 XXXX 19     oc23    O  -0.550
O6      13.250135653    8.885595842   15.158956962 XXXX 19     oc23    O  -0.550
O7      12.912750867    8.069588258   23.968836178 XXXX 19     oc23    O  -0.550
O8      10.742794968    8.427530388   15.801437513 XXXX 19     oc23    O  -0.550
O9      16.117365987    7.768752886   19.706011729 XXXX 19     oc23    O  -0.550
O10     10.965903139    5.582824300   20.840942068 XXXX 19     oc23    O  -0.550
O11     16.896737790    5.795622594   12.903989354 XXXX 19     oc23    O  -0.550
O12     14.065643512    5.556579922   17.000870906 XXXX 19     oc23    O  -0.550
O13     10.530147611    7.240532765   22.807322126 XXXX 19     oc23    O  -0.550
O14      8.646314542    7.478669506   14.628251732 XXXX 19     oc23    O  -0.550
O15     13.675738636    7.019940969   19.162978833 XXXX 19     oc23    O  -0.550
O16      9.655402038    6.096314786   18.591578656 XXXX 19     oc23    O  -0.550
O17     15.593414319    6.516492136   23.916405216 XXXX 19     oc23    O  -0.550
O18     12.333804093    6.420808458   15.196774641 XXXX 19     oc23    O  -0.550
O19     14.761623740    5.775306545   14.461819986 XXXX 19     oc23    O  -0.550
O20      8.944478106    5.149038466   22.541309639 XXXX 19     oc23    O  -0.550
O21     12.045964485    5.018843421   18.554210145 XXXX 19     oc23    O  -0.550
O22      8.565665880    8.043152122   17.137880500 XXXX 19     oc23    O  -0.550
O23     14.279778945    7.656916323   21.672850036 XXXX 19     oc23    O  -0.550
O24     11.492833368    8.173712321   13.395755111 XXXX 19     oc23    O  -0.550
Si1     16.342519404    6.081293235   14.372337309 XXXX 19     sc4     Si  1.100
Si2     10.473771300    5.664221419   22.373237673 XXXX 19     sc4     Si  1.100
Si3     13.575573431    5.527532529   18.541888602 XXXX 19     sc4     Si  1.100
Si4      9.001320610    7.575964968   18.603959014 XXXX 19     sc4     Si  1.100
Si5     14.531049417    7.797981043   23.324594291 XXXX 19     sc4     Si  1.100
Si6     11.971241744    7.966374776   14.900389549 XXXX 19     sc4     Si  1.100
Si7     11.310434200    8.520290972   23.433494742 XXXX 19     sc4     Si  1.100
Si8      9.150930337    8.522121231   15.730577580 XXXX 19     sc4     Si  1.100
Si9     14.567561951    8.031050425   20.063055743 XXXX 19     sc4     Si  1.100
Si10    10.648291792    5.068968756   19.351673149 XXXX 19     sc4     Si  1.100
Si11    16.778703587    5.359975878   23.370150642 XXXX 19     sc4     Si  1.100
Si12    13.556255260    5.402701257   15.471905887 XXXX 19     sc4     Si  1.100
O1      11.701806615    9.959468920   11.450415421 XXXX 20     oc23    O  -0.550
O2      17.210502172    9.410199554    4.090983117 XXXX 20     oc23    O  -0.550
O3      14.568096200    9.709197797    7.258827516 XXXX 20     oc23    O  -0.550
O4      10.524600443   13.643676844    7.617687710 XXXX 20     oc23    O  -0.550
O5      16.199760619   13.875553066   10.774088468 XXXX 20     oc23    O  -0.550
O6      12.644400778   14.621359708    2.542886023 XXXX 20     oc23    O  -0.550
O7      13.774733194   13.259447853   11.444265472 XXXX 20     oc23    O  -0.550
O8      11.063155293   12.887329125    3.850164358 XXXX 20     oc23    O  -0.550
O9      16.646095566   13.084345308    7.451493904 XXXX 20     oc23    O  -0.550
O10     11.584380469   10.358248243    8.830609825 XXXX 20     oc23    O  -0.550
O11     18.542956903    9.250737707    2.088730890 XXXX 20     oc23    O  -0.550
O12     14.334675885   10.170840194    4.644828389 XXXX 20     oc23    O  -0.550
O13     11.497672160   12.392889582   10.553166423 XXXX 20     oc23    O  -0.550
O14      8.487746589   12.323750891    3.182979749 XXXX 20     oc23    O  -0.550
O15     14.477585454   12.193081721    6.334648113 XXXX 20     oc23    O  -0.550
O16      9.890001698   11.170460469    7.039164899 XXXX 20     oc23    O  -0.550
O17     15.353525925   11.392331462   10.564675630 XXXX 20     oc23    O  -0.550
O18     13.656158083   12.113962752    3.037686485 XXXX 20     oc23    O  -0.550
O19     15.757846394   10.369820970    2.336025020 XXXX 20     oc23    O  -0.550
O20      9.464285850   10.758626257   10.318092968 XXXX 20     oc23    O  -0.550
O21     12.353367801   10.711674734    6.319438003 XXXX 20     oc23    O  -0.550
O22      8.982729695   13.108429277    5.604171106 XXXX 20     oc23    O  -0.550
O23     14.481613101   13.254174277    8.834899289 XXXX 20     oc23    O  -0.550
O24     11.692082676   12.531751506    1.341578131 XXXX 20     oc24    O  -0.675
Si1     17.348077643   10.249883173    2.766412821 XXXX 20     sc4     Si  1.100
Si2     11.066604856   10.865466465   10.279083889 XXXX 20     sc4     Si  1.100
Si3     13.944265412   10.681084060    6.138593871 XXXX 20     sc4     Si  1.100
Si4      9.376130703   12.674537285    7.088108973 XXXX 20     sc4     Si  1.100
Si5     14.943471783   12.944632043   10.383847801 XXXX 20     sc4     Si  1.100
Si6     12.308656570   13.039054781    2.781222160 XXXX 20     sc4     Si  1.100
Si7     12.190214417   13.336137246   11.658177363 XXXX 20     sc4     Si  1.100
Si8      9.459676158   13.260720113    4.083518149 XXXX 20     sc4     Si  1.100
Si9     15.074952646   13.335555846    7.311790565 XXXX 20     sc4     Si  1.100
Si10    11.156109245   10.235948121    7.275569789 XXXX 20     sc4     Si  1.100
Si11    16.475437856   10.387368796   11.150706608 XXXX 20     sc4     Si  1.100
Si12    14.258104491   10.568277750    3.071795544 XXXX 20     sc4     Si  1.100
H1      11.309365930   13.309881057    0.961391342 XXXX 20     hoy     H   0.400
O1      11.518562969    9.602711693   22.292507936 XXXX 21     oc23    O  -0.550
O2      17.247553788   10.121957726   15.196736507 XXXX 21     oc23    O  -0.550
O3      14.182034720    9.565506225   19.603655392 XXXX 21     oc23    O  -0.550
O4      10.251497872   13.514951464   18.513582790 XXXX 21     oc23    O  -0.550
O5      15.474258055   13.836422958   23.303691050 XXXX 21     oc23    O  -0.550
O6      13.266726111   13.938247933   15.000119857 XXXX 21     oc23    O  -0.550
O7      13.191936427   12.606324468   23.294984677 XXXX 21     oc23    O  -0.550
O8      10.761480724   13.309902626   15.541825593 XXXX 21     oc23    O  -0.550
O9      16.005339285   12.642048001   19.397508927 XXXX 21     oc23    O  -0.550
O10     10.820001788   10.887495718   20.177629332 XXXX 21     oc23    O  -0.550
O11     16.900503135   10.790196449   12.662314804 XXXX 21     oc23    O  -0.550
O12     14.224173185   10.438040326   16.977273368 XXXX 21     oc23    O  -0.550
O13     10.788331146   12.169625697   22.427441900 XXXX 21     oc23    O  -0.550
O14      8.569400960   12.518362195   14.370876739 XXXX 21     oc23    O  -0.550
O15     13.551517487   12.073302631   18.886592917 XXXX 21     oc23    O  -0.550
O16      9.497320622   11.092562503   18.128614417 XXXX 21     oc23    O  -0.550
O17     15.278014710   11.412798677   22.352913766 XXXX 21     oc23    O  -0.550
O18     12.511233733   11.400917829   15.224821121 XXXX 21     oc23    O  -0.550
O19     14.883177582   10.755906977   14.377951225 XXXX 21     oc23    O  -0.550
O20      9.131865524   10.326084927   22.075224366 XXXX 21     oc23    O  -0.550
O21     12.001336940   10.116461000   18.150712883 XXXX 21     oc23    O  -0.550
O22      8.490318125   13.117743125   16.847619497 XXXX 21     oc23    O  -0.550
O23     14.198278303   13.401837666   21.056005767 XXXX 21     oc23    O  -0.550
O24     11.759567610   12.826265642   13.134596310 XXXX 21     oc23    O  -0.550
Si1     16.434454183   11.063177621   14.189212332 XXXX 21     sc4     Si  1.100
Si2     10.603530046   10.762232043   21.697476955 XXXX 21     sc4     Si  1.100
Si3     13.523982766   10.527667656   18.424621306 XXXX 21     sc4     Si  1.100
Si4      8.980281572   12.610432405   18.249747632 XXXX 21     sc4     Si  1.100
Si5     14.546635627   12.813874853   22.501536599 XXXX 21     sc4     Si  1.100
Si6     12.079646831   12.875868819   14.719590005 XXXX 21     sc4     Si  1.100
Si7     11.712272258   13.133668117   23.289152679 XXXX 21     sc4     Si  1.100
Si8      9.166822363   13.510797733   15.464426804 XXXX 21     sc4     Si  1.100
Si9     14.516920938   13.194935508   19.505384184 XXXX 21     sc4     Si  1.100
Si10    10.572417770   10.150280972   18.837086619 XXXX 21     sc4     Si  1.100
Si11    16.221709215   10.422095412   23.150770876 XXXX 21     sc4     Si  1.100
Si12    13.739869209   10.380199373   15.437780576 XXXX 21     sc4     Si  1.100
O1      11.728243121   14.858103869   11.460372171 XXXX 22     oc23    O  -0.550
O2      16.889749877   14.249555906    2.772226517 XXXX 22     oc23    O  -0.550
O3      14.811638535   14.769773322    6.553462732 XXXX 22     oc23    O  -0.550
O4      10.554874964   18.705522734    7.360650838 XXXX 22     oc23    O  -0.550
O5      15.921293790   18.817699282   11.313503820 XXXX 22     oc23    O  -0.550
O6      12.926178689   19.838440169    2.278637713 XXXX 22     oc23    O  -0.550
O7      13.495899779   17.878136171   11.610025209 XXXX 22     oc23    O  -0.550
O8      11.012352735   18.576134945    3.893952488 XXXX 22     oc23    O  -0.550
O9      16.388983184   17.594407335    7.796819425 XXXX 22     oc23    O  -0.550
O10     11.506687899   15.627675978    8.987668427 XXXX 22     oc23    O  -0.550
O11     17.330847230   16.235204211    1.142306238 XXXX 22     oc24    O  -0.675
O12     13.645670248   16.309636164    4.519702518 XXXX 22     oc23    O  -0.550
O13     11.043867300   17.359123333   10.918724907 XXXX 22     oc23    O  -0.550
O14      8.872833706   17.350796443    3.041095476 XXXX 22     oc23    O  -0.550
O15     13.852869630   17.169805135    7.011232628 XXXX 22     oc23    O  -0.550
O16      9.915058976   16.117208576    7.026402364 XXXX 22     oc23    O  -0.550
O17     15.401503683   16.354693262   10.610096309 XXXX 22     oc23    O  -0.550
O18     12.363647522   17.243764448    2.219268019 XXXX 22     oc23    O  -0.550
O19     14.898762555   16.056839558    2.247104286 XXXX 22     oc23    O  -0.550
O20      9.384730888   15.350889657   10.502139100 XXXX 22     oc23    O  -0.550
O21     12.259043084   15.187912214    6.466304619 XXXX 22     oc23    O  -0.550
O22      8.952714316   17.968197622    5.561187456 XXXX 22     oc23    O  -0.550
O23     14.441537777   18.366520002    9.241326852 XXXX 22     oc23    O  -0.550
Si1     16.527950582   15.830370771    2.502051556 XXXX 22     sc4     Si  1.100
Si2     10.921942494   15.814540188   10.469831509 XXXX 22     sc4     Si  1.100
Si3     13.665442642   15.843428469    6.110107103 XXXX 22     sc4     Si  1.100
Si4      9.412916411   17.636956236    7.002213905 XXXX 22     sc4     Si  1.100
Si5     14.812476697   17.848104034   10.704944922 XXXX 22     sc4     Si  1.100
Si6     11.685112695   18.759439210    2.461178869 XXXX 22     sc4     Si  1.100
Si7     11.993597654   18.424953732   11.662861965 XXXX 22     sc4     Si  1.100
Si8      9.439173029   18.396458626    4.147113773 XXXX 22     sc4     Si  1.100
Si9     14.892355185   18.188316245    7.725668044 XXXX 22     sc4     Si  1.100
Si10    11.067584784   15.142654359    7.530678393 XXXX 22     sc4     Si  1.100
Si11    16.645731760   15.407837533   10.994643086 XXXX 22     sc4     Si  1.100
Si12    13.380359501   16.053406307    2.903580625 XXXX 22     sc4     Si  1.100
H1      17.905696227   15.525460337    0.911567716 XXXX 22     hoy     H   0.400
O1      11.704277653   14.560567965   22.587764387 XXXX 23     oc23    O  -0.550
O2      17.264149140   15.081218965   15.103454241 XXXX 23     oc23    O  -0.550
O3      14.454398141   14.600903077   18.709116209 XXXX 23     oc23    O  -0.550
O4      10.181833509   18.589802873   19.433521655 XXXX 23     oc23    O  -0.550
O5      15.407426081   18.910352245   23.503960443 XXXX 23     oc23    O  -0.550
O6      13.017881501   18.931998761   15.371877284 XXXX 23     oc23    O  -0.550
O7      12.760239069   17.625450050   23.621927100 XXXX 23     oc23    O  -0.550
O8      10.633161781   17.923974816   15.601078038 XXXX 23     oc23    O  -0.550
O9      16.013928386   17.586975877   19.517018560 XXXX 23     oc23    O  -0.550
O10     11.294848847   15.129829276   20.095530850 XXXX 23     oc23    O  -0.550
O11     17.078218351   15.679930283   12.529005330 XXXX 23     oc23    O  -0.550
O12     14.107007121   15.928878590   16.486997035 XXXX 23     oc23    O  -0.550
O13     11.122672458   16.953236047   21.889610266 XXXX 23     oc23    O  -0.550
O14      8.169910014   17.551894340   14.905685796 XXXX 23     oc23    O  -0.550
O15     13.569893329   17.096097899   18.840891871 XXXX 23     oc23    O  -0.550
O16      9.612969518   16.133783561   18.405825281 XXXX 23     oc23    O  -0.550
O17     14.960435144   16.334623952   22.743757326 XXXX 23     oc23    O  -0.550
O18     12.518598701   16.464796756   14.522400574 XXXX 23     oc23    O  -0.550
O19     14.961702363   15.683871069   14.033494146 XXXX 23     oc23    O  -0.550
O20      9.346868699   15.202747440   21.866622168 XXXX 23     oc23    O  -0.550
O21     12.058330668   15.254293212   17.787236003 XXXX 23     oc23    O  -0.550
O22      8.724578316   18.351105133   17.308004288 XXXX 23     oc23    O  -0.550
O23     14.024731598   18.220366198   21.273668187 XXXX 23     oc23    O  -0.550
O24     11.569107646   18.534326503   13.211829457 XXXX 23     oc23    O  -0.550
Si1     16.521262741   16.001015165   14.009680492 XXXX 23     sc4     Si  1.100
Si2     10.878680582   15.439830011   21.545026068 XXXX 23     sc4     Si  1.100
Si3     13.564708764   15.727229206   17.970460970 XXXX 23     sc4     Si  1.100
Si4      9.101791060   17.658041145   18.692433407 XXXX 23     sc4     Si  1.100
Si5     14.288827319   17.804506495   22.833195819 XXXX 23     sc4     Si  1.100
Si6     11.936897273   17.961427210   14.673970187 XXXX 23     sc4     Si  1.100
Si7     11.088092591   17.626390108   23.288724508 XXXX 23     sc4     Si  1.100
Si8      9.141945920   18.466953135   15.775311603 XXXX 23     sc4     Si  1.100
Si9     14.502667469   18.088981518   19.706007438 XXXX 23     sc4     Si  1.100
Si10    10.764000737   15.014574981   18.651069999 XXXX 23     sc4     Si  1.100
Si11    16.093429602   15.304717685   23.255911661 XXXX 23     sc4     Si  1.100
Si12    13.708554240   15.498201035   14.999001817 XXXX 23     sc4     Si  1.100
O1      11.936618570   19.868740793   10.922352270 XXXX 24     oc23    O  -0.550
O2      17.372943940   19.425925133    3.673335041 XXXX 24     oc23    O  -0.550
O3      14.876901352   19.609722488    6.957758204 XXXX 24     oc23    O  -0.550
O4      10.732411600   23.600019747    6.629600887 XXXX 24     oc23    O  -0.550
O5      16.009805030   23.777314343   10.794175935 XXXX 24     oc23    O  -0.550
O6      13.506247550   24.801110694    2.105505092 XXXX 24     oc23    O  -0.550
O7      13.551635324   23.096044013   11.490658947 XXXX 24     oc23    O  -0.550
O8      11.123970910   23.635121687    2.909121322 XXXX 24     oc23    O  -0.550
O9      16.481171575   22.745444349    7.446930530 XXXX 24     oc23    O  -0.550
O10     11.461923697   20.847400495    8.470578703 XXXX 24     oc23    O  -0.550
O12     14.453153599   20.267785811    4.419194410 XXXX 24     oc23    O  -0.550
O13     11.208772341   22.375212880   10.563327042 XXXX 24     oc23    O  -0.550
O14      9.129630145   21.937174269    2.152728375 XXXX 24     oc23    O  -0.550
O15     14.161443750   22.096458552    6.394611930 XXXX 24     oc23    O  -0.550
O16     10.077706766   21.118512710    6.207650705 XXXX 24     oc23    O  -0.550
O17     15.254824126   21.264028971   10.720764990 XXXX 24     oc23    O  -0.550
O18     13.722056772   22.245118502    2.814151300 XXXX 24     oc23    O  -0.550
O19     15.764044542   20.256063102    2.024709217 XXXX 24     oc23    O  -0.550
O20      9.495529142   20.481918823   10.222173629 XXXX 24     oc23    O  -0.550
O21     12.464682155   20.069574535    6.144352576 XXXX 24     oc23    O  -0.550
O22      9.033037328   23.097673121    4.558243841 XXXX 24     oc23    O  -0.550
O23     14.333487003   22.927500190    8.935044537 XXXX 24     oc23    O  -0.550
O24     12.384302248   22.988212794    0.622627361 XXXX 24     oc24    O  -0.675
Si1     17.468913442   20.186300929    2.336584283 XXXX 24     sc4     Si  1.100
Si2     11.035080857   20.879169444   10.032985830 XXXX 24     sc4     Si  1.100
Si3     13.996008341   20.532089634    5.967366030 XXXX 24     sc4     Si  1.100
Si4      9.536567033   22.650477020    6.095971142 XXXX 24     sc4     Si  1.100
Si5     14.778810350   22.777903084   10.483279646 XXXX 24     sc4     Si  1.100
Si6     12.657863025   23.391547327    2.178442799 XXXX 24     sc4     Si  1.100
Si7     11.958163405   23.320639239   11.606164523 XXXX 24     sc4     Si  1.100
Si8      9.419696413   23.370204326    2.948043758 XXXX 24     sc4     Si  1.100
Si9     14.911128858   23.100895604    7.432247955 XXXX 24     sc4     Si  1.100
Si10    11.128903779   20.188713431    7.038998468 XXXX 24     sc4     Si  1.100
Si11    16.429069945   20.329747518   11.286810038 XXXX 24     sc4     Si  1.100
Si12    14.251491351   20.648111671    2.841983201 XXXX 24     sc4     Si  1.100
H1      12.566414655   23.747912692    0.101404974 XXXX 24     hoy     H   0.400
O1      10.559183470   19.164159016   23.203838856 XXXX 25     oc23    O  -0.550
O2      17.035571584   20.042656144   15.248995594 XXXX 25     oc23    O  -0.550
O3      14.449638862   19.546350011   19.056858625 XXXX 25     oc23    O  -0.550
O4      10.039551481   23.564050601   19.402517760 XXXX 25     oc23    O  -0.550
O5      16.478998111   24.339449609   23.750907262 XXXX 25     oc23    O  -0.550
O6      13.156153272   23.802819670   14.853735890 XXXX 25     oc23    O  -0.550
O7      14.009229224   23.100720694   24.083209559 XXXX 25     oc23    O  -0.550
O8      10.700996709   23.322112054   15.653521861 XXXX 25     oc23    O  -0.550
O9      16.211628890   22.457330369   19.548775729 XXXX 25     oc23    O  -0.550
O10     11.071495535   20.585255089   20.994795914 XXXX 25     oc23    O  -0.550
O11     16.799772060   20.772388666   12.770190177 XXXX 25     oc23    O  -0.550
O12     13.889420961   20.939126304   16.938012845 XXXX 25     oc23    O  -0.550
O13     11.822673101   21.569686713   23.366009719 XXXX 25     oc23    O  -0.550
O14      8.478235328   22.483238074   14.690096495 XXXX 25     oc23    O  -0.550
O15     13.720644978   22.011355274   19.455673731 XXXX 25     oc23    O  -0.550
O16      9.509193456   21.076174362   18.875079431 XXXX 25     oc23    O  -0.550
O17     16.220994920   21.563729136   23.813436377 XXXX 25     oc23    O  -0.550
O18     12.270751385   21.373608617   14.940647569 XXXX 25     oc23    O  -0.550
O19     14.689306672   20.671609834   14.376978229 XXXX 25     oc23    O  -0.550
O20      9.195468864   21.263875710   22.783115633 XXXX 25     oc23    O  -0.550
O21     11.976575426   20.236977916   18.562260610 XXXX 25     oc23    O  -0.550
O22      8.561499554   23.041710412   17.278941818 XXXX 25     oc23    O  -0.550
O23     14.838049987   23.002442263   21.765310653 XXXX 25     oc23    O  -0.550
O24     11.421085576   23.015477573   13.097982273 XXXX 25     oc23    O  -0.550
Si1     16.245556015   21.010742244   14.249132672 XXXX 25     sc4     Si  1.100
Si2     10.684891564   20.662952341   22.567798538 XXXX 25     sc4     Si  1.100
Si3     13.508571767   20.706955588   18.500838316 XXXX 25     sc4     Si  1.100
Si4      8.925189470   22.587637927   18.815568086 XXXX 25     sc4     Si  1.100
Si5     15.475971874   23.008231006   23.323222607 XXXX 25     sc4     Si  1.100
Si6     11.871273163   22.883021018   14.635032429 XXXX 25     sc4     Si  1.100
Si7     12.370303823   23.067627923   23.797658441 XXXX 25     sc4     Si  1.100
Si8      9.108784402   23.459319186   15.782864500 XXXX 25     sc4     Si  1.100
Si9     14.837940373   22.999826274   20.095182078 XXXX 25     sc4     Si  1.100
Si10    10.672331734   20.124746211   19.487576281 XXXX 25     sc4     Si  1.100
Si11    16.715433335   20.022127580   23.381403686 XXXX 25     sc4     Si  1.100
Si12    13.486215464   20.470876877   15.426379013 XXXX 25     sc4     Si  1.100
O1      11.615836923   24.829036369   11.219124634 XXXX 26     oc23    O  -0.550
O2      17.798501887   24.370514146    2.718457237 XXXX 26     oc23    O  -0.550
O3      14.739969331   24.649491962    7.008908319 XXXX 26     oc23    O  -0.550
O4      10.620376562   28.543280757    7.174677380 XXXX 26     oc23    O  -0.550
O5      15.974075910   28.804395615   11.034052030 XXXX 26     oc23    O  -0.550
O6      12.535265624   29.585794923    2.871059924 XXXX 26     oc23    O  -0.550
O7      13.559308417   28.115332946   11.550074917 XXXX 26     oc23    O  -0.550
O8      10.914054748   27.667846978    3.457917542 XXXX 26     oc23    O  -0.550
O9      16.453324703   27.903030857    7.941943450 XXXX 26     oc23    O  -0.550
O10     11.515462110   25.256436275    8.611690700 XXXX 26     oc23    O  -0.550
O11     18.864762633   26.889603248    2.047505512 XXXX 26     oc23    O  -0.550
O12     14.557727675   25.429130006    4.483041256 XXXX 26     oc23    O  -0.550
O13     11.419738404   27.256469187   10.412227626 XXXX 26     oc23    O  -0.550
O14      8.366866463   27.350196960    2.773261740 XXXX 26     oc23    O  -0.550
O15     14.351673478   27.211199046    6.483109817 XXXX 26     oc23    O  -0.550
O16      9.914474236   26.070112832    6.714318160 XXXX 26     oc23    O  -0.550
O17     15.207791575   26.293062962   10.745460409 XXXX 26     oc23    O  -0.550
O18     13.578355072   27.268392233    3.010062228 XXXX 26     oc23    O  -0.550
O19     15.944163036   26.177758633    2.243079457 XXXX 26     oc23    O  -0.550
O20      9.380163671   25.678172760   10.177345581 XXXX 26     oc23    O  -0.550
O21     12.416512482   25.511991486    6.093518392 XXXX 26     oc23    O  -0.550
O22      8.950200392   27.994335371    5.252573291 XXXX 26     oc23    O  -0.550
O23     14.288238682   28.120050231    9.055778418 XXXX 26     oc23    O  -0.550
O24     11.924137562   27.885111493    1.016328426 XXXX 26     oc24    O  -0.675
Si1     17.539278155   25.978871252    2.654219017 XXXX 26     sc4     Si  1.100
Si2     10.980771920   25.751308368   10.078823188 XXXX 26     sc4     Si  1.100
Si3     14.022898051   25.692888533    6.014002252 XXXX 26     sc4     Si  1.100
Si4      9.424528163   27.593406511    6.729476564 XXXX 26     sc4     Si  1.100
Si5     14.766711014   27.835376333   10.580123421 XXXX 26     sc4     Si  1.100
Si6     12.234943242   28.056411385    2.608324537 XXXX 26     sc4     Si  1.100
Si7     11.989686286   28.198366193   11.586464894 XXXX 26     sc4     Si  1.100
Si8      9.392120753   28.174548297    3.719371588 XXXX 26     sc4     Si  1.100
Si9     14.940935100   28.241695275    7.598090139 XXXX 26     sc4     Si  1.100
Si10    11.153476415   25.106656839    7.027645203 XXXX 26     sc4     Si  1.100
Si11    16.423304589   25.305260202   11.123600544 XXXX 26     sc4     Si  1.100
Si12    14.420881557   25.902601882    2.924983832 XXXX 26     sc4     Si  1.100
H2      11.461982060   28.652490144    0.732993606 XXXX 26     hoy     H   0.400
O1      11.917978964   24.211335092   22.720565052 XXXX 27     oc23    O  -0.550
O2      17.063872522   25.042958860   15.215269301 XXXX 27     oc23    O  -0.550
O3      14.551157826   24.469722134   19.450274930 XXXX 27     oc23    O  -0.550
O4      10.295211382   28.444678267   18.566090802 XXXX 27     oc23    O  -0.550
O5      15.533083597   29.442160848   22.304955352 XXXX 27     oc23    O  -0.550
O6      13.232888637   28.722283647   14.774612281 XXXX 27     oc23    O  -0.550
O7      13.539883175   27.731301031   22.141576562 XXXX 27     oc23    O  -0.550
O8      10.745797825   28.264835156   15.459107117 XXXX 27     oc23    O  -0.550
O9      16.043137407   27.840965668   17.892206955 XXXX 27     oc23    O  -0.550
O10     10.892968701   25.633562051   20.729446144 XXXX 27     oc23    O  -0.550
O11     16.806137457   25.442113500   12.678779236 XXXX 27     oc23    O  -0.550
O12     14.122209139   25.156871603   16.854834875 XXXX 27     oc23    O  -0.550
O13     11.192784668   26.800646547   23.018925965 XXXX 27     oc23    O  -0.550
O14      8.630659884   27.353778201   14.299631243 XXXX 27     oc23    O  -0.550
O15     13.764815021   26.866397596   18.727693585 XXXX 27     oc23    O  -0.550
O16      9.652140808   25.957135858   18.422254007 XXXX 27     oc23    O  -0.550
O17     15.960345163   26.896174373   22.997555012 XXXX 27     oc23    O  -0.550
O18     12.387364506   26.269750508   15.153331828 XXXX 27     oc23    O  -0.550
O19     14.781327090   25.783497298   14.322786335 XXXX 27     oc23    O  -0.550
O20      9.288932567   24.878264990   22.773239400 XXXX 27     oc23    O  -0.550
O21     12.079106406   24.868577753   18.479544130 XXXX 27     oc23    O  -0.550
O22      8.585391535   27.817478023   16.834971972 XXXX 27     oc23    O  -0.550
O23     15.491517829   27.677989174   20.451361178 XXXX 27     oc23    O  -0.550
O24     11.536918801   27.696876572   13.051192979 XXXX 27     oc23    O  -0.550
Si1     16.359069804   25.966338320   14.131150637 XXXX 27     sc4     Si  1.100
Si2     10.811855007   25.370975807   22.322969028 XXXX 27     sc4     Si  1.100
Si3     13.626801027   25.317015937   18.389826370 XXXX 27     sc4     Si  1.100
Si4      9.082877503   27.463358486   18.311677491 XXXX 27     sc4     Si  1.100
Si5     15.148803318   27.914299293   21.996444230 XXXX 27     sc4     Si  1.100
Si6     11.980142219   27.730796687   14.606445358 XXXX 27     sc4     Si  1.100
Si7     12.233610439   28.057650849   23.037191022 XXXX 27     sc4     Si  1.100
Si8      9.154810944   28.347033384   15.433228351 XXXX 27     sc4     Si  1.100
Si9     14.878406695   27.974261477   18.994411965 XXXX 27     sc4     Si  1.100
Si10    10.670359717   25.021009751   19.259228288 XXXX 27     sc4     Si  1.100
Si11    17.159962357   25.809961350   23.258015126 XXXX 27     sc4     Si  1.100
Si12    13.624768031   25.257636212   15.311171197 XXXX 27     sc4     Si  1.100
O1      11.571044301   29.721766870   11.296887335 XXXX 28     oc23    O  -0.550
O2      16.785581093   29.191440310    3.630245692 XXXX 28     oc23    O  -0.550
O3      14.809518561   29.734466394    6.966088803 XXXX 28     oc23    O  -0.550
O4      10.647840592   33.609763439    7.262158421 XXXX 28     oc23    O  -0.550
O5      15.826424227   33.709242774   11.275999865 XXXX 28     oc23    O  -0.550
O6      13.679485088   34.401233175    3.138514976 XXXX 28     oc23    O  -0.550
O7      13.466401115   32.675632219   11.387149375 XXXX 28     oc23    O  -0.550
O8      11.286119450   33.201381423    3.629090921 XXXX 28     oc23    O  -0.550
O9      16.428369958   32.487931861    7.298026382 XXXX 28     oc23    O  -0.550
O10     11.519442057   30.403666539    8.747046004 XXXX 28     oc23    O  -0.550
O11     17.401234549   29.971980888    1.144516003 XXXX 28     oc24    O  -0.675
O12     14.203562052   30.839173276    4.546707125 XXXX 28     oc23    O  -0.550
O13     11.069369779   32.211207382   10.587947491 XXXX 28     oc23    O  -0.550
O14      8.921782926   32.369959017    2.675414028 XXXX 28     oc23    O  -0.550
O15     13.925601182   32.187543807    6.763463232 XXXX 28     oc23    O  -0.550
O16      9.965343293   31.070647835    6.759873440 XXXX 28     oc23    O  -0.550
O17     15.466178180   31.306730260   10.336398280 XXXX 28     oc23    O  -0.550
O18     13.212139229   32.004436815    2.340202778 XXXX 28     oc23    O  -0.550
O19     15.007514038   30.205823894    2.202951840 XXXX 28     oc23    O  -0.550
O20      9.331818385   30.292296314   10.182845356 XXXX 28     oc23    O  -0.550
O21     12.346283478   30.204252490    6.251274506 XXXX 28     oc23    O  -0.550
O22      9.134243913   32.988419049    5.191753263 XXXX 28     oc23    O  -0.550
O23     14.560505214   33.363989423    9.005367274 XXXX 28     oc23    O  -0.550
O24     11.960388037   33.939823347    1.190445050 XXXX 28     oc24    O  -0.675
Si1     16.553900860   30.297875968    2.498205358 XXXX 28     sc4     Si  1.100
Si2     10.880996586   30.666318421   10.194370087 XXXX 28     sc4     Si  1.100
Si3     13.833931092   30.729121632    6.122401821 XXXX 28     sc4     Si  1.100
Si4      9.505714815   32.613848953    6.707697652 XXXX 28     sc4     Si  1.100
Si5     14.809191751   32.765957189   10.487927837 XXXX 28     sc4     Si  1.100
Si6     12.532897291   33.401083004    2.616990994 XXXX 28     sc4     Si  1.100
Si7     11.932269435   33.135683110   11.562883329 XXXX 28     sc4     Si  1.100
Si8      9.676924349   33.374875414    3.725717911 XXXX 28     sc4     Si  1.100
Si9     14.970322839   33.182728579    7.443844139 XXXX 28     sc4     Si  1.100
Si10    11.112737557   30.060349101    7.239554797 XXXX 28     sc4     Si  1.100
Si11    16.535049529   30.315532233   11.003900453 XXXX 28     sc4     Si  1.100
Si12    13.713547468   30.649403836    3.004709406 XXXX 28     sc4     Si  1.100
H1      12.385587612   33.451030481    0.511979368 XXXX 28     hoy     H   0.400
H2      16.786282498   29.735827397    0.476524688 XXXX 28     hoy     H   0.400
O1      11.544975735   29.502686574   22.651208458 XXXX 29     oc23    O  -0.550
O2      17.253588899   30.033178877   14.831904232 XXXX 29     oc23    O  -0.550
O3      14.213825775   29.445212582   18.939770120 XXXX 29     oc23    O  -0.550
O4      10.035909738   33.461568151   19.007934984 XXXX 29     oc23    O  -0.550
O5      14.734287710   34.156598183   22.964485466 XXXX 29     oc23    O  -0.550
O6      13.075105550   33.745268674   14.837731827 XXXX 29     oc23    O  -0.550
O7      12.546158287   32.536116130   23.615055177 XXXX 29     oc23    O  -0.550
O8      10.637323789   33.030301990   15.568887067 XXXX 29     oc23    O  -0.550
O9      15.936787625   33.182167183   19.418850331 XXXX 29     oc23    O  -0.550
O10     11.211614405   30.166272079   20.120588570 XXXX 29     oc23    O  -0.550
O11     16.889390933   30.876457214   12.453816612 XXXX 29     oc23    O  -0.550
O12     14.156220368   30.430125327   16.508253382 XXXX 29     oc23    O  -0.550
O13     11.008697832   32.004109984   21.911659194 XXXX 29     oc23    O  -0.550
O14      8.330036915   32.403421318   14.528026219 XXXX 29     oc23    O  -0.550
O15     13.757947742   32.033150626   18.542403647 XXXX 29     oc23    O  -0.550
O16      9.438493946   30.958553589   18.419823261 XXXX 29     oc23    O  -0.550
O17     15.084322272   31.666924313   23.580636118 XXXX 29     oc23    O  -0.550
O18     12.381033703   31.199119336   14.783072939 XXXX 29     oc23    O  -0.550
O19     14.840234139   30.657859477   14.013983196 XXXX 29     oc23    O  -0.550
O20      9.210608201   30.402130305   21.816013562 XXXX 29     oc23    O  -0.550
O21     11.973387476   30.294650120   17.795312509 XXXX 29     oc23    O  -0.550
O22      8.449049328   32.960538716   17.076200682 XXXX 29     oc23    O  -0.550
O23     14.028790229   32.354989437   21.227695251 XXXX 29     oc23    O  -0.550
O24     11.413890561   32.873599309   13.056910370 XXXX 29     oc23    O  -0.550
Si1     16.390649142   31.035409915   13.951573003 XXXX 29     sc4     Si  1.100
Si2     10.770569618   30.470532389   21.569878787 XXXX 29     sc4     Si  1.100
Si3     13.544124698   30.548362325   17.966990079 XXXX 29     sc4     Si  1.100
Si4      8.876079694   32.475109272   18.543808028 XXXX 29     sc4     Si  1.100
Si5     14.056253867   32.675653441   22.851400536 XXXX 29     sc4     Si  1.100
Si6     11.875361488   32.711625975   14.576006372 XXXX 29     sc4     Si  1.100
Si7     10.923705471   32.709678456   23.305582239 XXXX 29     sc4     Si  1.100
Si8      9.048758107   33.321296786   15.623544491 XXXX 29     sc4     Si  1.100
Si9     14.362007634   32.957544877   19.713851834 XXXX 29     sc4     Si  1.100
Si10    10.695867776   29.974465320   18.675950048 XXXX 29     sc4     Si  1.100
Si11    16.130379656   30.471065119   23.370998485 XXXX 29     sc4     Si  1.100
Si12    13.659579906   30.252689393   15.005960808 XXXX 29     sc4     Si  1.100
O1      19.913921289   -0.096684251   11.453819465 XXXX 30     oc23    O  -0.550
O2      25.903556378   -1.125136340    2.080083811 XXXX 30     oc23    O  -0.550
O3      23.140592659   -0.237235503    6.982929475 XXXX 30     oc23    O  -0.550
O4      18.927697756    3.616067866    7.873173330 XXXX 30     oc23    O  -0.550
O5      23.896114761    4.099491842   11.504524317 XXXX 30     oc23    O  -0.550
O6      20.442493827    4.315101327    2.031099101 XXXX 30     oc23    O  -0.550
O7      21.719128480    2.784888588   11.478754220 XXXX 30     oc23    O  -0.550
O8      19.216159121    3.238475103    3.924418924 XXXX 30     oc23    O  -0.550
O9      24.595840458    2.954202204    7.497210308 XXXX 30     oc23    O  -0.550
O10     19.801410801    0.513038884    8.937705950 XXXX 30     oc23    O  -0.550
O11     25.289801231    0.997960367    0.688024062 XXXX 30     oc24    O  -0.675
O12     22.510848180    0.966749098    4.721425469 XXXX 30     oc23    O  -0.550
O13     19.372569231    2.363191542   10.729775448 XXXX 30     oc23    O  -0.550
O14     17.266948796    1.767827411    4.012425551 XXXX 30     oc23    O  -0.550
O15     22.138583390    2.230306740    7.006424906 XXXX 30     oc23    O  -0.550
O16     18.309308167    1.197241225    6.999714773 XXXX 30     oc23    O  -0.550
O17     23.792617691    1.639306601   10.400109792 XXXX 30     oc23    O  -0.550
O18     21.198414202    1.804503553    2.552562895 XXXX 30     oc23    O  -0.550
O19     23.443501345    0.180982762    2.341554976 XXXX 30     oc23    O  -0.550
O20     17.607923714    0.515439730   10.421778548 XXXX 30     oc23    O  -0.550
O21     20.649340440    0.206684889    6.437010679 XXXX 30     oc23    O  -0.550
O22     17.538368454    3.383575137    5.945221272 XXXX 30     oc23    O  -0.550
O23     22.701866724    3.668207425    9.141754253 XXXX 30     oc23    O  -0.550
Si1     25.066629716    0.309164405    2.150543646 XXXX 30     sc4     Si  1.100
Si2     19.169850106    0.829341320   10.378805749 XXXX 30     sc4     Si  1.100
Si3     22.124595514    0.791681882    6.278514095 XXXX 30     sc4     Si  1.100
Si4     17.810456148    2.681241224    7.280833244 XXXX 30     sc4     Si  1.100
Si5     23.034163179    3.058149343   10.617856298 XXXX 30     sc4     Si  1.100
Si6     19.873569540    2.827594166    2.524969385 XXXX 30     sc4     Si  1.100
Si7     20.213776123    3.219733257   11.743758460 XXXX 30     sc4     Si  1.100
Si8     17.685791737    3.231715297    4.425228025 XXXX 30     sc4     Si  1.100
Si9     23.053674711    3.428059799    7.566561216 XXXX 30     sc4     Si  1.100
Si10    19.401508833    0.138458420    7.440765124 XXXX 30     sc4     Si  1.100
Si11    24.783426641    0.568991795   11.082025667 XXXX 30     sc4     Si  1.100
Si12    22.098882189    0.576469384    3.212125259 XXXX 30     sc4     Si  1.100
H1      25.226284292    0.303673487    0.058619692 XXXX 30     hoy     H   0.400
O1      20.177668003   -0.372061758   23.015661133 XXXX 31     oc23    O  -0.550
O2      25.562515292    0.145096403   14.867641396 XXXX 31     oc23    O  -0.550
O3      23.008355645   -0.299166100   19.563253386 XXXX 31     oc23    O  -0.550
O4      18.413051573    3.935583501   19.342848805 XXXX 31     oc23    O  -0.550
O5      23.716806716    4.496815700   23.711670513 XXXX 31     oc23    O  -0.550
O6      21.464624145    3.885763544   14.637845348 XXXX 31     oc23    O  -0.550
O7      21.128438958    3.434669038   23.933211458 XXXX 31     oc23    O  -0.550
O8      19.076241431    3.423655831   15.625560751 XXXX 31     oc23    O  -0.550
O9      24.425398981    2.924584162   19.703291924 XXXX 31     oc23    O  -0.550
O10     19.273038082    0.787106288   20.839047182 XXXX 31     oc23    O  -0.550
O11     25.054070876    1.114518854   12.567796708 XXXX 31     oc23    O  -0.550
O12     22.545967114    0.755667087   17.084233886 XXXX 31     oc23    O  -0.550
O13     18.848466852    2.060307244   23.115477924 XXXX 31     oc23    O  -0.550
O14     16.741705672    2.598253349   14.716461437 XXXX 31     oc23    O  -0.550
O15     22.005255336    2.181314338   19.288887354 XXXX 31     oc23    O  -0.550
O16     18.291735552    1.352962602   18.505335123 XXXX 31     oc23    O  -0.550
O17     23.596618078    1.907932483   23.342865378 XXXX 31     oc23    O  -0.550
O18     20.735195221    1.432389896   15.267457555 XXXX 31     oc23    O  -0.550
O19     23.096181937    0.696404451   14.401070290 XXXX 31     oc23    O  -0.550
O20     17.453363720   -0.101890642   22.609060136 XXXX 31     oc23    O  -0.550
O21     20.584427277    0.107478756   18.664065709 XXXX 31     oc23    O  -0.550
O22     17.017290019    3.258842966   17.221515582 XXXX 31     oc23    O  -0.550
O23     22.475991149    3.569783546   21.552084523 XXXX 31     oc23    O  -0.550
O24     19.768207960    2.763597419   13.202907731 XXXX 31     oc23    O  -0.550
Si1     24.604135295    1.154178027   14.114697538 XXXX 31     sc4     Si  1.100
Si2     18.948634380    0.564843563   22.405718875 XXXX 31     sc4     Si  1.100
Si3     22.070067659    0.688324933   18.648372308 XXXX 31     sc4     Si  1.100
Si4     17.509411339    2.765989095   18.657091951 XXXX 31     sc4     Si  1.100
Si5     22.707005653    3.329348537   23.168207510 XXXX 31     sc4     Si  1.100
Si6     20.255913011    2.857061933   14.700839283 XXXX 31     sc4     Si  1.100
Si7     19.449554676    3.550324625   23.521877099 XXXX 31     sc4     Si  1.100
Si8     17.486110480    3.600748842   15.735736444 XXXX 31     sc4     Si  1.100
Si9     22.889562814    3.353633102   19.964057594 XXXX 31     sc4     Si  1.100
Si10    19.132813228    0.245248781   19.323645816 XXXX 31     sc4     Si  1.100
Si11    25.091538008    1.083993525   23.357000469 XXXX 31     sc4     Si  1.100
Si12    21.994237492    0.483808304   15.568879725 XXXX 31     sc4     Si  1.100
O1      20.031157688    4.812490292   11.539264856 XXXX 32     oc23    O  -0.550
O2      24.830306489    3.821150640    2.560881086 XXXX 32     oc23    O  -0.550
O3      22.830691906    4.762665644    6.637189070 XXXX 32     oc23    O  -0.550
O4      18.860893204    8.607113149    7.374675358 XXXX 32     oc23    O  -0.550
O5      24.519985072    9.020666424   10.679931892 XXXX 32     oc23    O  -0.550
O6      20.975222323    9.450706055    3.372051876 XXXX 32     oc23    O  -0.550
O7      22.137179169    8.128567961   11.357885224 XXXX 32     oc23    O  -0.550
O8      19.037960663    7.813073748    4.010404767 XXXX 32     oc23    O  -0.550
O9      24.788286301    7.557854073    6.687238133 XXXX 32     oc23    O  -0.550
O10     20.003328647    5.539940172    9.091024989 XXXX 32     oc23    O  -0.550
O11     25.135185736    5.371063712    0.469559510 XXXX 32     oc24    O  -0.675
O12     21.769375522    5.382815518    4.199199856 XXXX 32     oc23    O  -0.550
O13     19.698416324    7.403366113   10.778878624 XXXX 32     oc23    O  -0.550
O14     16.714690501    6.972160658    3.210791961 XXXX 32     oc23    O  -0.550
O15     22.213692734    7.274919726    6.192510643 XXXX 32     oc23    O  -0.550
O16     18.098143458    6.064721844    7.635933407 XXXX 32     oc23    O  -0.550
O17     23.962583329    6.499004679   10.401058219 XXXX 32     oc23    O  -0.550
O18     20.569458968    7.054068411    2.190177443 XXXX 32     oc23    O  -0.550
O19     22.879518307    5.631380253    1.859503166 XXXX 32     oc23    O  -0.550
O20     17.796585684    5.611753023   10.472728939 XXXX 32     oc23    O  -0.550
O21     20.304584466    5.415301838    6.430816763 XXXX 32     oc23    O  -0.550
O22     17.179764701    7.402321569    5.748726709 XXXX 32     oc23    O  -0.550
O23     22.899526528    8.186680558    8.660713583 XXXX 32     oc23    O  -0.550
Si1     24.517420011    5.313283782    1.982050096 XXXX 32     sc4     Si  1.100
Si2     19.394579126    5.857031726   10.505629899 XXXX 32     sc4     Si  1.100
Si3     21.771449999    5.732708175    5.840181922 XXXX 32     sc4     Si  1.100
Si4     17.636530325    7.529369341    7.223104255 XXXX 32     sc4     Si  1.100
Si5     23.355492423    7.979123418   10.247315550 XXXX 32     sc4     Si  1.100
Si6     19.848693969    8.414932974    2.804927745 XXXX 32     sc4     Si  1.100
Si7     20.549541954    8.418728989   11.648104810 XXXX 32     sc4     Si  1.100
Si8     17.500459720    7.860467902    4.314285771 XXXX 32     sc4     Si  1.100
Si9     23.302351981    8.182173339    7.033455493 XXXX 32     sc4     Si  1.100
Si10    19.382879264    5.136036773    7.728825907 XXXX 32     sc4     Si  1.100
Si11    24.682406693    5.495826148   11.429260694 XXXX 32     sc4     Si  1.100
Si12    21.375137582    5.617453854    2.579565424 XXXX 32     sc4     Si  1.100
H2      25.393699059    4.490726270    0.252387628 XXXX 32     hoy     H   0.400
O1      19.659404724    4.529960325   22.305934994 XXXX 33     oc23    O  -0.550
O2      25.596029822    5.105464399   15.092236305 XXXX 33     oc23    O  -0.550
O3      22.640195362    4.766168369   19.206441137 XXXX 33     oc23    O  -0.550
O4      18.443271345    8.797252999   19.139087609 XXXX 33     oc23    O  -0.550
O5      24.096274592    9.044211642   21.855088842 XXXX 33     oc23    O  -0.550
O6      21.560575811    8.964773530   15.116999903 XXXX 33     oc23    O  -0.550
O7      21.787304323    8.413306376   21.512503569 XXXX 33     oc23    O  -0.550
O8      19.049797187    8.284177807   15.644084593 XXXX 33     oc23    O  -0.550
O9      24.650766254    7.893879677   17.843347965 XXXX 33     oc23    O  -0.550
O10     19.515424988    6.165771265   20.437173310 XXXX 33     oc23    O  -0.550
O11     24.997061669    6.225254059   12.807287166 XXXX 33     oc23    O  -0.550
O12     22.327917275    5.084721806   16.644759451 XXXX 33     oc23    O  -0.550
O13     20.326922059    7.126402079   22.952597689 XXXX 33     oc23    O  -0.550
O14     16.651396630    7.621367995   14.698636897 XXXX 33     oc23    O  -0.550
O15     22.138767813    7.105253085   18.031642343 XXXX 33     oc23    O  -0.550
O16     17.926259226    6.370917319   18.428893232 XXXX 33     oc23    O  -0.550
O17     23.392010655    6.602031841   22.275816956 XXXX 33     oc23    O  -0.550
O18     20.744942359    6.395219490   15.044437723 XXXX 33     oc23    O  -0.550
O19     23.160358087    5.866018961   14.356116039 XXXX 33     oc23    O  -0.550
O20     17.766993459    6.158033697   22.370113606 XXXX 33     oc23    O  -0.550
O21     20.276063041    5.285911949   18.128325510 XXXX 33     oc23    O  -0.550
O22     16.867856936    8.390913386   17.161147057 XXXX 33     oc23    O  -0.550
O23     23.570101550    7.534078036   19.904842040 XXXX 33     oc23    O  -0.550
O24     20.038290272    8.128552107   13.168223108 XXXX 33     oc23    O  -0.550
Si1     24.704251466    6.210716586   14.347802737 XXXX 33     sc4     Si  1.100
Si2     19.352351950    6.073433131   22.019021540 XXXX 33     sc4     Si  1.100
Si3     21.838342987    5.546200434   18.039751496 XXXX 33     sc4     Si  1.100
Si4     17.299561214    7.829969110   18.599630332 XXXX 33     sc4     Si  1.100
Si5     23.238061442    7.862213013   21.331339104 XXXX 33     sc4     Si  1.100
Si6     20.361611836    7.943238053   14.740868320 XXXX 33     sc4     Si  1.100
Si7     21.094804425    8.617154487   22.882273231 XXXX 33     sc4     Si  1.100
Si8     17.457554781    8.604753940   15.671820441 XXXX 33     sc4     Si  1.100
Si9     23.264316316    8.080214438   18.532254346 XXXX 33     sc4     Si  1.100
Si10    19.023551614    5.423048954   19.089292577 XXXX 33     sc4     Si  1.100
Si11    24.108388437    6.060238835   23.577380162 XXXX 33     sc4     Si  1.100
Si12    21.928283131    5.308189286   15.153764936 XXXX 33     sc4     Si  1.100
O1      20.178296071    9.943379221   11.249337278 XXXX 34     oc23    O  -0.550
O2      25.665451900    8.935577358    2.127120036 XXXX 34     oc23    O  -0.550
O3      23.221101856    9.716180101    6.524462964 XXXX 34     oc23    O  -0.550
O4      19.151023238   13.685158057    7.067834219 XXXX 34     oc23    O  -0.550
O5      24.409994151   13.909089796   11.186193089 XXXX 34     oc23    O  -0.550
O6      21.886941764   14.467807033    2.675741006 XXXX 34     oc23    O  -0.550
O7      21.923802429   13.166238086   11.567017890 XXXX 34     oc23    O  -0.550
O8      19.433944131   13.722602174    3.336557459 XXXX 34     oc23    O  -0.550
O9      24.789020912   12.905006979    7.786860428 XXXX 34     oc23    O  -0.550
O10     19.877531832   10.635166298    8.735089288 XXXX 34     oc23    O  -0.550
O11     25.293557531   11.139957556    0.827323028 XXXX 34     oc24    O  -0.900
O12     22.330872726   11.270049349    4.589844814 XXXX 34     oc23    O  -0.550
O13     19.566968497   12.449041209   10.620397668 XXXX 34     oc23    O  -0.550
O14     17.962316508   11.734502991    2.923763993 XXXX 34     oc23    O  -0.550
O15     22.323115888   12.204235590    7.042915472 XXXX 34     oc23    O  -0.550
O16     18.291771993   11.180168841    6.721768096 XXXX 34     oc23    O  -0.550
O17     23.688173313   11.529479057   10.561852804 XXXX 34     oc23    O  -0.550
O18     21.157018082   11.927678641    2.322738073 XXXX 34     oc23    O  -0.550
O19     23.340350179   10.279306965    2.374858114 XXXX 34     oc23    O  -0.550
O20     17.793502393   10.511310106   10.242558335 XXXX 34     oc23    O  -0.550
O21     20.689121858   10.247132092    6.307775840 XXXX 34     oc23    O  -0.550
O22     17.520090686   13.142138464    5.086451014 XXXX 34     oc23    O  -0.550
O23     22.837915880   13.635177660    9.129513466 XXXX 34     oc23    O  -0.550
O24     20.153488432   13.844931371    0.824362890 XXXX 34     oc24    O  -0.675
Si1     24.971736750   10.426302213    2.280219671 XXXX 34     sc4     Si  0.725
Si2     19.357814204   10.889137397   10.228179663 XXXX 34     sc4     Si  1.100
Si3     22.168492024   10.872986465    6.128155377 XXXX 34     sc4     Si  1.100
Si4     17.934299997   12.754179122    6.584695085 XXXX 34     sc4     Si  1.100
Si5     23.196389536   13.060769741   10.601337145 XXXX 34     sc4     Si  1.100
Si6     20.671190348   13.488077563    2.331510216 XXXX 34     sc4     Si  1.100
Si7     20.354018914   13.467756834   11.602900826 XXXX 34     sc4     Si  1.100
Si8     17.923190032   13.225190016    3.542068688 XXXX 34     sc4     Si  1.100
Si9     23.275998192   13.393198731    7.606420497 XXXX 34     sc4     Si  1.100
Si10    19.407807730   10.151261341    7.275820291 XXXX 34     sc4     Si  1.100
Si11    24.903131635   10.560565048   11.004398425 XXXX 34     sc4     Si  1.100
Si12    21.953333815   10.743572994    3.130862404 XXXX 34     sc4     Si  1.100
H1      20.704481454   13.371003279    0.226094307 XXXX 34     hoy     H   0.400
H2      25.262492525    9.238792469   -0.153801773 XXXX 34     na+     Na  1.000
O1      20.040917982    9.814316210   22.882919985 XXXX 35     oc23    O  -0.550
O2      25.587914046   10.177166050   15.137789751 XXXX 35     oc23    O  -0.550
O3      22.827657265    9.611789464   18.706928086 XXXX 35     oc23    O  -0.550
O4      18.329896271   13.795608773   19.267451213 XXXX 35     oc23    O  -0.550
O5      23.804124596   13.991219065   23.401475154 XXXX 35     oc23    O  -0.550
O6      21.498100847   13.967581137   15.031858731 XXXX 35     oc23    O  -0.550
O7      21.440195525   12.761062938   23.540315462 XXXX 35     oc23    O  -0.550
O8      19.047020238   13.206322664   15.563293937 XXXX 35     oc23    O  -0.550
O9      24.451606272   12.648975768   19.558480490 XXXX 35     oc23    O  -0.550
O10     19.433694681   10.732525731   20.500145321 XXXX 35     oc23    O  -0.550
O11     25.317833001   10.787934391   12.573277082 XXXX 35     oc23    O  -0.550
O12     22.342372728   10.981833198   16.601916243 XXXX 35     oc23    O  -0.550
O13     19.025436260   12.174908436   22.630106802 XXXX 35     oc23    O  -0.550
O14     16.706944858   12.594249721   14.574205358 XXXX 35     oc23    O  -0.550
O15     21.972602958   12.118875491   18.953107210 XXXX 35     oc23    O  -0.550
O16     17.999248265   11.300742940   18.386019584 XXXX 35     oc23    O  -0.550
O17     23.560247839   11.447307121   22.538328492 XXXX 35     oc23    O  -0.550
O18     20.769023586   11.452325027   14.655367378 XXXX 35     oc23    O  -0.550
O19     23.241415469   10.805296604   14.155860490 XXXX 35     oc23    O  -0.550
O20     17.516940189   10.092150119   22.265532570 XXXX 35     oc23    O  -0.550
O21     20.381715283   10.238420203   18.134327329 XXXX 35     oc23    O  -0.550
O22     16.944785369   13.343453648   17.081860173 XXXX 35     oc23    O  -0.550
O23     22.520631349   13.380869964   21.203171270 XXXX 35     oc23    O  -0.550
O24     19.830229908   13.297812104   13.098777138 XXXX 35     oc23    O  -0.550
Si1     24.818526062   11.117411476   14.089848618 XXXX 35     sc4     Si  1.100
Si2     18.996564337   10.679630361   22.038564019 XXXX 35     sc4     Si  1.100
Si3     21.891234181   10.752793290   18.108267102 XXXX 35     sc4     Si  1.100
Si4     17.335769945   12.764935051   18.532806987 XXXX 35     sc4     Si  1.100
Si5     22.834738016   12.891993439   22.693366668 XXXX 35     sc4     Si  1.100
Si6     20.294663962   12.981569737   14.591991241 XXXX 35     sc4     Si  1.100
Si7     19.884754726   13.217668992   23.482897065 XXXX 35     sc4     Si  0.725
Si8     17.487634934   13.562061936   15.585025801 XXXX 35     sc4     Si  1.100
Si9     22.944479059   13.176215159   19.667022370 XXXX 35     sc4     Si  1.100
Si10    19.055435002   10.268604004   19.025903293 XXXX 35     sc4     Si  1.100
Si11    23.902763937    9.961906507   23.093408652 XXXX 35     sc4     Si  1.100
Si12    21.986049817   10.531938835   15.120204583 XXXX 35     sc4     Si  1.100
O1      20.129013236   14.992570469   11.173488863 XXXX 36     oc23    O  -0.550
O2      25.257584017   13.971083942    3.338595039 XXXX 36     oc23    O  -0.550
O3      23.249285286   14.734285794    6.628598462 XXXX 36     oc23    O  -0.550
O4      18.867145169   18.708669921    7.775177917 XXXX 36     oc23    O  -0.550
O5      24.425619622   18.863385662   11.076769802 XXXX 36     oc23    O  -0.550
O6      21.408496459   19.801203543    2.494920292 XXXX 36     oc23    O  -0.550
O7      21.986321969   18.160524191   11.657394211 XXXX 36     oc23    O  -0.550
O8      19.543462088   18.151953149    3.839460321 XXXX 36     oc23    O  -0.550
O9      24.901145333   17.710418001    7.679591843 XXXX 36     oc23    O  -0.550
O10     20.116167621   15.584519066    8.631383942 XXXX 36     oc23    O  -0.550
O11     27.080316031   14.537064252    1.801614038 XXXX 36     oc23    O  -0.550
O12     22.742975489   16.240144575    4.297073222 XXXX 36     oc23    O  -0.550
O13     19.775903411   17.488457572   10.479338550 XXXX 36     oc23    O  -0.550
O14     17.125648407   16.750365202    3.724419688 XXXX 36     oc23    O  -0.550
O15     22.474796611   17.257927496    6.720776436 XXXX 36     oc23    O  -0.550
O16     18.432924822   16.189617849    6.854569052 XXXX 36     oc23    O  -0.550
O17     23.731752821   16.348185704   10.904334075 XXXX 36     oc23    O  -0.550
O18     21.285469569   17.120168297    2.053653237 XXXX 36     oc23    O  -0.550
O19     24.079268465   15.771165598    1.950385683 XXXX 36     oc23    O  -0.550
O20     17.904159296   15.727060867   10.047518910 XXXX 36     oc23    O  -0.550
O21     20.807602037   15.458502116    6.045206644 XXXX 36     oc23    O  -0.550
O22     17.659435012   18.275059968    5.743759176 XXXX 36     oc23    O  -0.550
O23     22.806826958   18.058905460    9.195764900 XXXX 36     oc23    O  -0.550
O24     18.801134210   19.152185030    1.742111926 XXXX 36     oc23    O  -0.550
Si1     25.628979051   15.249984510    2.516178891 XXXX 36     sc4     Si  1.100
Si2     19.492885995   15.955545067   10.072259569 XXXX 36     sc4     Si  1.100
Si3     22.342419682   15.890584531    5.885112535 XXXX 36     sc4     Si  1.100
Si4     17.845346222   17.654167994    7.126285926 XXXX 36     sc4     Si  1.100
Si5     23.243166389   17.855926951   10.717631215 XXXX 36     sc4     Si  1.100
Si6     20.312576322   18.531997924    2.458610436 XXXX 36     sc4     Si  1.100
Si7     20.412995575   18.435311932   11.614989817 XXXX 36     sc4     Si  1.100
Si8     17.951325247   18.088544844    4.242262052 XXXX 36     sc4     Si  1.100
Si9     23.367957426   18.160520402    7.704520861 XXXX 36     sc4     Si  1.100
Si10    19.652309066   15.213228932    7.142428086 XXXX 36     sc4     Si  1.100
Si11    24.954777944   15.395191233   11.296761225 XXXX 36     sc4     Si  1.100
Si12    22.493671581   15.967699921    2.672634930 XXXX 36     sc4     Si  1.100
O1      19.811907168   14.675582166   22.848501148 XXXX 37     oc23    O  -0.550
O2      25.361435548   15.118131176   15.377652366 XXXX 37     oc23    O  -0.550
O3      22.856977735   14.588410727   18.925496660 XXXX 37     oc23    O  -0.550
O4      18.273472267   18.772140145   18.980793971 XXXX 37     oc23    O  -0.550
O5      24.021977308   18.958863278   23.409593300 XXXX 37     oc23    O  -0.550
O6      21.403345546   18.922891777   14.953569466 XXXX 37     oc23    O  -0.550
O7      21.186440241   18.553316781   23.614060855 XXXX 37     oc23    O  -0.550
O8      18.938291196   18.278637352   15.545440744 XXXX 37     oc23    O  -0.550
O9      24.434115456   17.641223359   19.519704649 XXXX 37     oc23    O  -0.550
O10     19.264361665   15.902294491   20.596149995 XXXX 37     oc23    O  -0.550
O11     25.354878416   15.666159188   12.817340720 XXXX 37     oc23    O  -0.550
O12     22.293861202   15.862482651   16.729727584 XXXX 37     oc23    O  -0.550
O13     18.948485671   17.124580322   22.978672440 XXXX 37     oc23    O  -0.550
O14     16.730993668   17.546492989   14.409539794 XXXX 37     oc23    O  -0.550
O15     21.932532992   17.029096134   19.098231794 XXXX 37     oc23    O  -0.550
O16     17.986707357   16.238751744   18.374468919 XXXX 37     oc23    O  -0.550
O17     23.065141119   16.581259514   22.993903524 XXXX 37     oc23    O  -0.550
O18     20.647153593   16.425671430   14.817414557 XXXX 37     oc23    O  -0.550
O19     23.148264013   15.883489214   14.247779739 XXXX 37     oc23    O  -0.550
O20     17.338127188   15.295796697   22.253774627 XXXX 37     oc23    O  -0.550
O21     20.363215605   15.122740318   18.330652072 XXXX 37     oc23    O  -0.550
O22     16.770026880   18.085232621   16.996537752 XXXX 37     oc23    O  -0.550
O23     22.539797154   18.515476570   21.252716245 XXXX 37     oc23    O  -0.550
O24     19.786831395   18.120395536   13.055147558 XXXX 37     oc23    O  -0.550
Si1     24.746155085   16.073129142   14.242544349 XXXX 37     sc4     Si  1.100
Si2     18.864491729   15.758956274   22.142759792 XXXX 37     sc4     Si  1.100
Si3     21.865634132   15.654970155   18.265272751 XXXX 37     sc4     Si  1.100
Si4     17.246013394   17.658918971   18.471521762 XXXX 37     sc4     Si  1.100
Si5     22.676156708   18.170243329   22.841788975 XXXX 37     sc4     Si  1.100
Si6     20.186771541   17.938584078   14.596411748 XXXX 37     sc4     Si  1.100
Si7     19.532056379   18.588756714   23.240841019 XXXX 37     sc4     Si  1.100
Si8     17.353742261   18.494685527   15.550848955 XXXX 37     sc4     Si  1.100
Si9     22.918746739   18.137358524   19.705127672 XXXX 37     sc4     Si  1.100
Si10    18.990484909   15.258961718   19.146678877 XXXX 37     sc4     Si  1.100
Si11    24.277602208   15.555806936   23.420501936 XXXX 37     sc4     Si  1.100
Si12    21.903002807   15.522081575   15.204669428 XXXX 37     sc4     Si  1.100
O1      20.142642273   19.978105470   11.269400023 XXXX 38     oc23    O  -0.550
O2      26.086024623   19.061727423    2.904549924 XXXX 38     oc23    O  -0.550
O3      23.233662106   19.666780962    7.229273679 XXXX 38     oc23    O  -0.550
O4      18.935052926   23.638760621    7.196932894 XXXX 38     oc23    O  -0.550
O5      24.099127347   23.857005669   11.035177834 XXXX 38     oc23    O  -0.550
O6      21.637395447   24.554674685    2.495552069 XXXX 38     oc23    O  -0.550
O7      21.707409036   23.067830062   11.807719495 XXXX 38     oc23    O  -0.550
O8      19.803514071   23.124348482    3.631180056 XXXX 38     oc23    O  -0.550
O9      24.605005469   22.784964719    8.161989754 XXXX 38     oc23    O  -0.550
O10     19.822559446   20.874416472    8.857526150 XXXX 38     oc23    O  -0.550
O11     27.019308814   21.692719800    2.286290905 XXXX 38     oc23    O  -0.550
O12     22.820394632   20.272141238    4.750699870 XXXX 38     oc23    O  -0.550
O13     19.337377512   22.455151969   10.914530738 XXXX 38     oc23    O  -0.550
O14     17.968162999   21.725042143    2.572621420 XXXX 38     oc23    O  -0.550
O15     22.476466384   22.109771846    6.737422145 XXXX 38     oc23    O  -0.550
O16     18.389387771   21.105488448    6.715950071 XXXX 38     oc23    O  -0.550
O17     23.468014283   21.307394256   10.937596585 XXXX 38     oc23    O  -0.550
O18     22.157982137   22.165892386    3.217734113 XXXX 38     oc23    O  -0.550
O19     24.123301869   20.740668998    2.371226943 XXXX 38     oc23    O  -0.550
O20     17.736912986   20.455970977   10.364460438 XXXX 38     oc23    O  -0.550
O21     20.795979662   20.079237825    6.504755374 XXXX 38     oc23    O  -0.550
O22     17.555596952   22.937673043    5.003673657 XXXX 38     oc23    O  -0.550
O23     22.387945420   22.970461918    9.286146274 XXXX 38     oc23    O  -0.550
O24     20.596496512   22.569383713    1.177249038 XXXX 38     oc24    O  -0.675
Si1     25.723072556   20.648383312    2.773746759 XXXX 38     sc4     Si  1.100
Si2     19.264560820   20.952797705   10.353830101 XXXX 38     sc4     Si  1.100
Si3     22.326191515   20.559714506    6.285394799 XXXX 38     sc4     Si  1.100
Si4     17.834857220   22.618673159    6.576439579 XXXX 38     sc4     Si  1.100
Si5     22.901771258   22.808254051   10.783281033 XXXX 38     sc4     Si  1.100
Si6     21.043106196   23.106497899    2.648571106 XXXX 38     sc4     Si  1.100
Si7     20.160944192   23.437474607   11.875128086 XXXX 38     sc4     Si  1.100
Si8     18.233771248   23.028626817    3.526393950 XXXX 38     sc4     Si  1.100
Si9     23.072020700   23.118058391    7.867389856 XXXX 38     sc4     Si  1.100
Si10    19.485470180   20.181665563    7.459484974 XXXX 38     sc4     Si  1.100
Si11    24.756334937   20.410815639   11.296477902 XXXX 38     sc4     Si  1.100
Si12    22.648866125   20.672187112    3.188143055 XXXX 38     sc4     Si  1.100
H2      21.159099312   22.950187829    0.531605009 XXXX 38     hoy     H   0.400
O1      19.552390107   19.431724711   21.939784988 XXXX 39     oc23    O  -0.550
O2      25.269523125   20.106402461   15.315580821 XXXX 39     oc23    O  -0.550
O3      22.808119582   19.444552928   18.795734254 XXXX 39     oc23    O  -0.550
O4      18.337924350   23.666225369   18.857498482 XXXX 39     oc23    O  -0.550
O5      23.777749456   24.148448101   22.868682290 XXXX 39     oc23    O  -0.550
O6      21.189134200   23.901459907   15.446664933 XXXX 39     oc23    O  -0.550
O7      21.988878974   22.332735290   22.557885968 XXXX 39     oc23    O  -0.550
O8      18.736471690   23.098844889   15.723350999 XXXX 39     oc23    O  -0.550
O9      24.428010399   22.740521218   18.177958584 XXXX 39     oc23    O  -0.550
O10     19.073054420   20.948353131   20.038818946 XXXX 39     oc23    O  -0.550
O11     25.171809571   20.661623972   12.802038488 XXXX 39     oc23    O  -0.550
O12     22.322823414   20.725385297   16.615161910 XXXX 39     oc23    O  -0.550
O13     19.324898244   21.991985262   22.429046461 XXXX 39     oc23    O  -0.550
O14     16.466970176   22.546950935   14.614095516 XXXX 39     oc23    O  -0.550
O15     22.097734842   21.921163008   18.915746335 XXXX 39     oc23    O  -0.550
O16     17.921068981   21.227966340   17.983218011 XXXX 39     oc23    O  -0.550
O17     24.532472395   21.579680861   23.323346510 XXXX 39     oc23    O  -0.550
O18     20.550558239   21.412856158   14.850289528 XXXX 39     oc23    O  -0.550
O19     23.021746395   20.816666300   14.176623312 XXXX 39     oc23    O  -0.550
O20     17.282341469   20.351009228   21.927567876 XXXX 39     oc23    O  -0.550
O21     20.342010649   20.095746202   18.026210510 XXXX 39     oc23    O  -0.550
O22     16.624902874   23.245283589   17.069642034 XXXX 39     oc23    O  -0.550
O23     23.890546207   22.545326217   20.788029119 XXXX 39     oc23    O  -0.550
O24     19.648221663   23.333839639   13.369816066 XXXX 39     oc23    O  -0.550
Si1     24.593303704   21.053634789   14.216810624 XXXX 39     sc4     Si  1.100
Si2     18.798582512   20.735289294   21.534530562 XXXX 39     sc4     Si  1.100
Si3     21.874062510   20.549249388   18.117944026 XXXX 39     sc4     Si  1.100
Si4     17.245991814   22.629218365   18.364400765 XXXX 39     sc4     Si  1.100
Si5     23.588455037   22.617320880   22.394681731 XXXX 39     sc4     Si  1.100
Si6     20.050304405   22.937415817   14.851481982 XXXX 39     sc4     Si  1.100
Si7     20.528370708   23.051022491   22.698403063 XXXX 39     sc4     Si  1.100
Si8     17.200963888   23.510399962   15.636579227 XXXX 39     sc4     Si  1.100
Si9     23.295029519   22.921238653   19.302817919 XXXX 39     sc4     Si  1.100
Si10    18.903665825   20.217951930   18.688334249 XXXX 39     sc4     Si  1.100
Si11    25.227974603   20.090648306   23.220922621 XXXX 39     sc4     Si  1.100
Si12    21.812560102   20.466017467   15.135026720 XXXX 39     sc4     Si  1.100
O1      19.958877850   24.939846518   11.420788529 XXXX 40     oc23    O  -0.550
O2      25.069618122   23.877235340    3.460080942 XXXX 40     oc23    O  -0.550
O3      22.954075567   24.637827242    7.363204834 XXXX 40     oc23    O  -0.550
O4      18.953689872   28.771546177    7.857276848 XXXX 40     oc23    O  -0.550
O5      24.522499277   28.841217435   10.838227593 XXXX 40     oc23    O  -0.550
O6      20.917681181   29.087805984    2.164621577 XXXX 40     oc23    O  -0.550
O7      22.126526352   28.167166880   10.046457779 XXXX 40     oc23    O  -0.550
O8      19.264894678   28.420535167    3.956122643 XXXX 40     oc23    O  -0.550
O9      25.115831363   27.609635966    5.948967170 XXXX 40     oc23    O  -0.550
O10     19.900886952   25.445047380    8.890442579 XXXX 40     oc23    O  -0.550
O11     25.187598587   24.649539000    0.952767711 XXXX 40     oc24    O  -0.675
O12     22.596801415   25.205057343    4.820953176 XXXX 40     oc23    O  -0.550
O13     19.720030406   27.380881509   10.683863866 XXXX 40     oc23    O  -0.550
O14     17.492121537   26.696009337    4.042500577 XXXX 40     oc23    O  -0.550
O15     22.614238997   27.145588934    6.570041966 XXXX 40     oc23    O  -0.550
O16     18.291247761   26.246920239    7.068752715 XXXX 40     oc23    O  -0.550
O17     24.091596969   26.381071198    9.984107807 XXXX 40     oc23    O  -0.550
O18     21.291159305   26.926153567    3.454456762 XXXX 40     oc23    O  -0.550
O19     23.765803732   26.001471156    2.699569676 XXXX 40     oc23    O  -0.550
O20     17.721807716   25.707307023   10.269152016 XXXX 40     oc23    O  -0.550
O21     20.647389602   25.441822903    6.410453509 XXXX 40     oc23    O  -0.550
O22     17.598314680   28.428587261    5.904523238 XXXX 40     oc23    O  -0.550
O23     24.127675979   28.394899720    8.288568400 XXXX 40     oc23    O  -0.550
Si1     25.131210604   25.180886427    2.496218758 XXXX 40     sc4     Si  1.100
Si2     19.321467863   25.875907452   10.315263496 XXXX 40     sc4     Si  1.100
Si3     22.224245923   25.605923465    6.312024493 XXXX 40     sc4     Si  1.100
Si4     17.857053154   27.787577326    7.268333244 XXXX 40     sc4     Si  1.100
Si5     23.709432671   27.940569567    9.781875130 XXXX 40     sc4     Si  1.100
Si6     20.116812427   27.804212777    2.787605944 XXXX 40     sc4     Si  1.100
Si7     20.931220948   28.332563129   11.141368376 XXXX 40     sc4     Si  1.100
Si8     17.777724632   28.213614295    4.408968263 XXXX 40     sc4     Si  1.100
Si9     23.828554469   28.190173895    6.718938486 XXXX 40     sc4     Si  1.100
Si10    19.431202207   25.173764203    7.388817248 XXXX 40     sc4     Si  1.100
Si11    24.610959897   25.391022677   11.133630764 XXXX 40     sc4     Si  1.100
Si12    22.323968879   25.703512902    3.338926638 XXXX 40     sc4     Si  1.100
H1      25.261623387   23.711746608    0.979049753 XXXX 40     hoy     H   0.400
O1      20.336321460   24.370637520   21.751466115 XXXX 41     oc23    O  -0.550
O2      25.669155506   25.069207867   14.339221431 XXXX 41     oc23    O  -0.550
O3      22.761842572   24.439460662   19.210591641 XXXX 41     oc23    O  -0.550
O4      18.306005790   28.541158086   18.953470259 XXXX 41     oc23    O  -0.550
O5      23.752825212   29.078937872   23.468098016 XXXX 41     oc23    O  -0.550
O6      21.626031604   28.965881742   15.224737432 XXXX 41     oc23    O  -0.550
O7      21.398323406   27.502825282   23.752362303 XXXX 41     oc23    O  -0.550
O8      19.255217904   28.462459630   14.095606183 XXXX 41     oc23    O  -0.550
O9      24.103722522   28.073394204   18.870466548 XXXX 41     oc23    O  -0.550
O10     19.206347526   25.830332233   19.874990753 XXXX 41     oc23    O  -0.550
O11     24.171959843   26.063975870   12.470842957 XXXX 41     oc23    O  -0.550
O12     22.395451399   25.722100018   16.878729871 XXXX 41     oc23    O  -0.550
O13     19.804758296   27.010728155   21.984451134 XXXX 41     oc23    O  -0.550
O14     16.772378723   27.514627405   14.321261093 XXXX 41     oc23    O  -0.550
O15     21.833319836   26.889784790   19.150217876 XXXX 41     oc23    O  -0.550
O16     18.056003864   26.124488391   17.763895829 XXXX 41     oc23    O  -0.550
O17     23.776283107   26.503254910   23.822298085 XXXX 41     oc23    O  -0.550
O18     20.874122641   26.484429692   14.806048460 XXXX 41     oc23    O  -0.550
O19     23.149854503   25.237458595   14.534770099 XXXX 41     oc23    O  -0.550
O20     17.884328922   25.412270440   21.926456691 XXXX 41     oc23    O  -0.550
O21     20.436867982   24.950438625   18.054646976 XXXX 41     oc23    O  -0.550
O22     18.176934846   28.285243903   16.408060278 XXXX 41     oc23    O  -0.550
O23     23.075734118   27.433207817   21.432210455 XXXX 41     oc23    O  -0.550
O24     21.384208135   28.003285934   12.675368633 XXXX 41     oc23    O  -0.550
Si1     24.415981272   25.984109005   14.010993742 XXXX 41     sc4     Si  1.100
Si2     19.345592429   25.625458634   21.369501353 XXXX 41     sc4     Si  1.100
Si3     21.889739167   25.500498293   18.352555130 XXXX 41     sc4     Si  1.100
Si4     17.633983483   27.685203694   17.758997369 XXXX 41     sc4     Si  1.100
Si5     22.955541245   27.679821506   23.082711724 XXXX 41     sc4     Si  1.100
Si6     20.799551290   27.989869646   14.200504007 XXXX 41     sc4     Si  1.100
Si7     19.770686872   27.621630191   23.420837148 XXXX 41     sc4     Si  1.100
Si8     17.860666445   28.560852075   14.891700760 XXXX 41     sc4     Si  1.100
Si9     22.795451269   27.950795992   19.872137056 XXXX 41     sc4     Si  1.100
Si10    18.973613622   25.098376320   18.565599760 XXXX 41     sc4     Si  1.100
Si11    24.716263237   25.254215322   23.537023795 XXXX 41     sc4     Si  0.725
Si12    21.875389594   25.358050573   15.414350494 XXXX 41     sc4     Si  1.100
O1      20.360754497   29.826821954   11.115539825 XXXX 42     oc23    O  -0.550
O2      25.993423153   28.573176253    2.040114299 XXXX 42     oc23    O  -0.550
O3      23.423440755   29.600670618    6.069577337 XXXX 42     oc23    O  -0.550
O4      18.776201722   33.523295705    7.422579612 XXXX 42     oc23    O  -0.550
O5      24.178384866   33.906375208   11.099264583 XXXX 42     oc23    O  -0.550
O6      21.237861920   34.074373914    3.241678572 XXXX 42     oc23    O  -0.550
O7      21.791728887   33.178484267   10.484465818 XXXX 42     oc23    O  -0.550
O8      19.303249286   32.417609148    3.055496061 XXXX 42     oc23    O  -0.550
O9      24.936108081   32.885457445    6.121435548 XXXX 42     oc23    O  -0.550
O10     19.918792167   30.934781083    8.831521499 XXXX 42     oc23    O  -0.550
O11     25.022129976   30.413195415    0.474732651 XXXX 42     oc24    O  -0.900
O12     21.654698666   30.516573186    4.317596584 XXXX 42     oc23    O  -0.550
O13     19.477884581   32.256255544   11.029697981 XXXX 42     oc23    O  -0.550
O14     16.789988016   31.808146256    3.031220735 XXXX 42     oc23    O  -0.550
O15     22.466440964   32.070308195    6.437395100 XXXX 42     oc23    O  -0.550
O16     18.611262602   31.099277146    6.580498907 XXXX 42     oc23    O  -0.550
O17     23.574313688   31.323990329   10.862943508 XXXX 42     oc23    O  -0.550
O18     21.652568612   31.672426583    2.101949461 XXXX 42     oc23    O  -0.550
O19     23.591361378   29.754999297    2.630672223 XXXX 42     oc23    O  -0.550
O20     17.910018237   30.327807645   10.220764405 XXXX 42     oc23    O  -0.550
O21     20.997114740   29.915765263    6.724802946 XXXX 42     oc23    O  -0.550
O22     17.743034093   33.182968568    5.069907597 XXXX 42     oc23    O  -0.550
O23     23.868916353   32.729093904    8.668902388 XXXX 42     oc23    O  -0.550
O24     20.236088641   33.508456265    0.863546499 XXXX 42     oc24    O  -0.675
Si1     25.135289239   29.995894898    2.069081587 XXXX 42     sc4     Si  0.725
Si2     19.415005834   30.843460252   10.317522180 XXXX 42     sc4     Si  1.100
Si3     22.163984751   30.561924338    5.860173869 XXXX 42     sc4     Si  1.100
Si4     17.871993401   32.544994379    6.562715841 XXXX 42     sc4     Si  1.100
Si5     23.353269396   32.798208788   10.249861485 XXXX 42     sc4     Si  1.100
Si6     20.635251829   32.907394175    2.324258241 XXXX 42     sc4     Si  1.100
Si7     20.554983682   33.282823961   11.566507238 XXXX 42     sc4     Si  1.100
Si8     17.849860176   32.944716217    3.467170557 XXXX 42     sc4     Si  1.100
Si9     23.608045950   33.059410407    7.072978801 XXXX 42     sc4     Si  1.100
Si10    19.622530432   30.188294202    7.474965844 XXXX 42     sc4     Si  1.100
Si11    24.619284111   30.297657099   11.524589962 XXXX 42     sc4     Si  1.100
Si12    21.990078064   30.236675209    2.747903474 XXXX 42     sc4     Si  1.100
H1      20.362878976   32.822145071    0.235345236 XXXX 42     hoy     H   0.400
H2      25.471506019   28.471706903   -0.245574543 XXXX 42     na+     Na  1.000
O1      19.368837473   29.208038063   23.444048722 XXXX 43     oc23    O  -0.550
O2      25.253362843   29.835868777   15.430530894 XXXX 43     oc23    O  -0.550
O3      22.053312526   29.384795110   19.877841541 XXXX 43     oc23    O  -0.550
O4      18.475267384   33.607902172   19.284059520 XXXX 43     oc23    O  -0.550
O5      24.756962358   34.334967047   23.763314389 XXXX 43     oc23    O  -0.550
O6      21.480912077   33.823904133   15.486948279 XXXX 43     oc23    O  -0.550
O7      22.360744630   32.966096480   23.780829796 XXXX 43     oc23    O  -0.550
O8      18.980390220   33.507762811   14.992748154 XXXX 43     oc23    O  -0.550
O9      24.376130078   32.370203212   19.029924304 XXXX 43     oc23    O  -0.550
O10     19.043064635   29.893547099   21.046983955 XXXX 43     oc23    O  -0.550
O11     24.276719986   30.186833455   13.069892924 XXXX 43     oc23    O  -0.550
O12     22.169601000   30.505505876   17.446215169 XXXX 43     oc23    O  -0.550
O13     20.168269863   31.723800470   22.642886680 XXXX 43     oc23    O  -0.550
O14     16.630169082   32.524829667   14.500122959 XXXX 43     oc23    O  -0.550
O15     22.019564810   32.024158994   19.746085883 XXXX 43     oc23    O  -0.550
O16     17.539753545   31.137803906   19.233554403 XXXX 43     oc23    O  -0.550
O17     24.740278817   31.576101712   23.801450838 XXXX 43     oc23    O  -0.550
O18     20.612224150   31.429525141   15.407334051 XXXX 43     oc23    O  -0.550
O19     23.056398785   31.143064345   15.112186522 XXXX 43     oc23    O  -0.550
O20     17.559900781   31.012695318   22.868760061 XXXX 43     oc23    O  -0.550
O21     20.004166645   30.561326050   18.797023595 XXXX 43     oc23    O  -0.550
O22     17.289586073   32.655476384   17.055091833 XXXX 43     oc23    O  -0.550
O23     23.970781729   32.891482833   21.556142058 XXXX 43     oc23    O  -0.550
O24     20.911379009   32.873068516   13.126662831 XXXX 43     oc23    O  -0.550
Si1     24.480382669   30.884252594   14.487047505 XXXX 43     sc4     Si  1.100
Si2     19.047372907   30.507863392   22.520492566 XXXX 43     sc4     Si  1.100
Si3     21.583588696   30.638152677   18.964594014 XXXX 43     sc4     Si  1.100
Si4     17.300388459   32.660436211   18.713483062 XXXX 43     sc4     Si  1.100
Si5     23.937711211   32.951233841   23.222695701 XXXX 43     sc4     Si  1.100
Si6     20.450768306   32.879139937   14.721694520 XXXX 43     sc4     Si  1.100
Si7     20.706916732   32.991914921   23.542490917 XXXX 43     sc4     Si  1.100
Si8     17.463398013   33.386629341   15.573516281 XXXX 43     sc4     Si  1.100
Si9     23.299640529   32.995727297   20.027559011 XXXX 43     sc4     Si  1.100
Si10    18.686141755   30.031078679   19.497198591 XXXX 43     sc4     Si  1.100
Si11    25.141245517   30.006176664   23.372810610 XXXX 43     sc4     Si  1.100
Si12    21.821280779   30.467922330   15.835864516 XXXX 43     sc4     Si  1.100
O1      28.627360814    0.014807621   10.983054700 XXXX 44     oc23    O  -0.550
O3      31.372224422   -0.168714834    7.136695417 XXXX 44     oc23    O  -0.550
O4      27.062420940    3.817019099    7.149507137 XXXX 44     oc23    O  -0.550
O5      32.740687902    3.930295805   10.980536759 XXXX 44     oc23    O  -0.550
O6      29.854613084    4.038550532    3.139845267 XXXX 44     oc23    O  -0.550
O7      30.315523611    3.056398393   11.469621098 XXXX 44     oc23    O  -0.550
O8      27.365393747    3.322260035    3.271040504 XXXX 44     oc23    O  -0.550
O9      33.385627976    3.056141495    7.187732618 XXXX 44     oc23    O  -0.550
O10     28.132600548    0.925011513    8.603098828 XXXX 44     oc23    O  -0.550
O12     31.133920210    0.751680497    4.672335969 XXXX 44     oc23    O  -0.550
O13     27.806028124    2.454896303   10.802699619 XXXX 44     oc23    O  -0.550
O14     25.642130842    1.349248286    3.231228978 XXXX 44     oc23    O  -0.550
O15     30.939114842    2.407028719    6.604495225 XXXX 44     oc23    O  -0.550
O16     26.500725990    1.360341213    6.580812063 XXXX 44     oc23    O  -0.550
O17     32.133131161    1.287345385   10.956855944 XXXX 44     oc23    O  -0.550
O18     29.287489612    1.385797395    2.958511927 XXXX 44     oc23    O  -0.550
O19     31.762394164    0.723112167    2.172097012 XXXX 44     oc23    O  -0.550
O20     26.158873433    0.493862629   10.253493524 XXXX 44     oc23    O  -0.550
O21     29.016120334    0.671185889    6.164405245 XXXX 44     oc23    O  -0.550
O22     25.510367620    3.247225467    5.061436796 XXXX 44     oc23    O  -0.550
O23     31.406950564    2.749269964    9.055692418 XXXX 44     oc23    O  -0.550
O24     28.688305856    3.063873129    1.009907961 XXXX 44     oc24    O  -0.675
Si1     33.359041352    0.835510994    2.014265872 XXXX 44     sc4     Si  1.100
Si2     27.681327155    0.984939917   10.155252890 XXXX 44     sc4     Si  1.100
Si3     30.611454518    0.896836496    6.161722715 XXXX 44     sc4     Si  1.100
Si4     25.908951966    2.852690305    6.569394493 XXXX 44     sc4     Si  1.100
Si5     31.661398511    2.778170483   10.619663390 XXXX 44     sc4     Si  1.100
Si6     28.792029662    2.926054044    2.632847569 XXXX 44     sc4     Si  1.100
Si7     28.776052879    3.535460419   11.516338081 XXXX 44     sc4     Si  1.100
Si8     25.824374758    2.929894713    3.516016923 XXXX 44     sc4     Si  1.100
Si9     31.842011522    3.259753815    7.609383105 XXXX 44     sc4     Si  1.100
Si10    27.727801399    0.456610608    7.101514128 XXXX 44     sc4     Si  1.100
Si11    33.351174399    0.289930314   11.173535885 XXXX 44     sc4     Si  1.100
Si12    30.594465147    0.418081620    3.226483012 XXXX 44     sc4     Si  1.100
H       29.436649539    2.641051079    0.633939233 XXXX 44     hoy     H   0.400
O1      28.136061874   -0.195917920   22.543096931 XXXX 45     oc23    O  -0.550
O3      31.075713018   -0.355519289   18.459184655 XXXX 45     oc23    O  -0.550
O4      26.785624923    3.812607075   19.197728754 XXXX 45     oc23    O  -0.550
O5      31.689501092    4.528436166   23.134310469 XXXX 45     oc23    O  -0.550
O6      29.652511078    4.154571756   15.466830811 XXXX 45     oc23    O  -0.550
O7      29.396069882    2.873452082   23.725112892 XXXX 45     oc23    O  -0.550
O8      27.226116082    3.110117322   15.462369783 XXXX 45     oc23    O  -0.550
O9      32.716776368    2.608369467   19.492896965 XXXX 45     oc23    O  -0.550
O10     27.751535836    0.601938446   20.090506370 XXXX 45     oc23    O  -0.550
O12     30.658359602    1.125466059   16.409835866 XXXX 45     oc23    O  -0.550
O13     27.736682276    2.303817851   21.978799057 XXXX 45     oc23    O  -0.550
O14     24.778219561    2.644456830   14.695402006 XXXX 45     oc23    O  -0.550
O15     30.254271044    2.162080940   18.796381934 XXXX 45     oc23    O  -0.550
O16     26.141282669    1.382837498   18.304952283 XXXX 45     oc23    O  -0.550
O17     31.957844553    2.026920400   23.600019864 XXXX 45     oc23    O  -0.550
O18     29.183441879    1.732394494   14.424717204 XXXX 45     oc23    O  -0.550
O19     31.639097298    0.905027373   14.000967697 XXXX 45     oc23    O  -0.550
O20     25.769989060    0.847804192   21.924936610 XXXX 45     oc23    O  -0.550
O21     28.594747866    0.366544941   17.776217465 XXXX 45     oc23    O  -0.550
O22     25.204316994    3.508964192   17.160528624 XXXX 45     oc23    O  -0.550
O23     30.766487293    2.733590446   21.348440866 XXXX 45     oc23    O  -0.550
O24     28.356084077    3.778712140   13.088210706 XXXX 45     oc23    O  -0.550
Si1     33.230065950    1.035282608   14.048714134 XXXX 45     sc4     Si  1.100
Si2     27.338736873    0.842333125   21.567537028 XXXX 45     sc4     Si  1.100
Si3     30.143988298    0.825501390   17.881753185 XXXX 45     sc4     Si  1.100
Si4     25.622634725    2.896502914   18.594687738 XXXX 45     sc4     Si  1.100
Si5     30.915225073    3.063432482   22.955269322 XXXX 45     sc4     Si  1.100
Si6     28.601917232    3.221270658   14.607155126 XXXX 45     sc4     Si  1.100
Si7     27.742839215    2.928031463   23.397509972 XXXX 45     sc4     Si  1.100
Si8     25.692073866    3.592062871   15.609120036 XXXX 45     sc4     Si  1.100
Si9     31.201447654    3.027228307   19.781956516 XXXX 45     sc4     Si  1.100
Si10    27.258238369    0.272821210   18.662899020 XXXX 45     sc4     Si  1.100
Si11    32.576457629    0.557112750   23.544228206 XXXX 45     sc4     Si  1.100
Si12    30.334151337    0.734735021   14.906896843 XXXX 45     sc4     Si  1.100
O1      28.557323884    4.884583381   10.688993228 XXXX 46     oc23    O  -0.550
O3      31.490590837    4.800114203    7.545860864 XXXX 46     oc23    O  -0.550
O4      27.165087437    8.699400985    7.049263219 XXXX 46     oc23    O  -0.550
O5      32.139423258    8.908867612   11.302872982 XXXX 46     oc23    O  -0.550
O6      29.608982226    9.334867492    2.998739899 XXXX 46     oc23    O  -0.550
O7      29.956257578    7.999186826   10.271266911 XXXX 46     oc23    O  -0.550
O8      27.956643604    7.410939820    2.200257600 XXXX 46     oc23    O  -0.550
O9      33.219911870    7.949169429    6.633417968 XXXX 46     oc23    O  -0.550
O10     26.935911678    5.845346958    8.800529872 XXXX 46     oc23    O  -0.550
O12     29.997887322    5.006090238    5.614635257 XXXX 46     oc23    O  -0.550
O13     27.576154841    7.300602870   10.903916497 XXXX 46     oc23    O  -0.550
O14     25.378103467    6.396346643    2.861615968 XXXX 46     oc23    O  -0.550
O15     30.708248141    7.254107100    6.756963995 XXXX 46     oc23    O  -0.550
O16     27.015898161    6.299801295    6.278914132 XXXX 46     oc23    O  -0.550
O17     32.088249770    6.463037167   10.376008107 XXXX 46     oc23    O  -0.550
O18     29.510526537    6.712356405    3.814872317 XXXX 46     oc23    O  -0.550
O19     31.687336420    5.621229337    3.938356575 XXXX 46     oc23    O  -0.550
O20     26.099305662    5.161512455   10.949393530 XXXX 46     oc23    O  -0.550
O21     29.026203439    5.484474361    7.726702611 XXXX 46     oc23    O  -0.550
O22     26.487853489    8.144939607    4.496907643 XXXX 46     oc23    O  -0.550
O23     31.892875777    8.611491026    8.695032285 XXXX 46     oc23    O  -0.550
O24     31.057049534    7.031631195    2.031321721 XXXX 46     oc23    O  -0.550
Si1     32.466150816    6.341874411    2.808867133 XXXX 46     sc4     Si  1.100
Si2     27.330754146    5.834276802   10.321676323 XXXX 46     sc4     Si  1.100
Si3     30.345986850    5.686277057    6.956772611 XXXX 46     sc4     Si  1.100
Si4     26.323707089    7.715962317    6.087701940 XXXX 46     sc4     Si  1.100
Si5     31.537715786    7.979383179   10.144659477 XXXX 46     sc4     Si  1.100
Si6     29.558799378    7.718993572    2.597587589 XXXX 46     sc4     Si  1.100
Si7     28.776621344    8.274730559   11.294290761 XXXX 46     sc4     Si  1.100
Si8     26.410669513    7.685944269    2.906493567 XXXX 46     sc4     Si  1.100
Si9     31.774410569    8.420701957    7.092244308 XXXX 46     sc4     Si  1.100
Si10    27.488723089    5.335858050    7.446841083 XXXX 46     sc4     Si  1.100
Si11    32.870428212    5.488808562   11.432536729 XXXX 46     sc4     Si  1.100
Si12    30.185060926    5.293554134    4.134615583 XXXX 46     sc4     Si  1.100
O1      27.297835153    4.471176802   23.425435910 XXXX 47     oc23    O  -0.550
O3      31.096586031    4.588343549   19.381844544 XXXX 47     oc23    O  -0.550
O4      26.489689272    8.915326014   19.441810639 XXXX 47     oc23    O  -0.550
O5      33.168168697    9.642087057   23.989933752 XXXX 47     oc23    O  -0.550
O6      29.901049054    9.085244964   15.012684619 XXXX 47     oc23    O  -0.550
O7      30.593813896    8.403768969   23.889343320 XXXX 47     oc23    O  -0.550
O8      27.422584056    8.537780906   14.337647444 XXXX 47     oc23    O  -0.550
O9      32.845798944    7.542289614   19.295801006 XXXX 47     oc23    O  -0.550
O10     26.616447568    5.659471282   21.125992542 XXXX 47     oc23    O  -0.550
O12     29.745466196    6.046956417   17.518708305 XXXX 47     oc23    O  -0.550
O13     28.339577429    6.899535189   22.888076001 XXXX 47     oc23    O  -0.550
O14     25.023942175    7.655032565   14.980311015 XXXX 47     oc23    O  -0.550
O15     30.495851982    7.118791562   19.978685348 XXXX 47     oc23    O  -0.550
O16     26.722204613    6.397898645   18.513655252 XXXX 47     oc23    O  -0.550
O17     32.866825968    6.882535705   23.857979157 XXXX 47     oc23    O  -0.550
O18     29.031052264    6.623900344   15.031257541 XXXX 47     oc23    O  -0.550
O19     31.503917683    6.093338982   15.524866095 XXXX 47     oc23    O  -0.550
O20     25.693520460    6.374834775   23.433373959 XXXX 47     oc23    O  -0.550
O21     28.731383032    5.311521547   19.793936545 XXXX 47     oc23    O  -0.550
O22     26.754131443    8.475490878   16.813894717 XXXX 47     oc23    O  -0.550
O23     32.272851810    8.431431946   21.707923949 XXXX 47     oc23    O  -0.550
O24     29.313007550    7.915897348   12.753656338 XXXX 47     oc23    O  -0.550
Si1     32.719882508    6.068109988   14.460881567 XXXX 47     sc4     Si  1.100
Si2     27.032567276    5.873831632   22.687030740 XXXX 47     sc4     Si  1.100
Si3     30.064784505    5.788202524   19.125233482 XXXX 47     sc4     Si  1.100
Si4     26.200605861    7.912586648   18.191011246 XXXX 47     sc4     Si  1.100
Si5     32.205077236    8.347538542   23.365263478 XXXX 47     sc4     Si  1.100
Si6     28.927808726    8.039082686   14.288180305 XXXX 47     sc4     Si  1.100
Si7     28.915354372    8.209626142   23.720348356 XXXX 47     sc4     Si  1.100
Si8     26.197879271    8.712282327   15.322128665 XXXX 47     sc4     Si  1.100
Si9     31.685878006    8.192380102   20.166204361 XXXX 47     sc4     Si  1.100
Si10    27.171239799    5.309604260   19.649144516 XXXX 47     sc4     Si  1.100
Si11    33.153065141    5.342271209   23.309851345 XXXX 47     sc4     Si  1.100
Si12    29.992606824    5.692421565   15.912673487 XXXX 47     sc4     Si  1.100
O1      28.325391864    9.818554798   11.199742351 XXXX 48     oc23    O  -0.550
O3      31.455930032    9.829006334    6.289322015 XXXX 48     oc23    O  -0.550
O4      27.338967514   13.677302967    7.397135157 XXXX 48     oc23    O  -0.550
O5      32.947663985   13.866066839   10.950733393 XXXX 48     oc23    O  -0.550
O6      29.942947553   14.317779399    2.709465794 XXXX 48     oc23    O  -0.550
O7      30.537190252   13.257432935   11.466565596 XXXX 48     oc23    O  -0.550
O8      27.622373937   13.187236661    3.788582863 XXXX 48     oc23    O  -0.550
O9      33.173906402   12.720422648    6.918679756 XXXX 48     oc23    O  -0.550
O10     28.302702951   10.465837480    8.684850038 XXXX 48     oc23    O  -0.550
O12     30.501592862   11.362475265    4.243583437 XXXX 48     oc23    O  -0.550
O13     28.298096449   12.408199276   10.516111869 XXXX 48     oc23    O  -0.550
O14     25.629066557   11.314986864    3.491045309 XXXX 48     oc23    O  -0.550
O15     30.597836180   12.323388953    6.663212418 XXXX 48     oc23    O  -0.550
O16     26.548443368   11.175293958    6.977405513 XXXX 48     oc23    O  -0.550
O17     32.126250720   11.434570474   10.565684667 XXXX 48     oc23    O  -0.550
O18     28.925773429   12.016983765    2.109768869 XXXX 48     oc23    O  -0.550
O19     31.483066803   10.995017376    1.885043769 XXXX 48     oc23    O  -0.550
O20     26.195020386   10.917773537   10.133152997 XXXX 48     oc23    O  -0.550
O21     28.885743879   10.427724847    6.094204881 XXXX 48     oc23    O  -0.550
O22     25.706276768   13.024260444    5.528458525 XXXX 48     oc23    O  -0.550
O23     31.396204021   13.409732736    8.904926959 XXXX 48     oc23    O  -0.550
Si1     33.117971138   10.941170913    1.986549260 XXXX 48     sc4     Si  1.100
Si2     27.796219697   10.912823406   10.147494861 XXXX 48     sc4     Si  1.100
Si3     30.369165474   10.968817183    5.821922558 XXXX 48     sc4     Si  1.100
Si4     26.125958493   12.698367726    6.969525082 XXXX 48     sc4     Si  1.100
Si5     31.745239354   12.974133645   10.433431931 XXXX 48     sc4     Si  1.100
Si6     28.428848549   13.587226916    2.470959965 XXXX 48     sc4     Si  1.100
Si7     28.948646994   13.381785587   11.631374919 XXXX 48     sc4     Si  1.100
Si8     26.060815131   12.813091132    4.036532606 XXXX 48     sc4     Si  1.100
Si9     31.711088062   13.289579562    7.304893230 XXXX 48     sc4     Si  1.100
Si10    27.751765045   10.180553114    7.202034723 XXXX 48     sc4     Si  1.100
Si11    32.619804299   10.392743088   11.667247378 XXXX 48     sc4     Si  1.100
Si12    30.084757779   10.916282256    2.740095906 XXXX 48     sc4     Si  1.100
O1      28.220103670    9.563458401   23.146771468 XXXX 49     oc23    O  -0.550
O3      31.260127708    9.596659221   19.485581034 XXXX 49     oc23    O  -0.550
O4      26.629870938   14.031012090   19.454130487 XXXX 49     oc23    O  -0.550
O5      31.689067685   14.725747950   22.968174089 XXXX 49     oc23    O  -0.550
O6      29.943659062   13.974962390   15.194938138 XXXX 49     oc23    O  -0.550
O7      29.931778048   12.830769369   23.684569376 XXXX 49     oc23    O  -0.550
O8      27.422750766   13.573970907   15.538925878 XXXX 49     oc23    O  -0.550
O9      32.929660840   12.521199271   19.525293947 XXXX 49     oc23    O  -0.550
O10     26.657513280   10.750912537   21.414260117 XXXX 49     oc23    O  -0.550
O12     29.689061052   10.129297305   17.412007039 XXXX 49     oc23    O  -0.550
O13     27.297248326   12.009826798   23.675756250 XXXX 49     oc23    O  -0.550
O14     25.136758403   12.649773177   14.527302425 XXXX 49     oc23    O  -0.550
O15     30.442749170   12.048239840   19.067817069 XXXX 49     oc23    O  -0.550
O16     26.656960978   11.477972809   18.849936691 XXXX 49     oc23    O  -0.550
O17     32.676254550   12.335361018   23.693285281 XXXX 49     oc23    O  -0.550
O18     28.932932234   11.504463562   15.278374059 XXXX 49     oc23    O  -0.550
O19     31.456692561   11.026160090   15.656472151 XXXX 49     oc23    O  -0.550
O20     25.458297249    9.978856787   23.659538792 XXXX 49     oc23    O  -0.550
O21     28.731620963   10.224620253   19.855618266 XXXX 49     oc23    O  -0.550
O22     25.382174176   13.163941504   17.170343539 XXXX 49     oc23    O  -0.550
O23     31.236152506   12.639523802   21.450973507 XXXX 49     oc23    O  -0.550
O24     28.448501994   12.980771520   13.139478620 XXXX 49     oc23    O  -0.550
Si1     32.623443391   11.153218016   14.568942553 XXXX 49     sc4     Si  1.100
Si2     26.909158013   10.545537732   23.018006450 XXXX 49     sc4     Si  1.100
Si3     30.029125242   10.500071140   18.943253128 XXXX 49     sc4     Si  1.100
Si4     25.806354776   12.843287439   18.722707804 XXXX 49     sc4     Si  1.100
Si5     31.395308398   13.126032689   22.972853380 XXXX 49     sc4     Si  1.100
Si6     28.708340528   13.014141453   14.758826566 XXXX 49     sc4     Si  1.100
Si7     28.343357684   13.285493489   23.776363334 XXXX 49     sc4     Si  1.100
Si8     25.824770533   13.604272711   15.659795887 XXXX 49     sc4     Si  1.100
Si9     31.447738911   12.982816630   19.895334187 XXXX 49     sc4     Si  1.100
Si10    27.126225718   10.339130445   19.898716266 XXXX 49     sc4     Si  1.100
Si11    33.868230968   11.167483073   23.627710945 XXXX 49     sc4     Si  1.100
Si12    29.988368289   10.444015652   15.857149386 XXXX 49     sc4     Si  1.100
O1      28.527050942   14.904963179   11.317117582 XXXX 50     oc23    O  -0.550
O3      31.634261375   14.756282577    6.648532864 XXXX 50     oc23    O  -0.550
O4      27.330184736   18.698986052    7.624340885 XXXX 50     oc23    O  -0.550
O5      32.862926417   18.625533169   11.047324575 XXXX 50     oc23    O  -0.550
O6      30.389428589   19.041685339    3.246534837 XXXX 50     oc23    O  -0.550
O7      30.311074690   18.280715841   11.715782922 XXXX 50     oc23    O  -0.550
O8      28.182088571   17.828590851    3.694103884 XXXX 50     oc23    O  -0.550
O9      33.207580060   17.966784325    7.739681564 XXXX 50     oc23    O  -0.550
O10     28.392925521   15.608873916    8.770270414 XXXX 50     oc23    O  -0.550
O12     31.086386786   16.040987406    4.393428702 XXXX 50     oc23    O  -0.550
O13     28.084960832   17.404685191   10.658623482 XXXX 50     oc23    O  -0.550
O14     26.054101760   16.390913139    3.578767778 XXXX 50     oc23    O  -0.550
O15     30.831831840   17.255382641    6.723211593 XXXX 50     oc23    O  -0.550
O16     26.807259103   16.197023490    6.829697499 XXXX 50     oc23    O  -0.550
O17     31.934952978   16.241903433   11.256277295 XXXX 50     oc23    O  -0.550
O18     30.054256276   16.805100179    2.165554658 XXXX 50     oc23    O  -0.550
O19     32.507677509   15.674854436    2.091911874 XXXX 50     oc23    O  -0.550
O20     26.215731397   15.613936503   10.305084584 XXXX 50     oc23    O  -0.550
O21     29.153870989   15.288320082    6.200250517 XXXX 50     oc23    O  -0.550
O22     26.171759245   18.241977208    5.387280731 XXXX 50     oc23    O  -0.550
O23     31.138400162   17.673443820    9.309676000 XXXX 50     oc23    O  -0.550
O24     28.685218724   18.839880237    1.284866275 XXXX 50     oc24    O  -0.675
Si1     34.125995741   15.957777111    2.561092951 XXXX 50     sc4     Si  1.100
Si2     27.808686248   15.878069565   10.254265686 XXXX 50     sc4     Si  1.100
Si3     30.663066212   15.829848919    5.969602293 XXXX 50     sc4     Si  1.100
Si4     26.298056555   17.714768344    6.889699609 XXXX 50     sc4     Si  1.100
Si5     31.544483270   17.721864404   10.845407044 XXXX 50     sc4     Si  1.100
Si6     29.311737700   18.118395749    2.603979172 XXXX 50     sc4     Si  1.100
Si7     28.702496087   18.339161717   11.800732862 XXXX 50     sc4     Si  1.100
Si8     26.602019167   17.883940945    3.886051398 XXXX 50     sc4     Si  1.100
Si9     31.615088775   18.105641573    7.859263210 XXXX 50     sc4     Si  1.100
Si10    27.942938504   15.177415258    7.288628403 XXXX 50     sc4     Si  1.100
Si11    33.232112082   15.347377659   11.449270684 XXXX 50     sc4     Si  1.100
Si12    30.931575545   15.655217753    2.809397457 XXXX 50     sc4     Si  1.100
H       28.887920297   18.298738347    0.544337370 XXXX 50     hoy     H   0.400
O1      27.966213973   14.448999586   22.690121705 XXXX 51     oc23    O  -0.550
O3      31.230496903   14.569934240   19.567452956 XXXX 51     oc23    O  -0.550
O4      26.632974724   18.971534314   18.979769807 XXXX 51     oc23    O  -0.550
O5      32.372542175   19.993488961   23.732271181 XXXX 51     oc23    O  -0.550
O6      29.881872674   18.910766280   14.853255019 XXXX 51     oc23    O  -0.550
O7      29.715887715   19.002203934   23.856008728 XXXX 51     oc23    O  -0.550
O8      27.351574793   18.497628348   15.594943327 XXXX 51     oc23    O  -0.550
O9      32.994579728   17.906093685   19.804622234 XXXX 51     oc23    O  -0.550
O10     27.532106859   16.123344570   20.784503298 XXXX 51     oc23    O  -0.550
O12     30.857232343   15.664899956   17.136666069 XXXX 51     oc23    O  -0.550
O13     27.790457589   17.156452291   23.226078321 XXXX 51     oc23    O  -0.550
O14     25.120052091   17.606991388   14.522041767 XXXX 51     oc23    O  -0.550
O15     30.491596977   17.160918855   19.415984308 XXXX 51     oc23    O  -0.550
O16     26.520135625   16.432358814   18.430371700 XXXX 51     oc23    O  -0.550
O17     31.899515028   17.319313647   23.729911535 XXXX 51     oc23    O  -0.550
O18     29.064092857   16.472436046   15.349512114 XXXX 51     oc23    O  -0.550
O19     31.507971645   15.963627608   14.568034904 XXXX 51     oc23    O  -0.550
O20     25.585241453   15.763975369   22.468762999 XXXX 51     oc23    O  -0.550
O21     28.842462704   15.212790170   18.693396198 XXXX 51     oc23    O  -0.550
O22     25.185041205   18.154902996   17.035674343 XXXX 51     oc23    O  -0.550
O23     31.098394741   18.811111644   21.566299797 XXXX 51     oc23    O  -0.550
O24     28.245369820   17.791919629   13.231944584 XXXX 51     oc23    O  -0.550
Si1     33.102333470   16.006684318   14.376852559 XXXX 51     sc4     Si  1.100
Si2     27.218450070   15.880565533   22.338659382 XXXX 51     sc4     Si  1.100
Si3     30.383902748   15.669574126   18.705843627 XXXX 51     sc4     Si  1.100
Si4     25.679555825   17.789419498   18.498137438 XXXX 51     sc4     Si  1.100
Si5     31.291111642   18.786724425   23.227986463 XXXX 51     sc4     Si  1.100
Si6     28.619080881   17.915614899   14.777614622 XXXX 51     sc4     Si  1.100
Si7     28.114147708   18.785480154   23.369207663 XXXX 51     sc4     Si  1.100
Si8     25.736229684   18.600168512   15.608857253 XXXX 51     sc4     Si  1.100
Si9     31.464343553   18.360124934   19.998876506 XXXX 51     sc4     Si  1.100
Si10    27.387298860   15.447382430   19.330307574 XXXX 51     sc4     Si  1.100
Si11    32.698925917   15.880467691   23.496424425 XXXX 51     sc4     Si  1.100
Si12    30.340223502   15.509065169   15.581219440 XXXX 51     sc4     Si  1.100
O1      28.178073700   19.856028750   11.628361514 XXXX 52     oc23    O  -0.550
O3      31.263391324   19.642861024    7.697572868 XXXX 52     oc23    O  -0.550
O4      27.077466250   23.750910670    7.876812797 XXXX 52     oc23    O  -0.550
O5      32.582291856   23.612210152   11.485556028 XXXX 52     oc23    O  -0.550
O6      29.280611110   23.728224470    2.969525567 XXXX 52     oc23    O  -0.550
O7      30.383552322   22.922184676   10.397855532 XXXX 52     oc23    O  -0.550
O8      27.368057684   22.971762012    4.321350143 XXXX 52     oc23    O  -0.550
O9      33.425251179   22.887509884    6.456940805 XXXX 52     oc23    O  -0.550
O10     28.221967841   20.627179425    9.149491801 XXXX 52     oc23    O  -0.550
O12     31.135234942   20.428623085    5.246209014 XXXX 52     oc23    O  -0.550
O13     27.950874921   22.425351582   11.031468370 XXXX 52     oc23    O  -0.550
O14     25.560007501   21.380487957    4.151101767 XXXX 52     oc23    O  -0.550
O15     30.988729740   22.158324376    7.121012418 XXXX 52     oc23    O  -0.550
O16     26.543439786   21.208819564    7.272306544 XXXX 52     oc23    O  -0.550
O17     32.210914110   21.116442680   10.941518317 XXXX 52     oc23    O  -0.550
O18     29.184444183   21.228565642    3.804411529 XXXX 52     oc23    O  -0.550
O19     31.681735971   21.153876749    2.819426999 XXXX 52     oc23    O  -0.550
O20     26.025476890   20.793980537   10.433529239 XXXX 52     oc23    O  -0.550
O21     29.015215828   20.498989000    6.707741183 XXXX 52     oc23    O  -0.550
O22     25.516395685   23.193803180    5.984137746 XXXX 52     oc23    O  -0.550
O23     32.613648314   22.789811878    9.010700217 XXXX 52     oc23    O  -0.550
Si1     33.195850648   20.913611175    2.398915928 XXXX 52     sc4     Si  1.100
Si2     27.605073607   20.931340548   10.574461867 XXXX 52     sc4     Si  1.100
Si3     30.601328034   20.682487396    6.706797192 XXXX 52     sc4     Si  1.100
Si4     25.967084641   22.714175610    7.382673109 XXXX 52     sc4     Si  1.100
Si5     31.945103803   22.599912236   10.452007859 XXXX 52     sc4     Si  1.100
Si6     28.290637543   22.400169001    3.212664950 XXXX 52     sc4     Si  1.100
Si7     29.165897083   23.418580914   11.312429558 XXXX 52     sc4     Si  1.100
Si8     25.828215408   22.901308404    4.516907412 XXXX 52     sc4     Si  1.100
Si9     32.215162241   23.090781150    7.500687991 XXXX 52     sc4     Si  1.100
Si10    27.774819815   20.248483051    7.677205400 XXXX 52     sc4     Si  1.100
Si11    33.398711640   20.119118497   11.280860148 XXXX 52     sc4     Si  1.100
Si12    30.602578779   20.492187338    3.772108921 XXXX 52     sc4     Si  1.100
O1      28.164812759   19.558491334   21.996935824 XXXX 53     oc23    O  -0.550
O3      31.312829728   19.673872920   19.060533617 XXXX 53     oc23    O  -0.550
O4      26.698651602   23.704985900   19.043517430 XXXX 53     oc23    O  -0.550
O5      31.641048899   24.873160611   22.533663267 XXXX 53     oc23    O  -0.550
O6      29.572646149   24.105712814   15.393128556 XXXX 53     oc23    O  -0.550
O7      30.070254520   22.827153686   23.336246007 XXXX 53     oc23    O  -0.550
O8      27.400349493   23.163960079   14.204316910 XXXX 53     oc23    O  -0.550
O9      32.797851458   22.701604277   19.462345132 XXXX 53     oc23    O  -0.550
O10     27.629906640   21.022698089   19.951088659 XXXX 53     oc23    O  -0.550
O12     30.919192462   20.513585444   16.589973720 XXXX 53     oc23    O  -0.550
O13     27.667626065   22.204693686   22.273495554 XXXX 53     oc23    O  -0.550
O14     24.893715406   22.591404582   14.535089127 XXXX 53     oc23    O  -0.550
O15     30.399942921   22.099946148   18.550289304 XXXX 53     oc23    O  -0.550
O16     26.614005919   21.381024861   17.727931858 XXXX 53     oc23    O  -0.550
O17     32.624997114   22.356838112   22.456942848 XXXX 53     oc23    O  -0.550
O18     29.262623833   21.508495837   14.835790472 XXXX 53     oc23    O  -0.550
O19     31.632107752   20.742068229   14.146613915 XXXX 53     oc23    O  -0.550
O20     25.863632247   20.297385169   21.786815208 XXXX 53     oc23    O  -0.550
O21     28.884675429   20.011301694   18.035951972 XXXX 53     oc23    O  -0.550
O22     26.223993350   23.679636686   16.493600923 XXXX 53     oc23    O  -0.550
O23     30.737137842   23.101515472   20.913158675 XXXX 53     oc23    O  -0.550
O24     29.582878874   23.287016964   12.871927051 XXXX 53     oc23    O  -0.550
Si1     33.207709774   20.870032269   14.215255446 XXXX 53     sc4     Si  1.100
Si2     27.353223620   20.811968607   21.462945560 XXXX 53     sc4     Si  1.100
Si3     30.382536025   20.563471696   18.079251113 XXXX 53     sc4     Si  1.100
Si4     25.994399642   22.866958205   17.858941730 XXXX 53     sc4     Si  1.100
Si5     31.288397580   23.284960411   22.380189160 XXXX 53     sc4     Si  1.100
Si6     28.978251150   23.016993742   14.345426381 XXXX 53     sc4     Si  1.100
Si7     28.464915931   23.015253678   23.456151625 XXXX 53     sc4     Si  1.100
Si8     26.051505988   23.629560552   14.902540704 XXXX 53     sc4     Si  1.100
Si9     31.244161482   23.148318171   19.425152803 XXXX 53     sc4     Si  1.100
Si10    27.427136255   20.313108101   18.596672903 XXXX 53     sc4     Si  1.100
Si11    33.441829466   21.135326698   23.143997849 XXXX 53     sc4     Si  1.100
Si12    30.402721614   20.415081811   15.090152365 XXXX 53     sc4     Si  1.100
O1      28.747250602   24.942204835   10.930126996 XXXX 54     oc23    O  -0.550
O3      31.690163353   24.571224761    7.424619176 XXXX 54     oc23    O  -0.550
O4      27.283023598   28.617966230    7.036204256 XXXX 54     oc23    O  -0.550
O5      32.674600901   28.615314999   11.220257387 XXXX 54     oc23    O  -0.550
O6      30.714925995   28.697934413    3.048010179 XXXX 54     oc23    O  -0.550
O7      30.246220375   27.989725611   10.406818967 XXXX 54     oc23    O  -0.550
O8      28.542052569   27.504024861    2.008287546 XXXX 54     oc23    O  -0.550
O9      33.296747074   27.862535816    6.325010031 XXXX 54     oc23    O  -0.550
O10     27.240126698   26.001024044    9.034965630 XXXX 54     oc23    O  -0.550
O12     30.037499004   24.697933116    5.477045701 XXXX 54     oc23    O  -0.550
O13     27.786676034   27.404693251   11.072859482 XXXX 54     oc23    O  -0.550
O14     26.446181389   26.065521845    2.764718224 XXXX 54     oc23    O  -0.550
O15     30.906767102   26.945921856    6.788960635 XXXX 54     oc23    O  -0.550
O16     27.158215366   26.073972724    6.414646078 XXXX 54     oc23    O  -0.550
O17     31.958751844   26.131444888   11.118661857 XXXX 54     oc23    O  -0.550
O18     29.780755857   26.315513124    3.629236035 XXXX 54     oc23    O  -0.550
O19     31.765836905   24.964803228    3.602651909 XXXX 54     oc23    O  -0.550
O20     26.188588883   25.360785410   11.227665609 XXXX 54     oc23    O  -0.550
O21     29.226073887   25.220877977    7.791213029 XXXX 54     oc23    O  -0.550
O22     27.253251988   27.912258385    4.397450202 XXXX 54     oc23    O  -0.550
O23     32.381427520   27.435520151    8.881079967 XXXX 54     oc23    O  -0.550
Si1     32.672404883   25.744261117    2.526505078 XXXX 54     sc4     Si  1.100
Si2     27.504299207   25.925868355   10.583387447 XXXX 54     sc4     Si  1.100
Si3     30.471033053   25.389837792    6.858638756 XXXX 54     sc4     Si  1.100
Si4     26.720795333   27.568391571    5.924251873 XXXX 54     sc4     Si  1.100
Si5     31.805320201   27.546842424   10.396400661 XXXX 54     sc4     Si  1.100
Si6     30.094167054   27.321223602    2.485923661 XXXX 54     sc4     Si  1.100
Si7     28.977582463   28.411973111   11.331729601 XXXX 54     sc4     Si  1.100
Si8     27.070300638   27.554801387    2.799396575 XXXX 54     sc4     Si  1.100
Si9     32.055771875   27.925903498    7.384546614 XXXX 54     sc4     Si  1.100
Si10    27.649954577   25.251207002    7.733820810 XXXX 54     sc4     Si  1.100
Si11    33.079818644   25.109253629   11.597533688 XXXX 54     sc4     Si  1.100
Si12    30.188369485   24.834347051    3.915132943 XXXX 54     sc4     Si  1.100
O1      28.154049106   24.600398510   23.355918371 XXXX 55     oc23    O  -0.550
O3      31.097273884   24.671045221   18.910397392 XXXX 55     oc23    O  -0.550
O4      26.562146501   28.840759066   19.028556644 XXXX 55     oc23    O  -0.550
O5      32.408744830   29.945486659   23.694653518 XXXX 55     oc23    O  -0.550
O6      29.493552992   29.065516466   15.287124632 XXXX 55     oc23    O  -0.550
O7      29.654237644   29.086149573   23.766464956 XXXX 55     oc23    O  -0.550
O8      27.097235584   28.284509629   14.455050245 XXXX 55     oc23    O  -0.550
O9      32.838148589   27.838506397   19.786753441 XXXX 55     oc23    O  -0.550
O10     27.798637134   25.240320850   20.909099416 XXXX 55     oc23    O  -0.550
O12     30.462830843   26.158253713   16.937892078 XXXX 55     oc23    O  -0.550
O13     28.131782967   27.228192632   22.630900543 XXXX 55     oc23    O  -0.550
O14     24.628355225   27.428826139   14.660268402 XXXX 55     oc23    O  -0.550
O15     30.321444513   27.187806992   19.471692217 XXXX 55     oc23    O  -0.550
O16     26.086674750   26.272785872   19.165811831 XXXX 55     oc23    O  -0.550
O17     31.696530479   27.343484282   23.560628977 XXXX 55     oc23    O  -0.550
O18     29.020342005   26.552332117   14.812500038 XXXX 55     oc23    O  -0.550
O19     31.444758077   25.696662494   14.517604608 XXXX 55     oc23    O  -0.550
O20     25.912432471   25.725814616   22.602306800 XXXX 55     oc23    O  -0.550
O21     28.554018406   25.450751675   18.477716965 XXXX 55     oc23    O  -0.550
O22     25.959160788   27.641779610   16.869486691 XXXX 55     oc23    O  -0.550
O23     31.063355659   28.950579848   21.502022401 XXXX 55     oc23    O  -0.550
O24     29.311400757   28.287804550   12.889770035 XXXX 55     oc23    O  -0.550
Si1     33.038162224   25.857564726   14.478492497 XXXX 55     sc4     Si  1.100
Si2     27.496325722   25.727271525   22.404797817 XXXX 55     sc4     Si  1.100
Si3     30.111913169   25.881945370   18.481416506 XXXX 55     sc4     Si  1.100
Si4     25.648109626   27.677921072   18.478370139 XXXX 55     sc4     Si  1.100
Si5     31.222159785   28.854583636   23.157722614 XXXX 55     sc4     Si  1.100
Si6     28.703337828   28.041787821   14.364394758 XXXX 55     sc4     Si  1.100
Si7     28.100554965   28.765967429   23.224467316 XXXX 55     sc4     Si  1.100
Si8     25.752936623   28.309437143   15.388990854 XXXX 55     sc4     Si  1.100
Si9     31.337509383   28.379183895   19.960972390 XXXX 55     sc4     Si  1.100
Si10    27.267923346   25.174420834   19.401603539 XXXX 55     sc4     Si  1.100
Si11    32.570690260   26.005052829   23.235090446 XXXX 55     sc4     Si  1.100
Si12    30.139579223   25.619938580   15.444018153 XXXX 55     sc4     Si  1.100
O1      28.532919565   29.915132982   10.980592564 XXXX 56     oc23    O  -0.550
O3      31.543003905   29.436487483    7.568540626 XXXX 56     oc23    O  -0.550
O4      27.285880008   33.745117150    6.980682439 XXXX 56     oc23    O  -0.550
O5      32.853389678   33.607421068   11.051786725 XXXX 56     oc23    O  -0.550
O6      30.300696015   33.659567751    3.286400975 XXXX 56     oc23    O  -0.550
O7      30.347839033   32.988861876   11.546150096 XXXX 56     oc23    O  -0.550
O8      28.372160580   32.327533560    2.060898316 XXXX 56     oc23    O  -0.550
O9      33.282943513   32.918528138    7.541744976 XXXX 56     oc23    O  -0.550
O10     26.934990230   30.489149532    8.924243394 XXXX 56     oc23    O  -0.550
O12     30.363578074   29.712123931    5.526128572 XXXX 56     oc23    O  -0.550
O13     27.998989726   32.373147837   10.496458709 XXXX 56     oc23    O  -0.550
O14     25.991314810   31.138669630    2.867663104 XXXX 56     oc23    O  -0.550
O15     31.018823214   31.951981137    6.753234288 XXXX 56     oc23    O  -0.550
O16     26.951270194   31.175119039    6.348393138 XXXX 56     oc23    O  -0.550
O17     32.011088559   31.124631268   10.808517032 XXXX 56     oc23    O  -0.550
O18     29.850049353   31.139456119    3.589926482 XXXX 56     oc23    O  -0.550
O19     32.219697267   30.558512476    3.857562353 XXXX 56     oc23    O  -0.550
O20     26.109712397   30.849536736   11.385840636 XXXX 56     oc23    O  -0.550
O21     29.105062537   30.383571109    7.652345149 XXXX 56     oc23    O  -0.550
O22     27.028395802   32.997861195    4.403577030 XXXX 56     oc23    O  -0.550
O23     31.198584250   32.968646231    9.118176941 XXXX 56     oc23    O  -0.550
Si1     32.888764439   30.967096099    2.477764984 XXXX 56     sc4     Si  1.100
Si2     27.383275385   30.894592911   10.427154595 XXXX 56     sc4     Si  1.100
Si3     30.501836698   30.417552419    6.906832809 XXXX 56     sc4     Si  1.100
Si4     26.553198543   32.702128542    5.966031723 XXXX 56     sc4     Si  1.100
Si5     31.616410221   32.670318584   10.633250938 XXXX 56     sc4     Si  1.100
Si6     29.979132247   32.264938169    2.523627047 XXXX 56     sc4     Si  1.100
Si7     28.793165573   33.362996544   11.486709260 XXXX 56     sc4     Si  1.100
Si8     26.843558740   32.554681974    2.816146004 XXXX 56     sc4     Si  1.100
Si9     31.700888681   33.139022177    7.609487782 XXXX 56     sc4     Si  1.100
Si10    27.537699926   30.165557991    7.469023750 XXXX 56     sc4     Si  1.100
Si11    33.180301773   30.137027102   11.283714177 XXXX 56     sc4     Si  1.100
Si12    30.757545956   29.961939550    4.059264110 XXXX 56     sc4     Si  1.100
O1      28.052249626   29.740064645   21.991970916 XXXX 57     oc23    O  -0.550
O3      31.184630628   29.617193393   18.926264716 XXXX 57     oc23    O  -0.550
O4      26.658149990   33.628722886   18.729063604 XXXX 57     oc23    O  -0.550
O5      31.451702465   34.364961954   23.283891480 XXXX 57     oc23    O  -0.550
O6      29.851132545   34.038966200   14.870541254 XXXX 57     oc23    O  -0.550
O7      29.766267532   32.540783330   22.881399695 XXXX 57     oc23    O  -0.550
O8      27.390995374   33.288655007   15.406499105 XXXX 57     oc23    O  -0.550
O9      32.630778141   32.528284481   19.296453376 XXXX 57     oc23    O  -0.550
O10     27.304077925   31.024703363   19.964197567 XXXX 57     oc23    O  -0.550
O12     30.620103061   30.903029198   16.692637354 XXXX 57     oc23    O  -0.550
O13     27.256443403   32.219569154   22.236063066 XXXX 57     oc23    O  -0.550
O14     25.231520662   32.313695101   14.353093062 XXXX 57     oc23    O  -0.550
O15     30.155441009   32.052734887   18.949607872 XXXX 57     oc23    O  -0.550
O16     26.337081759   31.210445329   17.794047413 XXXX 57     oc23    O  -0.550
O17     32.491227980   32.166274784   22.348996678 XXXX 57     oc23    O  -0.550
O18     29.088326814   31.517231178   14.654735922 XXXX 57     oc23    O  -0.550
O19     31.450494505   30.512841633   14.258570734 XXXX 57     oc23    O  -0.550
O20     25.633034966   30.279981195   21.894590892 XXXX 57     oc23    O  -0.550
O21     28.705069020   30.040512672   18.106178422 XXXX 57     oc23    O  -0.550
O22     25.192408008   33.241850882   16.707724441 XXXX 57     oc23    O  -0.550
O23     30.916422363   33.617739760   20.903201328 XXXX 57     oc23    O  -0.550
O24     28.213130084   33.264302844   12.967757479 XXXX 57     oc23    O  -0.550
Si1     33.013648936   30.826060280   14.247248247 XXXX 57     sc4     Si  1.100
Si2     27.060448006   30.839139354   21.469904842 XXXX 57     sc4     Si  1.100
Si3     30.172729044   30.644973920   18.193050290 XXXX 57     sc4     Si  1.100
Si4     25.620845732   32.613407791   18.068029066 XXXX 57     sc4     Si  1.100
Si5     31.165191521   33.119293771   22.382810186 XXXX 57     sc4     Si  1.100
Si6     28.654495497   33.038770240   14.484234812 XXXX 57     sc4     Si  1.100
Si7     28.266553535   33.109406353   23.067855719 XXXX 57     sc4     Si  1.100
Si8     25.822517889   33.472246783   15.295541794 XXXX 57     sc4     Si  1.100
Si9     31.176117631   33.188814918   19.401961930 XXXX 57     sc4     Si  1.100
Si10    27.231769369   30.232229974   18.649306220 XXXX 57     sc4     Si  1.100
Si11    33.462673291   31.089169568   23.079736076 XXXX 57     sc4     Si  1.100
Si12    30.178537677   30.506175349   15.220818988 XXXX 57     sc4     Si  1.100
O2       0.724743907   -0.024458916    3.164229701 XXXX 58     oc23    O  -0.550
O11     33.794035696    0.187348470    0.580784554 XXXX 58     oc24    O  -0.675
H       34.717232995    0.008623087    0.592574649 XXXX 58     hoy     H   0.400
O2       0.432911836    0.075956076   15.170417040 XXXX 59     oc23    O  -0.550
O11     33.836863843    0.580348609   12.649840040 XXXX 59     oc23    O  -0.550
O2       0.037704642    5.049413476    2.298290316 XXXX 60     oc23    O  -0.550
O2       0.437372689    5.052552529   15.061084382 XXXX 61     oc23    O  -0.550
O11     32.285761126    5.655901112   12.947210502 XXXX 61     oc23    O  -0.550
O2       0.197381976    9.949787523    3.152786404 XXXX 62     oc23    O  -0.550
O11     33.684041249   10.363605197    0.570126388 XXXX 62     oc24    O  -0.675
H       33.121279266   10.661918372   -0.116678705 XXXX 62     hoy     H   0.400
O2       0.400224283   10.098699344   14.904194987 XXXX 63     oc23    O  -0.550
O11     32.075759198   10.838470016   13.100446120 XXXX 63     oc23    O  -0.550
O2       1.408862130   14.656033970    3.223455626 XXXX 64     oc23    O  -0.550
O11      2.061229394   16.836402081    1.848758477 XXXX 64     oc23    O  -0.550
O2       0.382371867   15.070456813   15.445232158 XXXX 65     oc23    O  -0.550
O11     33.579573135   15.404705719   12.984412524 XXXX 65     oc23    O  -0.550
O2       0.317790008   19.431334050    2.834576873 XXXX 66     oc23    O  -0.550
O11     33.330046200   21.114699048    0.782585756 XXXX 66     oc24    O  -0.675
H       32.591628936   21.626774882    0.509054311 XXXX 66     hoy     H   0.400
O2       0.308794462   19.928160858   15.424678063 XXXX 67     oc23    O  -0.550
O11     33.811423936   20.351867984   12.818440020 XXXX 67     oc23    O  -0.550
O2       0.281953520   24.480677454    2.114136524 XXXX 68     oc23    O  -0.550
O11     31.339628222   26.433907212    1.752920262 XXXX 68     oc23    O  -0.550
O2       0.379815168   24.861909423   15.505189739 XXXX 69     oc23    O  -0.550
O11     33.551043205   25.440262569   13.056582499 XXXX 69     oc23    O  -0.550
O2       0.373110067   29.516998491    2.072810188 XXXX 70     oc23    O  -0.550
O11     31.389850716   31.546827524    1.801447151 XXXX 70     oc23    O  -0.550
O2       0.318673218   29.907157734   15.383753509 XXXX 71     oc23    O  -0.550
O11     33.605363146   30.483312123   12.793928955 XXXX 71     oc23    O  -0.550
O14     33.805982498    2.391760152    2.042872800 XXXX 72     oc23    O  -0.550
O14     33.601624192    2.552644610   14.370632048 XXXX 73     oc23    O  -0.550
O14     33.417543806    7.400969450    3.583592808 XXXX 74     oc23    O  -0.550
O14     33.388211580    7.526481505   14.430534279 XXXX 75     oc23    O  -0.550
O14     33.817783557   12.373545352    2.287141668 XXXX 76     oc23    O  -0.550
O14     33.264590267   12.610971237   14.643788830 XXXX 77     oc23    O  -0.550
O14     33.871273049   16.997852879    3.697606106 XXXX 78     oc23    O  -0.550
O14     33.643556581   17.480388926   14.595455544 XXXX 79     oc23    O  -0.550
O14     34.054213041   22.019712770    3.108189984 XXXX 80     oc23    O  -0.550
O14     33.619978598   22.397799572   14.518553977 XXXX 81     oc23    O  -0.550
O14      0.290963861   26.936619966    3.097048219 XXXX 82     oc23    O  -0.550
O14      0.077990045   27.381903529   14.718590308 XXXX 83     oc23    O  -0.550
O14     33.947602581   32.206171799    2.623270760 XXXX 84     oc23    O  -0.550
O14     33.256867040   32.386978653   14.568402894 XXXX 85     oc23    O  -0.550
end
end
