!BIOSYM archive 3
PBC=ON
Materials Studio Generated CAR File
!DATE Thu Apr 10 19:49:52 2014
PBC    5.1540    8.9420    7.3910   91.9300  105.0500   89.8000 (P1)
Al1      0.938276811    4.401836405    3.352685177 XXXX 1      ay1     Al  1.449
Al2      1.082772059    7.303633477    3.217151390 XXXX 1      ay2     Al  1.449
Al3      3.644013041    8.801274934    3.352689112 XXXX 1      ay1     Al  1.449
Al4      3.498106040    2.848365587    3.281350393 XXXX 1      ay2     Al  1.449
Si1      0.222968064    3.107174125    0.399469296 XXXX 1      sy1     Si  1.100
Si2      0.283022963    5.791435618    0.613470235 XXXX 1      sy2     Si  1.100
Si3      2.679016228    7.501762690    0.542136260 XXXX 1      sy1     Si  1.100
Si4      2.768464571    1.602265940    0.477937407 XXXX 1      sy2     Si  1.100
O1      -0.011567381    2.983785187    2.189943822 XXXX 1      oy7     O  -0.758
O2       0.226868330    5.840381317    2.068676206 XXXX 1      oy8     O  -0.758
O3       0.489678017    4.370212200   -0.192604590 XXXX 1      oy1     O  -0.550
O4       1.380138084    1.972073010   -0.142669634 XXXX 1      oy2     O  -0.550
O5       1.297181170    6.875891611   -0.249662975 XXXX 1      oy3     O  -0.550
O6       2.688486643    7.466842499    2.097208636 XXXX 1      oy7     O  -0.758
O7       2.946212398    1.329524178    2.189946646 XXXX 1      oy8     O  -0.758
O8       2.870542104    0.032639092   -0.171198135 XXXX 1      oy1     O  -0.550
O9       3.938787316    6.475647352    0.214002884 XXXX 1      oy2     O  -0.550
O10      3.990687424    2.347147387   -0.128397506 XXXX 1      oy3     O  -0.550
O11      0.034421876    8.571291044    2.225617303 XXXX 1      oy9     O  -0.683
O12      4.162228161    1.422807677    4.166771704 XXXX 1      oy5     O  -0.683
O13     -0.448482013    4.016300843    4.173022179 XXXX 1      oy4     O  -0.683
O14     -0.576940381    7.392971704    4.272888891 XXXX 1      oy6     O  -0.683
O15      2.559659429    4.111191394    2.168550176 XXXX 1      oy9     O  -0.683
O16      1.587069529    5.758535089    4.215826847 XXXX 1      oy5     O  -0.683
O17      1.979372098    8.569692863    4.115960000 XXXX 1      oy4     O  -0.683
O18      1.888439948    3.157883456    4.173020528 XXXX 1      oy6     O  -0.683
H1       0.630849095    9.502510418    2.453863486 XXXX 1      hoy     H   0.200
H2       4.683068711    1.525685619    5.086983251 XXXX 1      hok     H   0.200
H3      -0.960346821    4.532695251    5.029024387 XXXX 1      hok     H   0.200
H4      -0.918262243    7.320165384    5.100366877 XXXX 1      hok     H   0.200
H5       3.095014401    4.874914093    1.797610719 XXXX 1      hoy     H   0.200
H6       1.849340867    5.611037091    5.136029265 XXXX 1      hok     H   0.200
H7       1.701344240    8.606105104    5.150296425 XXXX 1      hok     H   0.200
H8       1.781445979    2.467345917    5.021891655 XXXX 1      hok     H   0.200
end
end
