!BIOSYM archive 3
PBC=ON
Materials Studio Generated CAR File
!DATE Thu Mar 05 21:14:51 2009
PBC   11.2648    7.3850   22.4870   90.0000   90.0000   90.0000 (P1)
Si1      4.269912720    0.052609600    3.539004087 XXX  1      sc2     Si  1.000
Si2      4.269912720    0.052609600   -3.539004087 XXX  1      sc2     Si  1.000
Si3      5.118150234    2.206037045    1.600174904 XXX  1      sc3     Si  1.000
Si4      5.118150234    2.206037045   -1.600174904 XXX  1      sc3     Si  1.000
Si5      4.276108265    4.357694626    3.546874523 XXX  1      sc2     Si  1.000
Si6      4.276108265    4.357694626   -3.546874523 XXX  1      sc2     Si  1.000
O1       4.342570782    0.888957560    2.118275404 XXX  1      oc12    O  -0.600
O2       4.342570782    0.888957560   -2.118275404 XXX  1      oc12    O  -0.600
O3       4.274981976    5.896728992    2.984025002 XXX  1      oc12    O  -0.600
O4       4.274981976    5.896728992   -2.984025002 XXX  1      oc12    O  -0.600
O5       5.547901154    0.327643037    4.456923485 XXX  1      oc13    O  -0.925
O6       5.547901154    0.327643037   -4.456923485 XXX  1      oc13    O  -0.925
O7       2.923209190    0.345485657    4.366975307 XXX  1      oc13    O  -0.925
O8       2.923209190    0.345485657   -4.366975307 XXX  1      oc13    O  -0.925
O9       5.035354137    2.207886934    0.000000000 XXX  1      oc12    O  -0.500
O10      1.520744562    2.208046198    2.111529350 XXX  1      o*      O  -0.820
O11      4.336938381    3.507678747    2.138513803 XXX  1      oc12    O  -0.600
O12      4.336938381    3.507678747   -2.138513803 XXX  1      oc12    O  -0.600
O13      2.945738554    4.057924271    4.387213707 XXX  1      oc13    O  -0.925
O14      2.945738554    4.057924271   -4.387213707 XXX  1      oc13    O  -0.925
Ca1      1.493145823    2.217278719    4.622652531 XXX  1      ca+t    Ca  1.500
Ca2      4.223727226    4.045681000    6.599484921 XXX  1      ca+t    Ca  1.500
O17      2.405029297    0.040508650    0.000000000 XXX  1      o*      O  -0.820
O18      4.950868607    5.889313221    0.000000000 XXX  1      o*      O  -0.820
H1       3.044250461    0.062447581   -0.749387206 XXX  1      h*      H   0.410
H2       3.068221197    0.057370429    0.728448105 XXX  1      h*      H   0.410
H3       4.506146707    5.502648286   -0.786677261 XXX  1      h*      H   0.410
H4       4.420127139    5.470469727    0.712235902 XXX  1      h*      H   0.410
H7       1.799887356    1.426279111    1.586900342 XXX  1      h*      H   0.410
H8       0.751195049    2.491397026    1.563949433 XXX  1      h*      H   0.410
Si1      1.453719139    1.898987055   14.782504082 XXX  2      sc2     Si  1.000
Si2      1.453719139    1.898987055    7.704495907 XXX  2      sc2     Si  1.000
Si3      2.301956654    4.052414417   12.843674660 XXX  2      sc3     Si  1.000
Si4      2.301956654    4.052414417    9.643324852 XXX  2      sc3     Si  1.000
Si5      1.459914684    6.204071999   14.790374756 XXX  2      sc2     Si  1.000
Si6      1.459914684    6.204071999    7.696625710 XXX  2      sc2     Si  1.000
O1       1.526376963    2.735334873   13.361775398 XXX  2      oc12    O  -0.600
O2       1.526376963    2.735334873    9.125225067 XXX  2      oc12    O  -0.600
O3       1.458788276    0.358106524   14.227524757 XXX  2      oc12    O  -0.600
O4       1.458788276    0.358106524    8.259474754 XXX  2      oc12    O  -0.600
O5       2.731707573    2.174020529   15.700423241 XXX  2      oc13    O  -0.925
O6       2.731707573    2.174020529    6.786576748 XXX  2      oc13    O  -0.925
O7       0.107015446    2.191863060   15.610475540 XXX  2      oc13    O  -0.925
O8       0.107015446    2.191863060    6.876524925 XXX  2      oc13    O  -0.925
O9       2.219160557    4.054264545   11.243499756 XXX  2      oc12    O  -0.500
O10      1.520744562    5.354056358   13.382014275 XXX  2      oc12    O  -0.600
O11      1.520744562    5.354056358    9.104986191 XXX  2      oc12    O  -0.600
O12      0.129544839    5.904301643   15.630713463 XXX  2      oc13    O  -0.925
O13      0.129544839    5.904301643    6.856286526 XXX  2      oc13    O  -0.925
Ca2      1.407533646    5.892058849    4.644015312 XXX  2      ca+t    Ca  1.500
O16      2.134675026    0.350690752   11.243499756 XXX  2      o*      O  -0.820
H1       1.609205711    0.450983415   12.067331580 XXX  2      h*      H   0.410
H2       1.526012205    0.757812096   10.586948304 XXX  2      h*      H   0.410
O1       6.691276073    2.207812309    2.113778114 XXX  3      oc14    O  -0.660
O2       6.691276073    2.207812309   -2.113778114 XXX  3      oc14    O  -0.660
O1       3.875082493    4.054189682   13.357277870 XXX  4      oc14    O  -0.660
O2       3.875082493    4.054189682    9.129721642 XXX  4      oc14    O  -0.660
O3       4.336938381    0.361668795   13.355029106 XXX  4      o*      O  -0.820
O4       4.336938381    0.361668795    9.131970406 XXX  4      o*      O  -0.820
Ca1      4.309339523    0.370901227   15.866152763 XXX  4      ca+t    Ca  1.500
Ca2      4.309339523    0.370901227    6.620847702 XXX  4      ca+t    Ca  1.500
O5       5.221222878    5.579131126   11.243499756 XXX  4      o*      O  -0.820
O6       5.193061352    2.503280163   11.243499756 XXX  4      o*      O  -0.820
H1       5.989841869    6.008555017   10.805583619 XXX  4      h*      H   0.410
H2       4.557327484    5.710762453   10.533399564 XXX  4      h*      H   0.410
H3       6.169723743    2.446745261   11.343537229 XXX  4      h*      H   0.410
H4       4.927343989    2.147804186   12.120679020 XXX  4      h*      H   0.410
H5       4.970510092   -0.275567974   12.952222032 XXX  4      h*      H   0.410
H6       3.527528660    0.355838544    9.696209337 XXX  4      h*      H   0.410
H7       3.588308796    0.283588732   12.719479681 XXX  4      h*      H   0.410
H8       4.891993447    0.997958827    9.637624106 XXX  4      h*      H   0.410
CA2      4.223727226    4.045681000   15.887515068 XXX  5      ca+t    Ca  1.500
H1       7.315700273    2.626625098    1.524329225 XXX  6      hoy     H   0.410
H1       4.522240482    4.355332396   12.724908090 XXX  7      hoy     H   0.410
H1       7.341250758    1.934522722   -1.472039056 XXX  8      hoy     H   0.410
Si1      9.902299881    3.744854689    3.539004087 XXX  9      sc2     Si  1.000
Si2      9.902299881    3.744854689   -3.539004087 XXX  9      sc2     Si  1.000
Si3     10.750537872    5.898282051    1.600174904 XXX  9      sc3     Si  1.000
Si4     10.750537872    5.898282051   -1.600174904 XXX  9      sc3     Si  1.000
Si5      9.908495903    0.664939880    3.546874523 XXX  9      sc2     Si  1.000
Si6      9.908495903    0.664939880   -3.546874523 XXX  9      sc2     Si  1.000
O1       9.974957466    4.581202507    2.118275404 XXX  9      oc12    O  -0.600
O2       9.974957466    4.581202507   -2.118275404 XXX  9      oc12    O  -0.600
O3       9.907369614    2.203974247    2.984025002 XXX  9      oc12    O  -0.600
O4       9.907369614    2.203974247   -2.984025002 XXX  9      oc12    O  -0.600
O5      11.180288315    4.019887924    4.456923485 XXX  9      oc13    O  -0.925
O6      11.180288315    4.019887924   -4.456923485 XXX  9      oc13    O  -0.925
O7       8.555596352    4.037730694    4.366975307 XXX  9      oc13    O  -0.925
O8       8.555596352    4.037730694   -4.366975307 XXX  9      oc13    O  -0.925
O9      10.667741776    5.900132179    0.000000000 XXX  9      oc12    O  -0.500
O10      7.153131962    5.900291443    2.111529350 XXX  9      o*      O  -0.820
O11      9.969325066    7.199923992    2.138513803 XXX  9      oc12    O  -0.600
O12      9.969325066    7.199923992   -2.138513803 XXX  9      oc12    O  -0.600
O13      8.578125954    0.365169197    4.387213707 XXX  9      oc13    O  -0.925
O14      8.578125954    0.365169197   -4.387213707 XXX  9      oc13    O  -0.925
Ca1      7.125533104    5.909523964    4.622652531 XXX  9      ca+t    Ca  1.500
Ca2      9.856114388    0.352926284    6.599484921 XXX  9      ca+t    Ca  1.500
O17      8.037416458    3.732753754    0.000000000 XXX  9      o*      O  -0.820
O18     10.583255768    2.196558475    0.000000000 XXX  9      o*      O  -0.820
H1       9.021590449    3.745874364   -0.021602700 XXX  9      h*      H   0.410
H2       7.859799842    4.109749895   -0.890763131 XXX  9      h*      H   0.410
H3      10.056434915    2.009330029    0.805880017 XXX  9      h*      H   0.410
H4      10.027286209    1.771574710   -0.690273314 XXX  9      h*      H   0.410
H7       7.734922750    5.265369149    1.634546213 XXX  9      h*      H   0.410
H8       6.374905674    5.906809908    1.506701131 XXX  9      h*      H   0.410
Si1      7.086106300    5.591232300   14.782504082 XXX  10     sc2     Si  1.000
Si2      7.086106300    5.591232300    7.704495907 XXX  10     sc2     Si  1.000
Si3      7.934343815    0.359659672   12.843674660 XXX  10     sc3     Si  1.000
Si4      7.934343815    0.359659672    9.643324852 XXX  10     sc3     Si  1.000
Si5      7.092301846    2.511317253   14.790374756 XXX  10     sc2     Si  1.000
Si6      7.092301846    2.511317253    7.696625710 XXX  10     sc2     Si  1.000
O1       7.158764362    6.427579880   13.361775398 XXX  10     oc12    O  -0.600
O2       7.158764362    6.427579880    9.125225067 XXX  10     oc12    O  -0.600
O3       7.091175556    4.050351620   14.227524757 XXX  10     oc12    O  -0.600
O4       7.091175556    4.050351620    8.259474754 XXX  10     oc12    O  -0.600
O5       8.364094734    5.866265774   15.700423241 XXX  10     oc13    O  -0.925
O6       8.364094734    5.866265774    6.786576748 XXX  10     oc13    O  -0.925
O7       5.739402771    5.884108067   15.610475540 XXX  10     oc13    O  -0.925
O8       5.739402771    5.884108067    6.876524925 XXX  10     oc13    O  -0.925
O9       7.851547718    0.361509591   11.243499756 XXX  10     oc12    O  -0.500
O10      7.153131962    1.661301255   13.382014275 XXX  10     oc12    O  -0.600
O11      7.153131962    1.661301255    9.104986191 XXX  10     oc12    O  -0.600
O12      5.761931896    2.211546659   15.630713463 XXX  10     oc13    O  -0.925
O13      5.761931896    2.211546659    6.856286526 XXX  10     oc13    O  -0.925
Ca2      7.039920807    2.199303627    4.644015312 XXX  10     ca+t    Ca  1.500
O16      7.767062187    4.042935848   11.243499756 XXX  10     o*      O  -0.820
H1       7.234224519    4.134419708   10.423515706 XXX  10     h*      H   0.410
H2       7.159306385    4.445371949   11.903722836 XXX  10     h*      H   0.410
O1      12.323663712    5.900057316    2.113778114 XXX  11     oc14    O  -0.660
O2      12.323663712    5.900057316   -2.113778114 XXX  11     oc14    O  -0.660
O1       9.507470131    0.361434907   13.357277870 XXX  12     oc14    O  -0.660
O2       9.507470131    0.361434907    9.129721642 XXX  12     oc14    O  -0.660
O3       9.969325066    4.053914070   13.355029106 XXX  12     o*      O  -0.820
O4       9.969325066    4.053914070    9.131970406 XXX  12     o*      O  -0.820
Ca1      9.941726685    4.063146114   15.866152763 XXX  12     ca+t    Ca  1.500
Ca2      9.941726685    4.063146114    6.620847702 XXX  12     ca+t    Ca  1.500
O5      10.853610039    1.886376262   11.243499756 XXX  12     o*      O  -0.820
O6      10.825448036    6.195525169   11.243499756 XXX  12     o*      O  -0.820
H1      10.185026005    2.010397308   11.950603782 XXX  12     h*      H   0.410
H2      11.616897002    2.318344695   11.688347004 XXX  12     h*      H   0.410
H3      10.572698454    5.835374819   10.364457015 XXX  12     h*      H   0.410
H4      11.803663499    6.145382534   11.155857803 XXX  12     h*      H   0.410
H5      10.524458878    4.690906476   12.850560077 XXX  12     h*      H   0.410
H6      10.598620301    3.415074236    9.539097543 XXX  12     h*      H   0.410
H7       9.160006418    4.048653996   12.790853218 XXX  12     h*      H   0.410
H8       9.219933400    3.984088899    9.767834807 XXX  12     h*      H   0.410
CA2      9.856114388    0.352926284   15.887515068 XXX  13     ca+t    Ca  1.500
H1      12.962452123    5.746178755    1.425652679 XXX  14     hoy     H   0.410
H1      10.132165277   -0.055536687   12.767599696 XXX  15     hoy     H   0.410
H1      12.962085661    5.735380121   -1.428141049 XXX  16     hoy     H   0.410
O15      5.559170723    4.079219341    4.463669300 XXX  17     oc13    O  -0.925
O16      5.559170723    4.079219341   -4.463669300 XXX  17     oc13    O  -0.925
O14      2.742977142    5.925596714   15.707169533 XXX  18     oc13    O  -0.925
O15      2.742977142    5.925596714    6.779830933 XXX  18     oc13    O  -0.925
H1       4.500062060    3.640521423    9.721533013 XXX  19     hoy     H   0.410
O15     11.191557884    0.386464238    4.463669300 XXX  20     oc13    O  -0.925
O16     11.191557884    0.386464238   -4.463669300 XXX  20     oc13    O  -0.925
O14      8.375364304    2.232841730   15.707169533 XXX  21     oc13    O  -0.925
O15      8.375364304    2.232841730    6.779830933 XXX  21     oc13    O  -0.925
H1      10.155001122    0.657909594    9.763963296 XXX  22     hoy     H   0.410
O19      2.376867533    4.349657536    0.000000000 XXX  23     o*      O  -0.820
H5       2.591808268    3.766844904   -0.762984661 XXX  23     h*      H   0.410
H6       2.610598976    3.757653993    0.749421662 XXX  23     h*      H   0.410
Ca1      1.407533646    5.892058849   -4.644015312 XXX  24     ca+t    Ca  1.500
O7       1.520744562    2.208046198   -2.111529350 XXX  25     o*      O  -0.820
CA1      1.493145823    2.217278719   -4.622652531 XXX  25     ca+t    Ca  1.500
H7       1.778384565    1.433353335   -1.566580172 XXX  25     h*      H   0.410
H8       0.708068867    2.475861202   -1.618608594 XXX  25     h*      H   0.410
O19      8.009254456    0.656902611    0.000000000 XXX  26     o*      O  -0.820
H5       8.764200756    0.203223035    0.435262825 XXX  26     h*      H   0.410
H6       7.344915223    0.562583084    0.714659139 XXX  26     h*      H   0.410
Ca1      7.039920807    2.199303627   -4.644015312 XXX  27     ca+t    Ca  1.500
O7       7.153131962    5.900291443   -2.111529350 XXX  28     o*      O  -0.820
CA1      7.125533104    5.909523964   -4.622652531 XXX  28     ca+t    Ca  1.500
H7       6.399425150    6.009087809   -1.486920264 XXX  28     h*      H   0.410
H8       7.798531625    6.524918493   -1.707686433 XXX  28     h*      H   0.410
end
end
